C                                       
   1.00000000000000     
    11.6929409002733120    0.2658175987659510    0.0000000000000000
    -5.6240875912188288    9.6120791611024252    0.0000000000000000
     0.0000000000000000    0.0000000000000000   16.0000000000000000
  C             
    84
Direct
  0.0287191846403030  0.0401799118327410  0.6533554448763432
  0.9082520050317858  0.0380255062575322  0.6287701370827503
  0.0207839053753261  0.9128482917655303  0.6251805340748380
  0.8357026627221675  0.9227714985977095  0.5765041882432693
  0.9081080160377014  0.8510848262816018  0.5718134760979877
  0.1237121695737290  0.9441610949149523  0.5667825766288892
  0.0862975710860692  0.8586785024499964  0.4877068656104784
  0.9361576328951809  0.7952231557962169  0.4922392412969107
  0.1812666358899709  0.0867416877796392  0.5474732539838160
  0.1233781760567276  0.1452402081066712  0.6016609199684516
  0.0776650412663445  0.2352356536128848  0.5626532262241744
  0.1805282362757652  0.0974479226689905  0.4589321145548491
  0.1326151317545302  0.1724995741664017  0.4143539687498549
  0.0805965500111652  0.2516108338843850  0.4628178944431162
  0.1520038363214743  0.9600519591254245  0.4193840912564928
  0.8483984233878615  0.1177088566490937  0.5088216941822828
  0.9298756916886532  0.1680738042798065  0.5890562118790025
  0.9364427059271938  0.1911062676100186  0.4346481740996326
  0.9166304265598911  0.0709105448146914  0.3781927949184545
  0.0381211997736491  0.0762373496030512  0.3574440752126901
  0.0334191424138458  0.9425305811649911  0.3676830406187523
  0.7846745431326826  0.9596276893299570  0.4995526671706812
  0.8471213905830149  0.9422269817692051  0.4210794774705393
  0.9171304379647497  0.8653239244362314  0.4153244339476292
  0.4909603582397669  0.4955500921779467  0.6098816761268538
  0.4768993948122512  0.3675058090246482  0.5781945576304045
  0.3941492975874040  0.5218759225861608  0.5701035764200952
  0.3292635636849892  0.4113883145913990  0.5112711515728117
  0.3773193687023199  0.3164496494712788  0.5191750691747979
  0.4634194563670466  0.6420578290777927  0.5172151865025477
  0.4285039056771107  0.6057749584540234  0.4286044232431438
  0.3484481518042789  0.4582294736766462  0.4271521945367815
  0.6012078515445161  0.6955663229621754  0.5277479602988400
  0.6511056283411327  0.6882344547497253  0.4464823139307591
  0.5456667165024031  0.6330565154991816  0.3861674044635744
  0.6168682478322666  0.5993634749975733  0.5824918354460367
  0.6794928631859249  0.5355055275748718  0.5388375941002793
  0.6944569802203157  0.5872609114530849  0.4548593401650833
  0.5978857783377657  0.3769758651283256  0.5389802035820405
  0.5754182688341297  0.3534929342877614  0.4420765681557435
  0.6300941214588804  0.4817345746919341  0.3955613073584883
  0.5296229521901583  0.4997376142680446  0.3577430326999581
  0.4034530020568847  0.3884187168923265  0.3791982861727255
  0.4160075211733351  0.2822941524318081  0.4363797893293527
  0.5299861235635218  0.0105581644289259  0.5869489149312695
  0.6381992224369840  0.1374107963419597  0.5670091340070138
  0.5288809036589081  0.9008701257992792  0.5423392964613400
  0.6464962012634082  0.9490013750415225  0.4867715186600667
  0.7183274728096610  0.1152692682980816  0.4995496950567682
  0.4086391512565351  0.8359087764115517  0.4964673285813777
  0.4383296385428713  0.8555683561462665  0.4093243763877613
  0.5825169377619007  0.9265496422361508  0.4016675332904186
  0.3083929236018028  0.8772965053914045  0.5234587792215770
  0.2897666347540355  0.9632306185140077  0.4233040823861248
  0.3794073041261432  0.9252410298086119  0.3699903364896580
  0.4026433159496947  0.0063202018366711  0.5681021796945739
  0.4387322865926133  0.1253440995333870  0.5271181095365152
  0.3853762088303008  0.1228436312959369  0.4394906930356798
  0.5844724492541880  0.2246065572672889  0.5331573452095850
  0.6124642313624995  0.2380006029778957  0.4330860884835936
  0.4957437847293402  0.1462557432760388  0.3872164639848226
  0.4935823413611449  0.0469022916355059  0.3379797857542733
  0.6181149437147041  0.0529210851597024  0.3630180207186031
  0.6922117927036927  0.1683815855469083  0.4179144422670875
  0.9585670794445156  0.4351810792070067  0.6638178832433609
  0.8820049780999861  0.4898338328383734  0.6264809275052113
  0.0888903379760114  0.5511422815351381  0.6605547510945317
  0.0907612486585388  0.6777685672853271  0.6306873496720300
  0.9604815265134385  0.6339548768931770  0.6074221203893573
  0.1712176466876168  0.5230422477032449  0.6076761703993036
  0.2113781644287515  0.6195580767496445  0.5408463832888748
  0.1849029505407597  0.7386654599485913  0.5543660414065028
  0.0937126921950039  0.3807074524483547  0.5726578071968471
  0.0926517198733657  0.3994351306776283  0.4757651108369650
  0.1639659538320923  0.5541107421464064  0.4631618484279105
  0.9509266329138600  0.3197820522466244  0.6051823929429583
  0.8806773101001204  0.3336286794776154  0.5314276095529492
  0.9492361359449852  0.3500886045613614  0.4488482047525187
  0.8380748992354560  0.4265675148497377  0.5460687681715343
  0.8769351035711902  0.5195959307511530  0.4777974139285056
  0.9535826820591703  0.4894544747230153  0.4216535139171768
  0.0825156943736177  0.6039432922320381  0.4286587212091395
  0.0868230624238521  0.7212639758958743  0.4854616728875602
  0.9441792762347821  0.6598992258261853  0.5149034260696255
 
  0.00000000E+00  0.00000000E+00  0.00000000E+00
  0.00000000E+00  0.00000000E+00  0.00000000E+00
  0.00000000E+00  0.00000000E+00  0.00000000E+00
  0.00000000E+00  0.00000000E+00  0.00000000E+00
  0.00000000E+00  0.00000000E+00  0.00000000E+00
  0.00000000E+00  0.00000000E+00  0.00000000E+00
  0.00000000E+00  0.00000000E+00  0.00000000E+00
  0.00000000E+00  0.00000000E+00  0.00000000E+00
  0.00000000E+00  0.00000000E+00  0.00000000E+00
  0.00000000E+00  0.00000000E+00  0.00000000E+00
  0.00000000E+00  0.00000000E+00  0.00000000E+00
  0.00000000E+00  0.00000000E+00  0.00000000E+00
  0.00000000E+00  0.00000000E+00  0.00000000E+00
  0.00000000E+00  0.00000000E+00  0.00000000E+00
  0.00000000E+00  0.00000000E+00  0.00000000E+00
  0.00000000E+00  0.00000000E+00  0.00000000E+00
  0.00000000E+00  0.00000000E+00  0.00000000E+00
  0.00000000E+00  0.00000000E+00  0.00000000E+00
  0.00000000E+00  0.00000000E+00  0.00000000E+00
  0.00000000E+00  0.00000000E+00  0.00000000E+00
  0.00000000E+00  0.00000000E+00  0.00000000E+00
  0.00000000E+00  0.00000000E+00  0.00000000E+00
  0.00000000E+00  0.00000000E+00  0.00000000E+00
  0.00000000E+00  0.00000000E+00  0.00000000E+00
  0.00000000E+00  0.00000000E+00  0.00000000E+00
  0.00000000E+00  0.00000000E+00  0.00000000E+00
  0.00000000E+00  0.00000000E+00  0.00000000E+00
  0.00000000E+00  0.00000000E+00  0.00000000E+00
  0.00000000E+00  0.00000000E+00  0.00000000E+00
  0.00000000E+00  0.00000000E+00  0.00000000E+00
  0.00000000E+00  0.00000000E+00  0.00000000E+00
  0.00000000E+00  0.00000000E+00  0.00000000E+00
  0.00000000E+00  0.00000000E+00  0.00000000E+00
  0.00000000E+00  0.00000000E+00  0.00000000E+00
  0.00000000E+00  0.00000000E+00  0.00000000E+00
  0.00000000E+00  0.00000000E+00  0.00000000E+00
  0.00000000E+00  0.00000000E+00  0.00000000E+00
  0.00000000E+00  0.00000000E+00  0.00000000E+00
  0.00000000E+00  0.00000000E+00  0.00000000E+00
  0.00000000E+00  0.00000000E+00  0.00000000E+00
  0.00000000E+00  0.00000000E+00  0.00000000E+00
  0.00000000E+00  0.00000000E+00  0.00000000E+00
  0.00000000E+00  0.00000000E+00  0.00000000E+00
  0.00000000E+00  0.00000000E+00  0.00000000E+00
  0.00000000E+00  0.00000000E+00  0.00000000E+00
  0.00000000E+00  0.00000000E+00  0.00000000E+00
  0.00000000E+00  0.00000000E+00  0.00000000E+00
  0.00000000E+00  0.00000000E+00  0.00000000E+00
  0.00000000E+00  0.00000000E+00  0.00000000E+00
  0.00000000E+00  0.00000000E+00  0.00000000E+00
  0.00000000E+00  0.00000000E+00  0.00000000E+00
  0.00000000E+00  0.00000000E+00  0.00000000E+00
  0.00000000E+00  0.00000000E+00  0.00000000E+00
  0.00000000E+00  0.00000000E+00  0.00000000E+00
  0.00000000E+00  0.00000000E+00  0.00000000E+00
  0.00000000E+00  0.00000000E+00  0.00000000E+00
  0.00000000E+00  0.00000000E+00  0.00000000E+00
  0.00000000E+00  0.00000000E+00  0.00000000E+00
  0.00000000E+00  0.00000000E+00  0.00000000E+00
  0.00000000E+00  0.00000000E+00  0.00000000E+00
  0.00000000E+00  0.00000000E+00  0.00000000E+00
  0.00000000E+00  0.00000000E+00  0.00000000E+00
  0.00000000E+00  0.00000000E+00  0.00000000E+00
  0.00000000E+00  0.00000000E+00  0.00000000E+00
  0.00000000E+00  0.00000000E+00  0.00000000E+00
  0.00000000E+00  0.00000000E+00  0.00000000E+00
  0.00000000E+00  0.00000000E+00  0.00000000E+00
  0.00000000E+00  0.00000000E+00  0.00000000E+00
  0.00000000E+00  0.00000000E+00  0.00000000E+00
  0.00000000E+00  0.00000000E+00  0.00000000E+00
  0.00000000E+00  0.00000000E+00  0.00000000E+00
  0.00000000E+00  0.00000000E+00  0.00000000E+00
  0.00000000E+00  0.00000000E+00  0.00000000E+00
  0.00000000E+00  0.00000000E+00  0.00000000E+00
  0.00000000E+00  0.00000000E+00  0.00000000E+00
  0.00000000E+00  0.00000000E+00  0.00000000E+00
  0.00000000E+00  0.00000000E+00  0.00000000E+00
  0.00000000E+00  0.00000000E+00  0.00000000E+00
  0.00000000E+00  0.00000000E+00  0.00000000E+00
  0.00000000E+00  0.00000000E+00  0.00000000E+00
  0.00000000E+00  0.00000000E+00  0.00000000E+00
  0.00000000E+00  0.00000000E+00  0.00000000E+00
  0.00000000E+00  0.00000000E+00  0.00000000E+00
  0.00000000E+00  0.00000000E+00  0.00000000E+00
