C                                       
   1.00000000000000     
    10.9657769258186786   -0.3327400403767556    0.0000000000000000
    -0.2936655415898897    9.9020698058742891    0.0000000000000000
     0.0000000000000000    0.0000000000000000   16.0000000000000000
   C 
    68
Direct
  0.7777608142673956  0.4551366042857436  0.5823671074512571
  0.6859000885693052  0.5507731757236998  0.6254421529429720
  0.7243328827186650  0.4506668873678578  0.4958138071060085
  0.6001218333634808  0.5901221169541661  0.5655655879457768
  0.6272971531774363  0.5310250907220293  0.4850290844253424
  0.8148586880496734  0.4615673726835987  0.4246246908506030
  0.7535837089806087  0.5619989314838348  0.3671044550974057
  0.6403741581293823  0.5994993884436117  0.4063876253407965
  0.9191548638030581  0.5646283121831238  0.4690030380305344
  0.8731236654082715  0.5673173367172268  0.5587798224745731
  0.8576676694097944  0.6868187495600642  0.6002147420108340
  0.9252171193727413  0.7017777463830449  0.4179787368450442
  0.8799805284317620  0.8133136483930483  0.4688659842801108
  0.8619229658292670  0.8085040979640477  0.5538733894856952
  0.8195665472214998  0.6880539975525463  0.3567414967971446
  0.6798609614181004  0.8006885731146873  0.6311954631089804
  0.7435792237053863  0.6838805976548497  0.6467699869809078
  0.7687564359915259  0.9074490285292152  0.5833690050609965
  0.7073504472329509  0.9118888815826680  0.4982432873687313
  0.7984406371336998  0.9121069866518479  0.4257126137716720
  0.7430579647296229  0.8033060496394474  0.3666121652976749
  0.5784696149956147  0.7430482744169976  0.5697081470359976
  0.6193838407124985  0.8108426530309605  0.4872286510794708
  0.6373915984995071  0.7441759085509371  0.4076383709395322
  0.1868431264411954  0.4692664893628984  0.5888732598368919
  0.2955839611972852  0.5573820106354608  0.6313041631392057
  0.2413387560510208  0.4638845825559822  0.5031553799104986
  0.3911390377706433  0.5910977006554585  0.5697522015662978
  0.3518856346657026  0.5320770448268630  0.4908135128571746
  0.1550437667993267  0.4695950785244927  0.4307929537896393
  0.2292685252026066  0.5606787609468658  0.3716116924379325
  0.3510681477126583  0.5951561263897877  0.4092318726419890
  0.0621609579475785  0.5702521752300824  0.4712421029937950
  0.1081949495922606  0.5820563100222426  0.5610222637087150
  0.1403562652204331  0.7021668464821245  0.6005247311761051
  0.0719362960258566  0.7059976333555593  0.4183937089800029
  0.1295698754160858  0.8242290641680856  0.4671216781669411
  0.1506023665202363  0.8253618599657437  0.5537084893104328
  0.1773584351627615  0.6832942315604474  0.3574733724563711
  0.3396383652078090  0.8020998555986570  0.6241146600702400
  0.2564559810384043  0.6898236929276953  0.6450072212583617
  0.2740444967063690  0.8849126200821956  0.5708439542832391
  0.3292883619519162  0.9135631118518017  0.4911675019089526
  0.2352381101091489  0.8857414060870700  0.4264517234738405
  0.2715542192136178  0.7922033585329888  0.3669678450886600
  0.4373790613640193  0.7425831331072413  0.5678790226730928
  0.4088018592458447  0.8081835233367723  0.4813693051026625
  0.3799750441659019  0.7352712362210376  0.4047965609284433
  0.1555156362275184  0.2049148169611408  0.5644599310332074
  0.1620416095697896  0.2045595671887578  0.4695738750560056
  0.0820163734348328  0.0950846366869304  0.5928414797478199
  0.0442363718288697  0.0276348403039506  0.5162102413377171
  0.0931002876233887  0.0915599724830554  0.4407811148791907
  0.9666040598217452  0.1335139267093263  0.6352527974575999
  0.8500877619455107  0.0590858445170760  0.5882062473053302
  0.9224318006590144  0.0293457899476857  0.5125024190223012
  0.9660230084651674  0.2726568262144436  0.6397353808292221
  0.8474004512074387  0.3184627776777236  0.5892701955598305
  0.7925056352810150  0.1824404946883064  0.5493851205415884
  0.1006025034358113  0.3327244811453348  0.5960481455733880
  0.0374114303212113  0.3413301468961152  0.5152419221773625
  0.9191207492335481  0.3371069568953198  0.5117136041383048
  0.0977512227239113  0.3258655942717860  0.4323115439423152
  0.9821382502368815  0.2650489338078599  0.3862604222631731
  0.8649658168363146  0.3165275634609180  0.4269379326886084
  0.7974310452970597  0.1821014042586591  0.4618694664854895
  0.8649645755590301  0.0582866352238563  0.4299932358961348
  0.9831919002043813  0.1271400583688822  0.3911717699207189
 
  0.00000000E+00  0.00000000E+00  0.00000000E+00
  0.00000000E+00  0.00000000E+00  0.00000000E+00
  0.00000000E+00  0.00000000E+00  0.00000000E+00
  0.00000000E+00  0.00000000E+00  0.00000000E+00
  0.00000000E+00  0.00000000E+00  0.00000000E+00
  0.00000000E+00  0.00000000E+00  0.00000000E+00
  0.00000000E+00  0.00000000E+00  0.00000000E+00
  0.00000000E+00  0.00000000E+00  0.00000000E+00
  0.00000000E+00  0.00000000E+00  0.00000000E+00
  0.00000000E+00  0.00000000E+00  0.00000000E+00
  0.00000000E+00  0.00000000E+00  0.00000000E+00
  0.00000000E+00  0.00000000E+00  0.00000000E+00
  0.00000000E+00  0.00000000E+00  0.00000000E+00
  0.00000000E+00  0.00000000E+00  0.00000000E+00
  0.00000000E+00  0.00000000E+00  0.00000000E+00
  0.00000000E+00  0.00000000E+00  0.00000000E+00
  0.00000000E+00  0.00000000E+00  0.00000000E+00
  0.00000000E+00  0.00000000E+00  0.00000000E+00
  0.00000000E+00  0.00000000E+00  0.00000000E+00
  0.00000000E+00  0.00000000E+00  0.00000000E+00
  0.00000000E+00  0.00000000E+00  0.00000000E+00
  0.00000000E+00  0.00000000E+00  0.00000000E+00
  0.00000000E+00  0.00000000E+00  0.00000000E+00
  0.00000000E+00  0.00000000E+00  0.00000000E+00
  0.00000000E+00  0.00000000E+00  0.00000000E+00
  0.00000000E+00  0.00000000E+00  0.00000000E+00
  0.00000000E+00  0.00000000E+00  0.00000000E+00
  0.00000000E+00  0.00000000E+00  0.00000000E+00
  0.00000000E+00  0.00000000E+00  0.00000000E+00
  0.00000000E+00  0.00000000E+00  0.00000000E+00
  0.00000000E+00  0.00000000E+00  0.00000000E+00
  0.00000000E+00  0.00000000E+00  0.00000000E+00
  0.00000000E+00  0.00000000E+00  0.00000000E+00
  0.00000000E+00  0.00000000E+00  0.00000000E+00
  0.00000000E+00  0.00000000E+00  0.00000000E+00
  0.00000000E+00  0.00000000E+00  0.00000000E+00
  0.00000000E+00  0.00000000E+00  0.00000000E+00
  0.00000000E+00  0.00000000E+00  0.00000000E+00
  0.00000000E+00  0.00000000E+00  0.00000000E+00
  0.00000000E+00  0.00000000E+00  0.00000000E+00
  0.00000000E+00  0.00000000E+00  0.00000000E+00
  0.00000000E+00  0.00000000E+00  0.00000000E+00
  0.00000000E+00  0.00000000E+00  0.00000000E+00
  0.00000000E+00  0.00000000E+00  0.00000000E+00
  0.00000000E+00  0.00000000E+00  0.00000000E+00
  0.00000000E+00  0.00000000E+00  0.00000000E+00
  0.00000000E+00  0.00000000E+00  0.00000000E+00
  0.00000000E+00  0.00000000E+00  0.00000000E+00
  0.00000000E+00  0.00000000E+00  0.00000000E+00
  0.00000000E+00  0.00000000E+00  0.00000000E+00
  0.00000000E+00  0.00000000E+00  0.00000000E+00
  0.00000000E+00  0.00000000E+00  0.00000000E+00
  0.00000000E+00  0.00000000E+00  0.00000000E+00
  0.00000000E+00  0.00000000E+00  0.00000000E+00
  0.00000000E+00  0.00000000E+00  0.00000000E+00
  0.00000000E+00  0.00000000E+00  0.00000000E+00
  0.00000000E+00  0.00000000E+00  0.00000000E+00
  0.00000000E+00  0.00000000E+00  0.00000000E+00
  0.00000000E+00  0.00000000E+00  0.00000000E+00
  0.00000000E+00  0.00000000E+00  0.00000000E+00
  0.00000000E+00  0.00000000E+00  0.00000000E+00
  0.00000000E+00  0.00000000E+00  0.00000000E+00
  0.00000000E+00  0.00000000E+00  0.00000000E+00
  0.00000000E+00  0.00000000E+00  0.00000000E+00
  0.00000000E+00  0.00000000E+00  0.00000000E+00
  0.00000000E+00  0.00000000E+00  0.00000000E+00
  0.00000000E+00  0.00000000E+00  0.00000000E+00
  0.00000000E+00  0.00000000E+00  0.00000000E+00
