Generated by VASPKIT code               
   1.00000000000000     
    10.3631058060449739    0.4364659225400518    0.0000000000000000
    -4.7613567941357529    9.3114074492187715    0.0000000000000000
     0.0000000000000014    0.0000000000000024   20.2287590231762096
  C             
    60
Direct
  0.7366624044382633  0.4652571048497691  0.3764063355692926
  0.8382160231633762  0.4053698741319423  0.3774197208517194
  0.9379179779625275  0.4680221966087572  0.4379822002269904
  0.7661805305475937  0.5626426864123601  0.4322081817443504
  0.8656697244769376  0.5502218766488056  0.4722816213425247
  0.6342276750862581  0.5589091008213742  0.4596197976284344
  0.5881632463446280  0.3865512444809127  0.3693773136373295
  0.5078093653597833  0.4270071847038537  0.4274618817727998
  0.5440477323035751  0.2361816960208429  0.3720760623119190
  0.7811967920319205  0.2577375000835644  0.3817106300230222
  0.6353979148842726  0.1660360437754349  0.3733266625680400
  0.9111240659995588  0.3388784134388771  0.4798709413859541
  0.8287886738661285  0.2191107932863972  0.4439326755364377
  0.9026974661453124  0.3412821385242140  0.5489959598749223
  0.8590113653853280  0.5537440472461697  0.5434348943295078
  0.8888496495026743  0.4579358404328389  0.5823433206491018
  0.6200210605830989  0.5285482925770140  0.5322644312089153
  0.7320413569921413  0.5550275155458664  0.5726529857099649
  0.4776085552132372  0.4262245867071428  0.5628870349855077
  0.4361669677656224  0.2888726035743190  0.4599461274507632
  0.4413190297763165  0.1795356731181172  0.4244801599076666
  0.4203784676025535  0.2873077325981157  0.5287921769575092
  0.5905306268910238  0.0523902965118452  0.4293257660454586
  0.7170334949366719  0.1074440335228459  0.4750617118318843
  0.4545137546159239  0.0639119423563272  0.4603377276503338
  0.8088448479825914  0.2183440390991649  0.5818193581994606
  0.7082848620894282  0.1091793392685716  0.5444213256271411
  0.7867972717022198  0.4031476620008263  0.6371803721747682
  0.6863259435217088  0.4624816127654228  0.6307219844050849
  0.5383824848806356  0.3828895896155800  0.6289454532920900
  0.7378636030810242  0.2549318103549609  0.6370064934329633
  0.4187647453570023  0.1799564383504304  0.5675661446161655
  0.4467768658313886  0.0686773675223762  0.5375080436578870
  0.5695235891754464  0.0540423553534879  0.5801212388337404
  0.4984848736118792  0.2334639379576728  0.6274678982739275
  0.5915009915772842  0.1646752729973855  0.6356870214128492
  0.5456398334980861  0.6574763660574874  0.4471734388144668
  0.5564531227328047  0.7329564934429484  0.5093223976318129
  0.4250388489742889  0.5137799388983240  0.4511707502679414
  0.4633259733614565  0.6527788573112829  0.5620630131191291
  0.3858757562276764  0.5036334903222013  0.5374051694940718
  0.3020710751826243  0.5164417067189930  0.4201890273736097
  0.1849090735864962  0.4670625156628816  0.4596058874127920
  0.2311503132060793  0.4796261694753312  0.5295968854491235
  0.3358463957074278  0.6564604721646816  0.3926672224751826
  0.4805592084337249  0.7453061829706158  0.4025414248534673
  0.5090825616982713  0.8856299682238671  0.4379260269690946
  0.2079624176544570  0.6812998563039088  0.4079004129916584
  0.2261879356222067  0.7976943583089664  0.4464827357578969
  0.3693096392055679  0.9034270363360264  0.4604490957631810
  0.0993695005633199  0.5495300600734012  0.4451158498439582
  0.4913152637042515  0.8885791784289125  0.5672534595576977
  0.5583081268027996  0.8605077671652310  0.5055842400872876
  0.3681355757791991  0.9114868086042307  0.5396932068386135
  0.2370293523920637  0.8058617990726233  0.5658345302174439
  0.1440050580411167  0.7564990738043988  0.5101245714046527
  0.1105399828937053  0.6139664950292740  0.5116236326122348
  0.4170742245389363  0.7381506912457638  0.5976337273701446
  0.2643593844210486  0.6973055513369744  0.5979334348666683
  0.1793313750870453  0.5685953197780620  0.5622488185127850
 
  0.00000000E+00  0.00000000E+00  0.00000000E+00
  0.00000000E+00  0.00000000E+00  0.00000000E+00
  0.00000000E+00  0.00000000E+00  0.00000000E+00
  0.00000000E+00  0.00000000E+00  0.00000000E+00
  0.00000000E+00  0.00000000E+00  0.00000000E+00
  0.00000000E+00  0.00000000E+00  0.00000000E+00
  0.00000000E+00  0.00000000E+00  0.00000000E+00
  0.00000000E+00  0.00000000E+00  0.00000000E+00
  0.00000000E+00  0.00000000E+00  0.00000000E+00
  0.00000000E+00  0.00000000E+00  0.00000000E+00
  0.00000000E+00  0.00000000E+00  0.00000000E+00
  0.00000000E+00  0.00000000E+00  0.00000000E+00
  0.00000000E+00  0.00000000E+00  0.00000000E+00
  0.00000000E+00  0.00000000E+00  0.00000000E+00
  0.00000000E+00  0.00000000E+00  0.00000000E+00
  0.00000000E+00  0.00000000E+00  0.00000000E+00
  0.00000000E+00  0.00000000E+00  0.00000000E+00
  0.00000000E+00  0.00000000E+00  0.00000000E+00
  0.00000000E+00  0.00000000E+00  0.00000000E+00
  0.00000000E+00  0.00000000E+00  0.00000000E+00
  0.00000000E+00  0.00000000E+00  0.00000000E+00
  0.00000000E+00  0.00000000E+00  0.00000000E+00
  0.00000000E+00  0.00000000E+00  0.00000000E+00
  0.00000000E+00  0.00000000E+00  0.00000000E+00
  0.00000000E+00  0.00000000E+00  0.00000000E+00
  0.00000000E+00  0.00000000E+00  0.00000000E+00
  0.00000000E+00  0.00000000E+00  0.00000000E+00
  0.00000000E+00  0.00000000E+00  0.00000000E+00
  0.00000000E+00  0.00000000E+00  0.00000000E+00
  0.00000000E+00  0.00000000E+00  0.00000000E+00
  0.00000000E+00  0.00000000E+00  0.00000000E+00
  0.00000000E+00  0.00000000E+00  0.00000000E+00
  0.00000000E+00  0.00000000E+00  0.00000000E+00
  0.00000000E+00  0.00000000E+00  0.00000000E+00
  0.00000000E+00  0.00000000E+00  0.00000000E+00
  0.00000000E+00  0.00000000E+00  0.00000000E+00
  0.00000000E+00  0.00000000E+00  0.00000000E+00
  0.00000000E+00  0.00000000E+00  0.00000000E+00
  0.00000000E+00  0.00000000E+00  0.00000000E+00
  0.00000000E+00  0.00000000E+00  0.00000000E+00
  0.00000000E+00  0.00000000E+00  0.00000000E+00
  0.00000000E+00  0.00000000E+00  0.00000000E+00
  0.00000000E+00  0.00000000E+00  0.00000000E+00
  0.00000000E+00  0.00000000E+00  0.00000000E+00
  0.00000000E+00  0.00000000E+00  0.00000000E+00
  0.00000000E+00  0.00000000E+00  0.00000000E+00
  0.00000000E+00  0.00000000E+00  0.00000000E+00
  0.00000000E+00  0.00000000E+00  0.00000000E+00
  0.00000000E+00  0.00000000E+00  0.00000000E+00
  0.00000000E+00  0.00000000E+00  0.00000000E+00
  0.00000000E+00  0.00000000E+00  0.00000000E+00
  0.00000000E+00  0.00000000E+00  0.00000000E+00
  0.00000000E+00  0.00000000E+00  0.00000000E+00
  0.00000000E+00  0.00000000E+00  0.00000000E+00
  0.00000000E+00  0.00000000E+00  0.00000000E+00
  0.00000000E+00  0.00000000E+00  0.00000000E+00
  0.00000000E+00  0.00000000E+00  0.00000000E+00
  0.00000000E+00  0.00000000E+00  0.00000000E+00
  0.00000000E+00  0.00000000E+00  0.00000000E+00
  0.00000000E+00  0.00000000E+00  0.00000000E+00
