Generated by VASPKIT code               
   1.00000000000000     
    12.3924867500271159    0.0112217388632956    0.0000000000000000
    -6.1807980842095409   11.1944614947011978    0.0000000000000000
     0.0000000000000013    0.0000000000000023   20.2264057842373290
  C             
   108
Direct
  0.6947459840533980  0.5031977187810242  0.3871830554280109
  0.7828659485884231  0.4679458187340586  0.3702475496260575
  0.8638585763659847  0.4933921101365115  0.4254780418640323
  0.7311021155847683  0.5723153500007285  0.4520184349460123
  0.8448103002166789  0.5659498403457590  0.4793754180912444
  0.6016227957187965  0.5140556218716910  0.4891523300604845
  0.5686962265047555  0.4229346954397926  0.3809367364042018
  0.4992344985562553  0.4184968544990966  0.4447144550140294
  0.5333108586228690  0.3037828184640503  0.3602829024589056
  0.7466255245725364  0.3497140505614595  0.3460561223254928
  0.6199585650537927  0.2665885474705618  0.3418884990388449
  0.8707889536827338  0.3890659605688285  0.4396132967717108
  0.8020725176311316  0.2992098036631319  0.3906131732347689
  0.8673958859763715  0.3563991880469004  0.5061669092727783
  0.8173199274851868  0.5049639875537011  0.5437819363151846
  0.8622516917021983  0.4250263861313854  0.5580321190909956
  0.6085763182379296  0.4693618152282255  0.5576609867550175
  0.7227458607286863  0.4864141983934118  0.5865308918681365
  0.5244945745085019  0.3525725462351517  0.5784491084522188
  0.4556554701535092  0.2917448703380785  0.4658133292055382
  0.4581901515309568  0.2234155126703286  0.4125786712432102
  0.4518257418444307  0.2619470089414122  0.5320941335488527
  0.5976927591898473  0.1623307704698149  0.3835955348972320
  0.7120299460497250  0.1863107690907455  0.4127809246033820
  0.4972259972632500  0.1368596020626498  0.4268226339053953
  0.8282543778848179  0.2299872884457059  0.5261535044703578
  0.7154834075035481  0.1410659149473616  0.4808780959808843
  0.7922625876172873  0.3479055661911232  0.6127374083817401
  0.7048158837452831  0.3854630835709543  0.6303030804023564
  0.5782463708918542  0.3020992656800274  0.6248550711909218
  0.7616417079307567  0.2302277699434825  0.5938653549587229
  0.4426039343987966  0.1450225604522615  0.5520207330365352
  0.5026766578589559  0.1129553023283236  0.4953533513377266
  0.6080835896310859  0.1224372131271139  0.5201586414086208
  0.5400853585186809  0.1835732118986755  0.6072066284984388
  0.6328485922985294  0.1549185679692826  0.5881784665329448
  0.2131562129790225  0.0250074082179168  0.6155817214601100
  0.0960283488025908  0.2352705380136229  0.6052499748029589
  0.7968862573667437  0.9398731570156045  0.5477667002226241
  0.0943244894642277  0.0079484156467515  0.5787388697175686
  0.0807595872125972  0.1279396386618856  0.5640778241911164
  0.8834436434806747  0.0018755324153332  0.4922478929084164
  0.1820467471233513  0.9205536544799600  0.6487861237317105
  0.2239743354842361  0.3215346910741061  0.6210256078222898
  0.6938690206482647  0.9623484742691133  0.5498002038942005
  0.0031165422092840  0.8628427070725664  0.5882260553991401
  0.2054047992977814  0.2020166842696796  0.5285439022082272
  0.7881805843205569  0.0029245424863973  0.4447902596017528
  0.0600625951503702  0.8206099011380985  0.6302773024486683
  0.2865871566346740  0.3033265225355777  0.5656927465978399
  0.6873269834506459  0.0099843389885734  0.4820240286051813
  0.2686116935641678  0.8761829233546763  0.6385533636630569
  0.2410845592478452  0.4392398281010443  0.6092754634517092
  0.5871464283596168  0.8611022748690189  0.5678081926129082
  0.2042848750506963  0.7486088825030563  0.6266912117279233
  0.3323014554169745  0.4962787474013979  0.5570172787968488
  0.4760467812361711  0.8330195673630456  0.5229907098285480
  0.0750153907436939  0.7155353332203376  0.6143385352070183
  0.3535518881294166  0.4114031844344339  0.5283595694350609
  0.5559755822896264  0.9104855127502631  0.4624848965805768
  0.3456913246284827  0.9324891010242737  0.5870842438430302
  0.1344353946165526  0.4284218298249201  0.5768396872989641
  0.6254669068603604  0.7678850662315924  0.5658229974033873
  0.3203976519233578  0.0362102409880407  0.5668950751198878
  0.0454192704158984  0.3004900263165240  0.5753555596821585
  0.7585886112758118  0.8205713049733063  0.5537307013298900
  0.2412103896053566  0.9926275509043450  0.5062236598447925
  0.9597645534916097  0.2352188935747748  0.5189820450225895
  0.8279984403624994  0.7874798802554679  0.5031465822030654
  0.3550698785129285  0.8368839811941058  0.5414534321860529
  0.1645322700925504  0.5207052785742334  0.5191792371505102
  0.5481825042392430  0.6843594940279374  0.5226569495487112
  0.2770313830353288  0.8269894218068430  0.4793510300575292
  0.1171775530925530  0.4391914542116453  0.4590188282815788
  0.5978881742972035  0.6342111315514529  0.4715552307447410
  0.2363631586978627  0.9099071341990239  0.4585129510206798
  0.0292264026728688  0.3149607694318135  0.4579118410052843
  0.7407455433176793  0.6942381867226004  0.4530673489538657
  0.2554302928409129  0.7188819389888224  0.5755909135777557
  0.3196072995174646  0.5754415110884565  0.5074747910547543
  0.4384248349395534  0.7017039297821768  0.4992223209446536
  0.0293861674065496  0.8926854367641539  0.4714403633514337
  0.0678202461571686  0.1625349357699690  0.4468674338775145
  0.8420046064204811  0.8788006764068896  0.3952357071080783
  0.1270649609903955  0.9833318253347869  0.5131094038241955
  0.9887602856471318  0.1219328700106956  0.5073080833007353
  0.9094159467214027  0.9048938423023358  0.4594049981301893
  0.1071383219247437  0.8467336947695046  0.4349634529917878
  0.0631421735387079  0.2540271587476326  0.4104936566421813
  0.7593145656064735  0.7600346257360471  0.3885261617904092
  0.0692844138578508  0.7290837234835905  0.4510963081984087
  0.1859471981703109  0.3389624554935722  0.3878670612554700
  0.6433283436906834  0.7469934048915690  0.3668228390928689
  0.1726938153785582  0.7143445435161127  0.4729286151183629
  0.2134902902253728  0.4557704229067099  0.4139040956350613
  0.5465399157971902  0.6653596078491546  0.4093214400824721
  0.1507043199778337  0.6332688906489281  0.5299783133338352
  0.3265683835308977  0.5134899587434134  0.4445964860750564
  0.4775459070129031  0.7199484952917743  0.4279681005727909
  0.9497613570854710  0.7915938830469003  0.5235316445029881
  0.1944581894655499  0.2041246423692868  0.4598365416591150
  0.7703811123738191  0.9421994722222351  0.3869566196731284
  0.9679131777288887  0.6795907945456321  0.5024134494758314
  0.2664993988568654  0.3117181096321744  0.4218278910589106
  0.6459532532190124  0.8598095718331749  0.3641277507869276
  0.0377337134644620  0.6487903627292795  0.5563862071462893
  0.3741382463328051  0.4208813411032608  0.4539640388787447
  0.5430862352167907  0.8446510776436256  0.4064470891116656
 
  0.00000000E+00  0.00000000E+00  0.00000000E+00
  0.00000000E+00  0.00000000E+00  0.00000000E+00
  0.00000000E+00  0.00000000E+00  0.00000000E+00
  0.00000000E+00  0.00000000E+00  0.00000000E+00
  0.00000000E+00  0.00000000E+00  0.00000000E+00
  0.00000000E+00  0.00000000E+00  0.00000000E+00
  0.00000000E+00  0.00000000E+00  0.00000000E+00
  0.00000000E+00  0.00000000E+00  0.00000000E+00
  0.00000000E+00  0.00000000E+00  0.00000000E+00
  0.00000000E+00  0.00000000E+00  0.00000000E+00
  0.00000000E+00  0.00000000E+00  0.00000000E+00
  0.00000000E+00  0.00000000E+00  0.00000000E+00
  0.00000000E+00  0.00000000E+00  0.00000000E+00
  0.00000000E+00  0.00000000E+00  0.00000000E+00
  0.00000000E+00  0.00000000E+00  0.00000000E+00
  0.00000000E+00  0.00000000E+00  0.00000000E+00
  0.00000000E+00  0.00000000E+00  0.00000000E+00
  0.00000000E+00  0.00000000E+00  0.00000000E+00
  0.00000000E+00  0.00000000E+00  0.00000000E+00
  0.00000000E+00  0.00000000E+00  0.00000000E+00
  0.00000000E+00  0.00000000E+00  0.00000000E+00
  0.00000000E+00  0.00000000E+00  0.00000000E+00
  0.00000000E+00  0.00000000E+00  0.00000000E+00
  0.00000000E+00  0.00000000E+00  0.00000000E+00
  0.00000000E+00  0.00000000E+00  0.00000000E+00
  0.00000000E+00  0.00000000E+00  0.00000000E+00
  0.00000000E+00  0.00000000E+00  0.00000000E+00
  0.00000000E+00  0.00000000E+00  0.00000000E+00
  0.00000000E+00  0.00000000E+00  0.00000000E+00
  0.00000000E+00  0.00000000E+00  0.00000000E+00
  0.00000000E+00  0.00000000E+00  0.00000000E+00
  0.00000000E+00  0.00000000E+00  0.00000000E+00
  0.00000000E+00  0.00000000E+00  0.00000000E+00
  0.00000000E+00  0.00000000E+00  0.00000000E+00
  0.00000000E+00  0.00000000E+00  0.00000000E+00
  0.00000000E+00  0.00000000E+00  0.00000000E+00
  0.00000000E+00  0.00000000E+00  0.00000000E+00
  0.00000000E+00  0.00000000E+00  0.00000000E+00
  0.00000000E+00  0.00000000E+00  0.00000000E+00
  0.00000000E+00  0.00000000E+00  0.00000000E+00
  0.00000000E+00  0.00000000E+00  0.00000000E+00
  0.00000000E+00  0.00000000E+00  0.00000000E+00
  0.00000000E+00  0.00000000E+00  0.00000000E+00
  0.00000000E+00  0.00000000E+00  0.00000000E+00
  0.00000000E+00  0.00000000E+00  0.00000000E+00
  0.00000000E+00  0.00000000E+00  0.00000000E+00
  0.00000000E+00  0.00000000E+00  0.00000000E+00
  0.00000000E+00  0.00000000E+00  0.00000000E+00
  0.00000000E+00  0.00000000E+00  0.00000000E+00
  0.00000000E+00  0.00000000E+00  0.00000000E+00
  0.00000000E+00  0.00000000E+00  0.00000000E+00
  0.00000000E+00  0.00000000E+00  0.00000000E+00
  0.00000000E+00  0.00000000E+00  0.00000000E+00
  0.00000000E+00  0.00000000E+00  0.00000000E+00
  0.00000000E+00  0.00000000E+00  0.00000000E+00
  0.00000000E+00  0.00000000E+00  0.00000000E+00
  0.00000000E+00  0.00000000E+00  0.00000000E+00
  0.00000000E+00  0.00000000E+00  0.00000000E+00
  0.00000000E+00  0.00000000E+00  0.00000000E+00
  0.00000000E+00  0.00000000E+00  0.00000000E+00
  0.00000000E+00  0.00000000E+00  0.00000000E+00
  0.00000000E+00  0.00000000E+00  0.00000000E+00
  0.00000000E+00  0.00000000E+00  0.00000000E+00
  0.00000000E+00  0.00000000E+00  0.00000000E+00
  0.00000000E+00  0.00000000E+00  0.00000000E+00
  0.00000000E+00  0.00000000E+00  0.00000000E+00
  0.00000000E+00  0.00000000E+00  0.00000000E+00
  0.00000000E+00  0.00000000E+00  0.00000000E+00
  0.00000000E+00  0.00000000E+00  0.00000000E+00
  0.00000000E+00  0.00000000E+00  0.00000000E+00
  0.00000000E+00  0.00000000E+00  0.00000000E+00
  0.00000000E+00  0.00000000E+00  0.00000000E+00
  0.00000000E+00  0.00000000E+00  0.00000000E+00
  0.00000000E+00  0.00000000E+00  0.00000000E+00
  0.00000000E+00  0.00000000E+00  0.00000000E+00
  0.00000000E+00  0.00000000E+00  0.00000000E+00
  0.00000000E+00  0.00000000E+00  0.00000000E+00
  0.00000000E+00  0.00000000E+00  0.00000000E+00
  0.00000000E+00  0.00000000E+00  0.00000000E+00
  0.00000000E+00  0.00000000E+00  0.00000000E+00
  0.00000000E+00  0.00000000E+00  0.00000000E+00
  0.00000000E+00  0.00000000E+00  0.00000000E+00
  0.00000000E+00  0.00000000E+00  0.00000000E+00
  0.00000000E+00  0.00000000E+00  0.00000000E+00
  0.00000000E+00  0.00000000E+00  0.00000000E+00
  0.00000000E+00  0.00000000E+00  0.00000000E+00
  0.00000000E+00  0.00000000E+00  0.00000000E+00
  0.00000000E+00  0.00000000E+00  0.00000000E+00
  0.00000000E+00  0.00000000E+00  0.00000000E+00
  0.00000000E+00  0.00000000E+00  0.00000000E+00
  0.00000000E+00  0.00000000E+00  0.00000000E+00
  0.00000000E+00  0.00000000E+00  0.00000000E+00
  0.00000000E+00  0.00000000E+00  0.00000000E+00
  0.00000000E+00  0.00000000E+00  0.00000000E+00
  0.00000000E+00  0.00000000E+00  0.00000000E+00
  0.00000000E+00  0.00000000E+00  0.00000000E+00
  0.00000000E+00  0.00000000E+00  0.00000000E+00
  0.00000000E+00  0.00000000E+00  0.00000000E+00
  0.00000000E+00  0.00000000E+00  0.00000000E+00
  0.00000000E+00  0.00000000E+00  0.00000000E+00
  0.00000000E+00  0.00000000E+00  0.00000000E+00
  0.00000000E+00  0.00000000E+00  0.00000000E+00
  0.00000000E+00  0.00000000E+00  0.00000000E+00
  0.00000000E+00  0.00000000E+00  0.00000000E+00
  0.00000000E+00  0.00000000E+00  0.00000000E+00
  0.00000000E+00  0.00000000E+00  0.00000000E+00
  0.00000000E+00  0.00000000E+00  0.00000000E+00
  0.00000000E+00  0.00000000E+00  0.00000000E+00
