Generated by VASPKIT code               
   1.00000000000000     
    12.2695479613350855   -0.0000137112609532    0.0000000000000000
    -0.0000137142373793   12.2695256035836593    0.0000000000000000
     0.0000000000000013    0.0000000000000013   20.2213582538051497
  C             
    96
Direct
  0.5575353431098335  0.0987383535616715  0.6222871402722276
  0.8926442691728766  0.5582874259554131  0.6299365006447317
  0.4427836379435064  0.0989248749565874  0.6222727283881682
  0.8923842706396030  0.4420254281798250  0.6299443502459212
  0.4097175825606456  0.1667368781240697  0.5643022750538975
  0.8231921693273136  0.4018186617205117  0.5792861810711472
  0.5907959572675097  0.1663965880727361  0.5643050898044422
  0.8236094338502511  0.5986852391669686  0.5792775704718665
  0.5003430727505460  0.2132298988233643  0.5266908240190631
  0.7849166395237148  0.5003366557485904  0.5435063813597125
  0.6530609972948938  0.1002827125989256  0.5267986712675068
  0.8893763379124593  0.6892539212924831  0.5422716288447305
  0.6184954535663181  0.9997992303810008  0.6233549813700279
  0.0002270508050586  0.6103387628184578  0.6272682031753334
  0.6880475823034260  0.9996456389581141  0.5591327497255421
  0.0003316418757606  0.6792488374061492  0.5754445936849635
  0.5572062567463050  0.9010719391683182  0.6222743952065244
  0.1076409464539410  0.5579866268213607  0.6299341533089375
  0.3814943594884994  0.0001957864432995  0.6233523476265574
  0.9997964289067625  0.3896730832942907  0.6272734816750898
  0.4424544239644561  0.9012571886627541  0.6222856960984089
  0.1073794524929994  0.4417248321303262  0.6299322203031679
  0.3470610457058783  0.1009477317095033  0.5268203874628199
  0.8887218884732704  0.3109459575901710  0.5422662454770730
  0.3119499047102039  0.0003507094112010  0.5591273861643700
  0.9996804973161773  0.3207557223811719  0.5754523253228001
  0.3109457688124095  0.1112819270291396  0.4577380146386005
  0.8990501033566218  0.3470611122771530  0.4731847327537153
  0.5003356674487662  0.2150878289302653  0.4565023415444855
  0.7867661848385836  0.5003442279182764  0.4733171988715128
  0.4018163724259907  0.1768149076304155  0.4207207457251982
  0.8332559242611453  0.4097187723874001  0.4357042308632018
  0.6892530313903222  0.1106270680377293  0.4577331490022303
  0.8997122531466673  0.6530615108538669  0.4732046258011522
  0.5986824599317444  0.1763962758009541  0.4207285228633850
  0.8335956237168887  0.5907971071168205  0.4357005606514477
  0.6792480823917586  0.9996734404157763  0.4245552338217209
  0.0003469643925840  0.6880474620435066  0.4408670345388899
  0.6529388797457756  0.8990508774193486  0.5268245575364290
  0.1112852560538258  0.6890591492117224  0.5422530455519734
  0.5902751547968847  0.8332602415545480  0.5643044679873270
  0.1768219445636561  0.5981904635175397  0.5792706540507169
  0.6890575932642093  0.8887169364517717  0.4577432338649956
  0.1009456001694531  0.6529394533908714  0.4731721269472047
  0.4091964732350277  0.8335998271479497  0.5643023120452213
  0.1764037964729965  0.4013232151814918  0.5792697538943656
  0.3469362886921274  0.8997135234617062  0.5267940057394327
  0.1106304816455648  0.3107488572261019  0.5422702598069833
  0.4996522776538157  0.7867668292248879  0.5266902060529404
  0.2150915993099929  0.4996685596139798  0.5434907683911376
  0.3207554450443837  0.0003254171201803  0.4245488089605161
  0.9996419759708388  0.3119513627454822  0.4408736380138407
  0.3107471984150862  0.8893727809046865  0.4577260841052961
  0.1002814309847011  0.3469373086237084  0.4732039425660517
  0.4420231177489100  0.1076271290437418  0.3700606983181487
  0.9010621784172770  0.4427843918939871  0.3777309057781579
  0.5582847152595889  0.1073671531413396  0.3700671573214862
  0.9012484054048286  0.5575347035944631  0.3777160956266385
  0.6103347239252912  0.9997833328936494  0.3727315000592029
  0.0001867248849834  0.6184964736682872  0.3766447979999015
  0.3896695190119530  0.0002146910908039  0.3727281453660041
  0.9997895949780471  0.3814954166356159  0.3766489581108416
  0.5981870767039297  0.8231841186655302  0.4207234112898561
  0.1667317286723602  0.5902777072141205  0.4356905485923122
  0.4996655657504832  0.7849109438539088  0.4565016496472794
  0.2132271340180267  0.4996549636639855  0.4733039424652432
  0.4013198669384650  0.8236018827783411  0.4207250334652954
  0.1663924733318538  0.4091985387006147  0.4356928261726907
  0.5579840906028153  0.8923705692420754  0.3700620233767680
  0.0989157406900105  0.5572067092193080  0.3777226420881092
  0.4417227688618510  0.8926306370881036  0.3700648178452184
  0.0987297813286148  0.4424555840479343  0.3777113965501044
  0.8040086548500227  0.9997429621002993  0.5259576896632936
  0.8180640106948900  0.1041571490960322  0.4788840958439380
  0.8182195032318162  0.8954060136369648  0.4788894666957688
  0.8979157932067778  0.0565060515034119  0.4285296092758912
  0.8979890157456154  0.9432408285555169  0.4285226339044428
  0.8958446845830252  0.8180642908949025  0.5211188620140987
  0.0002545867474879  0.8040087133274554  0.4740428845887408
  0.0001145095547628  0.8929186880527666  0.4278915890934343
  0.9434999791221443  0.8979167421291123  0.5714718881661085
  0.8929187631831752  0.9998826206622837  0.5721082085742282
  0.9432415514962074  0.1020067448423276  0.5714801250441184
  0.0567649888387152  0.8979894483305983  0.5714762869937928
  0.1070872467172705  0.0001143979514566  0.5721047581982077
  0.0565063853173484  0.1020810117748425  0.5714732363868080
  0.1045951555070133  0.8182201497985133  0.5211074394911250
  0.9997424341075671  0.1959921858682989  0.4740486576115828
  0.8954064375716868  0.1817803645292813  0.5211162862460554
  0.1041588187019329  0.1819361687984937  0.5211200495056758
  0.1817798772311860  0.1045954244926790  0.4788862504563909
  0.1959911296971910  0.0002563504020188  0.5259508538900874
  0.1819354308811043  0.8958435108219120  0.4788766183670745
  0.9998824481028521  0.1070868883093681  0.4278950587291419
  0.1020067067397221  0.0567638522072116  0.4285206970418329
  0.1020802053472067  0.9434993668639038  0.4285242907853188
 
  0.00000000E+00  0.00000000E+00  0.00000000E+00
  0.00000000E+00  0.00000000E+00  0.00000000E+00
  0.00000000E+00  0.00000000E+00  0.00000000E+00
  0.00000000E+00  0.00000000E+00  0.00000000E+00
  0.00000000E+00  0.00000000E+00  0.00000000E+00
  0.00000000E+00  0.00000000E+00  0.00000000E+00
  0.00000000E+00  0.00000000E+00  0.00000000E+00
  0.00000000E+00  0.00000000E+00  0.00000000E+00
  0.00000000E+00  0.00000000E+00  0.00000000E+00
  0.00000000E+00  0.00000000E+00  0.00000000E+00
  0.00000000E+00  0.00000000E+00  0.00000000E+00
  0.00000000E+00  0.00000000E+00  0.00000000E+00
  0.00000000E+00  0.00000000E+00  0.00000000E+00
  0.00000000E+00  0.00000000E+00  0.00000000E+00
  0.00000000E+00  0.00000000E+00  0.00000000E+00
  0.00000000E+00  0.00000000E+00  0.00000000E+00
  0.00000000E+00  0.00000000E+00  0.00000000E+00
  0.00000000E+00  0.00000000E+00  0.00000000E+00
  0.00000000E+00  0.00000000E+00  0.00000000E+00
  0.00000000E+00  0.00000000E+00  0.00000000E+00
  0.00000000E+00  0.00000000E+00  0.00000000E+00
  0.00000000E+00  0.00000000E+00  0.00000000E+00
  0.00000000E+00  0.00000000E+00  0.00000000E+00
  0.00000000E+00  0.00000000E+00  0.00000000E+00
  0.00000000E+00  0.00000000E+00  0.00000000E+00
  0.00000000E+00  0.00000000E+00  0.00000000E+00
  0.00000000E+00  0.00000000E+00  0.00000000E+00
  0.00000000E+00  0.00000000E+00  0.00000000E+00
  0.00000000E+00  0.00000000E+00  0.00000000E+00
  0.00000000E+00  0.00000000E+00  0.00000000E+00
  0.00000000E+00  0.00000000E+00  0.00000000E+00
  0.00000000E+00  0.00000000E+00  0.00000000E+00
  0.00000000E+00  0.00000000E+00  0.00000000E+00
  0.00000000E+00  0.00000000E+00  0.00000000E+00
  0.00000000E+00  0.00000000E+00  0.00000000E+00
  0.00000000E+00  0.00000000E+00  0.00000000E+00
  0.00000000E+00  0.00000000E+00  0.00000000E+00
  0.00000000E+00  0.00000000E+00  0.00000000E+00
  0.00000000E+00  0.00000000E+00  0.00000000E+00
  0.00000000E+00  0.00000000E+00  0.00000000E+00
  0.00000000E+00  0.00000000E+00  0.00000000E+00
  0.00000000E+00  0.00000000E+00  0.00000000E+00
  0.00000000E+00  0.00000000E+00  0.00000000E+00
  0.00000000E+00  0.00000000E+00  0.00000000E+00
  0.00000000E+00  0.00000000E+00  0.00000000E+00
  0.00000000E+00  0.00000000E+00  0.00000000E+00
  0.00000000E+00  0.00000000E+00  0.00000000E+00
  0.00000000E+00  0.00000000E+00  0.00000000E+00
  0.00000000E+00  0.00000000E+00  0.00000000E+00
  0.00000000E+00  0.00000000E+00  0.00000000E+00
  0.00000000E+00  0.00000000E+00  0.00000000E+00
  0.00000000E+00  0.00000000E+00  0.00000000E+00
  0.00000000E+00  0.00000000E+00  0.00000000E+00
  0.00000000E+00  0.00000000E+00  0.00000000E+00
  0.00000000E+00  0.00000000E+00  0.00000000E+00
  0.00000000E+00  0.00000000E+00  0.00000000E+00
  0.00000000E+00  0.00000000E+00  0.00000000E+00
  0.00000000E+00  0.00000000E+00  0.00000000E+00
  0.00000000E+00  0.00000000E+00  0.00000000E+00
  0.00000000E+00  0.00000000E+00  0.00000000E+00
  0.00000000E+00  0.00000000E+00  0.00000000E+00
  0.00000000E+00  0.00000000E+00  0.00000000E+00
  0.00000000E+00  0.00000000E+00  0.00000000E+00
  0.00000000E+00  0.00000000E+00  0.00000000E+00
  0.00000000E+00  0.00000000E+00  0.00000000E+00
  0.00000000E+00  0.00000000E+00  0.00000000E+00
  0.00000000E+00  0.00000000E+00  0.00000000E+00
  0.00000000E+00  0.00000000E+00  0.00000000E+00
  0.00000000E+00  0.00000000E+00  0.00000000E+00
  0.00000000E+00  0.00000000E+00  0.00000000E+00
  0.00000000E+00  0.00000000E+00  0.00000000E+00
  0.00000000E+00  0.00000000E+00  0.00000000E+00
  0.00000000E+00  0.00000000E+00  0.00000000E+00
  0.00000000E+00  0.00000000E+00  0.00000000E+00
  0.00000000E+00  0.00000000E+00  0.00000000E+00
  0.00000000E+00  0.00000000E+00  0.00000000E+00
  0.00000000E+00  0.00000000E+00  0.00000000E+00
  0.00000000E+00  0.00000000E+00  0.00000000E+00
  0.00000000E+00  0.00000000E+00  0.00000000E+00
  0.00000000E+00  0.00000000E+00  0.00000000E+00
  0.00000000E+00  0.00000000E+00  0.00000000E+00
  0.00000000E+00  0.00000000E+00  0.00000000E+00
  0.00000000E+00  0.00000000E+00  0.00000000E+00
  0.00000000E+00  0.00000000E+00  0.00000000E+00
  0.00000000E+00  0.00000000E+00  0.00000000E+00
  0.00000000E+00  0.00000000E+00  0.00000000E+00
  0.00000000E+00  0.00000000E+00  0.00000000E+00
  0.00000000E+00  0.00000000E+00  0.00000000E+00
  0.00000000E+00  0.00000000E+00  0.00000000E+00
  0.00000000E+00  0.00000000E+00  0.00000000E+00
  0.00000000E+00  0.00000000E+00  0.00000000E+00
  0.00000000E+00  0.00000000E+00  0.00000000E+00
  0.00000000E+00  0.00000000E+00  0.00000000E+00
  0.00000000E+00  0.00000000E+00  0.00000000E+00
  0.00000000E+00  0.00000000E+00  0.00000000E+00
  0.00000000E+00  0.00000000E+00  0.00000000E+00
