Generated by VASPKIT code               
   1.00000000000000     
    19.1276972755662733    0.0005687733488393    0.0000000000000000
     0.0003990618283879   17.3390841384779719    0.0000000000000000
     0.0000000000000013    0.0000000000000011   20.2298036589150776
  C             
   216
Direct
  0.1316723440196625  0.9592176297767452  0.4403223089927693
  0.5026961026228420  0.3456345026434988  0.4374435287876679
  0.1316105099167686  0.0404958081869395  0.4405061823718555
  0.5696617394528758  0.3422933363101706  0.4721005353524816
  0.0710849025995017  0.0672665468408127  0.4025812846257608
  0.6162510777869770  0.4089593273044514  0.4442858700815293
  0.0710803576428916  0.9325506587215742  0.4022742774417907
  0.5037227441944552  0.4082827716700805  0.3937511173503836
  0.0361603315849024  0.0001086606838570  0.3766863508307949
  0.5693677609256156  0.4490376673844878  0.3935365077154387
  0.0364578141976324  0.8725544756655736  0.4373105882725596
  0.4373718291369855  0.4500898095048314  0.3959568895909200
  0.1316603188665226  0.9196358712007111  0.4998851459203593
  0.4339417406858956  0.3415160807330011  0.4722927084789745
  0.0803163873121591  0.8502571221429349  0.5002098348246449
  0.3985664902303370  0.4147042760945538  0.4478624152803832
  0.1313777654515889  0.9592730218590617  0.5595239553694498
  0.4316489649694262  0.3481216089364381  0.5505829216582470
  0.1318033162958088  0.0801410046306970  0.5001520575083234
  0.5698138647223772  0.3470220722095192  0.5501680277925942
  0.1315950674032749  0.0405290767533515  0.5597346347993124
  0.5010283981433759  0.3570522071456992  0.5853795154781878
  0.0362951750311211  0.1270389063543504  0.4377065483800138
  0.6257961988762801  0.4598491409604577  0.5033981441065265
  0.0803990229306919  0.1495297687916732  0.4997027009810608
  0.6032913335115992  0.4256294817973156  0.5613880959847819
  0.9621347982034010  0.1279013929528503  0.4378279164951167
  0.6258406659779752  0.5400690909398165  0.4967908463400335
  0.9625917475295367  0.0006966821898473  0.3767420600798559
  0.5669645512698125  0.5292593656282776  0.3898599426673783
  0.9275425282993481  0.0680438225234141  0.4025480793452942
  0.6032776300566667  0.5742447378836530  0.4388061434132737
  0.9624169677625005  0.8732035568933370  0.4372200294795974
  0.4361930314295535  0.5302645448629661  0.3899436024867242
  0.9277632005955994  0.9333745992337725  0.4024324064297318
  0.5015306049379191  0.5719257679855048  0.3815444981419205
  0.9182366617716085  0.8497154456456073  0.4988567188417719
  0.3977045052442350  0.5744335365090194  0.4371159927633030
  0.0361129411139416  0.8726839770578820  0.5621301607528792
  0.3766247042647706  0.4597412677266561  0.5028333324573495
  0.0707961495085385  0.9324719461285511  0.5973347903248722
  0.3980234165147181  0.4257618183802450  0.5629551653761737
  0.9619801604083094  0.8718426801384922  0.5618623042446487
  0.3766733913287439  0.5402770303852122  0.4973778808285587
  0.0708713595620836  0.0671867605309089  0.5976380795669840
  0.5016242562975322  0.4279719202841150  0.6187052490925495
  0.0363412566870736  0.1271733491911178  0.5625216796021135
  0.5670483810174076  0.4706483224934885  0.6103331957497460
  0.0358484642644825  0.9996306389135299  0.6231606227204409
  0.4363250308306306  0.4697167055336138  0.6102823323451005
  0.9182589653095263  0.1501078261433548  0.5007269099533715
  0.6163667647110529  0.5910100476261917  0.5558921108790216
  0.9622787536409803  0.1264982003234891  0.5624379973589058
  0.5694997451551131  0.5508986513286942  0.6066702285346750
  0.8666327384196748  0.0412099401398009  0.4401273377936121
  0.5698162876761330  0.6528529873726470  0.4500293574077858
  0.8671861592108598  0.9597780273944494  0.4402905553547924
  0.5010159296144963  0.6428305571398383  0.4148884187699480
  0.8666071544842922  0.9191903830031620  0.4995691023056139
  0.4316856644943172  0.6519175398644848  0.4496810902018566
  0.8665886255655693  0.0805838602233138  0.4998738288738167
  0.5697456429315579  0.6576776701520757  0.5280931429259184
  0.9273258904414448  0.9316963818365238  0.5970514631367578
  0.3989764385902745  0.5851008890982641  0.5521983560743351
  0.9622848660930856  0.9990497754201897  0.6229288498658150
  0.4375273909316562  0.5499224927956092  0.6042574110383612
  0.9275071928734775  0.0663523285234078  0.5971340147036557
  0.5039005346951626  0.5917145920709359  0.6065034602122310
  0.8664837955861699  0.9585135029987555  0.5593419244177369
  0.4340380616169810  0.6584862035807362  0.5279751469884104
  0.8670390380863822  0.0399369587155363  0.5591295363030326
  0.5028264924024413  0.6543779574120663  0.5628178572345135
  0.5194154789052519  0.8721358684086056  0.5205374232546944
  0.1138502989632499  0.5231896887372329  0.5274407966900583
  0.6391073182505096  0.8039182309814876  0.4399867051220880
  0.3625204806542968  0.1996501714298162  0.4600356610855059
  0.1806694579624164  0.6534838348930876  0.4525925446689314
  0.8114086982982442  0.3509913636067168  0.4663125953477092
  0.4807788616504638  0.9059783075099688  0.5748021306480808
  0.0793004898810636  0.4819485556827559  0.5802338141846661
  0.6480542937782801  0.8480530226095198  0.5067354592282811
  0.3522746987576113  0.1512340080563703  0.5227993745891695
  0.1351475154053361  0.6716047762471291  0.5121730280050514
  0.8634044510049890  0.3300474050055868  0.5201852603290718
  0.4804267052688331  0.8768406061929781  0.4644299261643781
  0.1138598375480626  0.4768508930215845  0.4726696694366979
  0.6997573389382126  0.8136672707546779  0.4036491426330286
  0.3059453894155268  0.1922876371361468  0.4175290342201450
  0.1902745056713897  0.7121689395470838  0.4049709940421025
  0.7975943641162786  0.2958109877203725  0.4161211098739983
  0.4184415835292015  0.9433076282379531  0.5476473081425084
  0.0480249645066593  0.4106521779832306  0.5532401460034109
  0.7286571939528699  0.8605283726367574  0.5074113317674289
  0.2715408148204475  0.1377132912271009  0.5166795489510818
  0.1342490896052482  0.7777775508636893  0.5018142461773323
  0.8649290269256227  0.2245554409330950  0.5048162371995204
  0.4072946570187597  0.9135505985558652  0.4764869702771293
  0.0784035200303990  0.3939366015981065  0.4843563214369055
  0.7574252938774819  0.8457796845777921  0.4440895164256773
  0.2462997963739184  0.1562825874952125  0.4520614549734887
  0.1762026562291652  0.7831503622021430  0.4364999748925413
  0.8197561076050093  0.2223763298026427  0.4415776964880038
  0.5189579219354243  0.9184377359425184  0.4143398596190551
  0.0793645501074138  0.5181361557163200  0.4198611458716925
  0.7268698773114934  0.7448740262949656  0.3734095246906719
  0.2821167772198550  0.2625133185923119  0.3881157946609548
  0.2614298199873843  0.7117087764938503  0.3790428404741988
  0.7270932131017744  0.2984296636900581  0.3915821264469628
  0.4792352693051996  0.9742939888363011  0.3821769581128862
  0.0309862278940614  0.4738607305563036  0.3855550938959809
  0.8009066955318360  0.7374180773247829  0.3910250733815559
  0.2073664423419075  0.2672613798710231  0.4018537296649569
  0.2898877467281338  0.7872949577737245  0.3906226819316885
  0.7042516774106247  0.2215810737342920  0.4033152443264569
  0.4168947707697228  0.9825665292202075  0.4285057201705200
  0.0194207406055682  0.4058945407249368  0.4319940581995709
  0.8166593894451921  0.7967606069841935  0.4365132365761113
  0.1867680585215439  0.2038729775969088  0.4421890149896228
  0.2361763556629128  0.8317121997576891  0.4278869270130130
  0.7602193534306352  0.1746195242047790  0.4357044332487732
  0.5814072070066487  0.9509995806169442  0.4456172117663257
  0.0481205756328933  0.5894577391143443  0.4468263559102468
  0.6932214711655504  0.6852500140515048  0.4092897367908179
  0.3127587651180050  0.3205897560914153  0.4306968929834127
  0.3005436774681485  0.6637957078811070  0.4235041567494946
  0.6857158396993981  0.3500664886774345  0.4420221412534104
  0.5923705409517268  0.9110670778022225  0.5127818797303334
  0.0784809442251770  0.6061323198901647  0.5157456154410909
  0.6307021507684425  0.7159236305020542  0.4469522607069720
  0.3712221654666479  0.2842767978210148  0.4719345176066483
  0.2505765218385747  0.6309980035710581  0.4694372526469124
  0.7453221716068228  0.3718963950755025  0.4897705465339683
  0.5825738740577364  0.9715588117674727  0.5685936883480807
  0.0194242704880736  0.5942191917761335  0.5680638804770055
  0.6340445921906976  0.7098782632638958  0.5268183523037067
  0.3659523787394647  0.2925696118626391  0.5534285846016544
  0.2562334081980495  0.6384348074738639  0.5401279576698030
  0.7457753876580071  0.3612866213084800  0.5605581198076450
  0.5826170428551407  0.0284623785486673  0.4312596090745870
  0.9790732877369450  0.5903076787729233  0.4283961112665366
  0.7457856759226118  0.6386933928624288  0.4395136699303919
  0.2560620482503424  0.3616938664934537  0.4604035137340574
  0.3660993059366149  0.7074952271818447  0.4469215864932039
  0.6340187427121435  0.2901402369042145  0.4732566578118238
  0.5924387385627057  0.0889431202713311  0.4870765832745292
  0.9200464009189702  0.6049776839944059  0.4801759827686851
  0.7454116697915367  0.6281687638735320  0.5103152599923533
  0.2503504598932196  0.3691285014046599  0.5310880811832561
  0.3713488754151086  0.7158848306584815  0.5284649338446670
  0.6307383401368156  0.2839889721227209  0.5531464420680550
  0.5814397857415230  0.0490290811673049  0.5542536311118340
  0.9502420314060913  0.5926238778415041  0.5498498279565283
  0.6858117772666077  0.6500257646758101  0.5580827514978992
  0.3001956790623552  0.3359005581873120  0.5768393656396995
  0.3126740486599857  0.6800058729832870  0.5696267554584864
  0.6932779406815115  0.3146392871688946  0.5907838753252292
  0.5203872491818302  0.0442174895781946  0.3862695597773680
  0.9676172222072665  0.5199393599298645  0.3846199477777930
  0.8154655693381940  0.6659889396416645  0.4206020345616821
  0.1890390995356697  0.3361663474706305  0.4341354933654600
  0.3542246579165464  0.7891171868563802  0.4219088275923113
  0.6453377276718300  0.2149099536413743  0.4425478694684060
  0.4792936050505929  0.0258259060858990  0.6177438646210973
  0.9675209147859718  0.4802225312769437  0.6153818414510468
  0.7043254215567956  0.7786508895219626  0.5966039000525072
  0.2897506215138250  0.2124084319066810  0.6094385925066916
  0.2072596625265390  0.7330761603046412  0.5983590786285902
  0.8010441228190288  0.2624967267731719  0.6087550055753468
  0.5203831084578141  0.9558534031224966  0.6136287097813309
  0.0309116235652596  0.5262605143915025  0.6145110433619791
  0.6454082076373240  0.7851909328995603  0.5573842501250610
  0.3541368685425610  0.2107885663593265  0.5782580202316154
  0.1890578069816087  0.6640548683467671  0.5662338493966175
  0.8155292392392823  0.3340226135345716  0.5793743150998338
  0.5190225667224482  0.0816444929971141  0.5855302060125211
  0.9190861490784386  0.5227673820638614  0.5795712807737132
  0.7272111960034664  0.7018211794237743  0.6083956802487336
  0.2611637410177252  0.2879468526703164  0.6211636842587893
  0.2820358208879199  0.7379948714910824  0.6120705002024280
  0.7270431526631427  0.2549564633189192  0.6264779627619106
  0.4805114736564704  0.1232880632811373  0.5354494217941479
  0.8850603179869694  0.4786308517371509  0.5282471317168955
  0.7976702808072744  0.7044255066663538  0.5838092870996689
  0.1899846437558281  0.2875750842466829  0.5952515758895842
  0.3059420677573641  0.8081214024051633  0.5824840103650004
  0.6999481419200251  0.1861881239600081  0.5962165579694485
  0.5194996909832810  0.1279542673658796  0.4793298887996684
  0.8850867976660481  0.5215915044986659  0.4717022955957901
  0.8114923572944832  0.6491488903092559  0.5336870788130739
  0.1804044956327715  0.3463987761958265  0.5477799643277450
  0.3626534869777416  0.8006263668712350  0.5401406739168877
  0.6392508993186681  0.1959833410868939  0.5599565564957061
  0.4808311699616112  0.0941566136965619  0.4250769537511943
  0.9191369099819440  0.4774291723456798  0.4204076922426339
  0.8634267838343135  0.6701250543237407  0.4797405492691666
  0.1350256288844704  0.3284318579404868  0.4880617281479616
  0.3523117015184738  0.8488390099273104  0.4772071007483873
  0.6481050296239061  0.1519766005372745  0.4931295520216352
  0.4169434112007266  0.0176257481870081  0.5714148958698360
  0.9789696075393266  0.4098386786573727  0.5716101217264935
  0.7602375094337646  0.8256039774238957  0.5641092448013652
  0.2360879368273601  0.1680965122410640  0.5720415146023967
  0.1867798340986369  0.7962793843860823  0.5577608680786312
  0.8168236457677054  0.2031729750067015  0.5632415181334736
  0.4073483165414586  0.0866203359667352  0.5234124228253449
  0.9199727703495881  0.3952085715181823  0.5197856666783380
  0.8197563855710541  0.7778082583878430  0.5582230362242697
  0.1761359419565736  0.2166910420483887  0.5634769180000063
  0.2462858645136023  0.8438878056563439  0.5478217461732484
  0.7576005165711095  0.1541700076765196  0.5556853636780374
  0.4184594700802293  0.0568904968054795  0.4522496148857442
  0.9502202318184274  0.4075590072000779  0.4501468253699485
  0.8648350228379016  0.7753899395698411  0.4949015990056296
  0.1342206645870831  0.2221521651210452  0.4981676672881434
  0.2715804141967340  0.8622849391768952  0.4831766558213602
  0.7287175582415983  0.1395526658603998  0.4923664276680029
 
  0.00000000E+00  0.00000000E+00  0.00000000E+00
  0.00000000E+00  0.00000000E+00  0.00000000E+00
  0.00000000E+00  0.00000000E+00  0.00000000E+00
  0.00000000E+00  0.00000000E+00  0.00000000E+00
  0.00000000E+00  0.00000000E+00  0.00000000E+00
  0.00000000E+00  0.00000000E+00  0.00000000E+00
  0.00000000E+00  0.00000000E+00  0.00000000E+00
  0.00000000E+00  0.00000000E+00  0.00000000E+00
  0.00000000E+00  0.00000000E+00  0.00000000E+00
  0.00000000E+00  0.00000000E+00  0.00000000E+00
  0.00000000E+00  0.00000000E+00  0.00000000E+00
  0.00000000E+00  0.00000000E+00  0.00000000E+00
  0.00000000E+00  0.00000000E+00  0.00000000E+00
  0.00000000E+00  0.00000000E+00  0.00000000E+00
  0.00000000E+00  0.00000000E+00  0.00000000E+00
  0.00000000E+00  0.00000000E+00  0.00000000E+00
  0.00000000E+00  0.00000000E+00  0.00000000E+00
  0.00000000E+00  0.00000000E+00  0.00000000E+00
  0.00000000E+00  0.00000000E+00  0.00000000E+00
  0.00000000E+00  0.00000000E+00  0.00000000E+00
  0.00000000E+00  0.00000000E+00  0.00000000E+00
  0.00000000E+00  0.00000000E+00  0.00000000E+00
  0.00000000E+00  0.00000000E+00  0.00000000E+00
  0.00000000E+00  0.00000000E+00  0.00000000E+00
  0.00000000E+00  0.00000000E+00  0.00000000E+00
  0.00000000E+00  0.00000000E+00  0.00000000E+00
  0.00000000E+00  0.00000000E+00  0.00000000E+00
  0.00000000E+00  0.00000000E+00  0.00000000E+00
  0.00000000E+00  0.00000000E+00  0.00000000E+00
  0.00000000E+00  0.00000000E+00  0.00000000E+00
  0.00000000E+00  0.00000000E+00  0.00000000E+00
  0.00000000E+00  0.00000000E+00  0.00000000E+00
  0.00000000E+00  0.00000000E+00  0.00000000E+00
  0.00000000E+00  0.00000000E+00  0.00000000E+00
  0.00000000E+00  0.00000000E+00  0.00000000E+00
  0.00000000E+00  0.00000000E+00  0.00000000E+00
  0.00000000E+00  0.00000000E+00  0.00000000E+00
  0.00000000E+00  0.00000000E+00  0.00000000E+00
  0.00000000E+00  0.00000000E+00  0.00000000E+00
  0.00000000E+00  0.00000000E+00  0.00000000E+00
  0.00000000E+00  0.00000000E+00  0.00000000E+00
  0.00000000E+00  0.00000000E+00  0.00000000E+00
  0.00000000E+00  0.00000000E+00  0.00000000E+00
  0.00000000E+00  0.00000000E+00  0.00000000E+00
  0.00000000E+00  0.00000000E+00  0.00000000E+00
  0.00000000E+00  0.00000000E+00  0.00000000E+00
  0.00000000E+00  0.00000000E+00  0.00000000E+00
  0.00000000E+00  0.00000000E+00  0.00000000E+00
  0.00000000E+00  0.00000000E+00  0.00000000E+00
  0.00000000E+00  0.00000000E+00  0.00000000E+00
  0.00000000E+00  0.00000000E+00  0.00000000E+00
  0.00000000E+00  0.00000000E+00  0.00000000E+00
  0.00000000E+00  0.00000000E+00  0.00000000E+00
  0.00000000E+00  0.00000000E+00  0.00000000E+00
  0.00000000E+00  0.00000000E+00  0.00000000E+00
  0.00000000E+00  0.00000000E+00  0.00000000E+00
  0.00000000E+00  0.00000000E+00  0.00000000E+00
  0.00000000E+00  0.00000000E+00  0.00000000E+00
  0.00000000E+00  0.00000000E+00  0.00000000E+00
  0.00000000E+00  0.00000000E+00  0.00000000E+00
  0.00000000E+00  0.00000000E+00  0.00000000E+00
  0.00000000E+00  0.00000000E+00  0.00000000E+00
  0.00000000E+00  0.00000000E+00  0.00000000E+00
  0.00000000E+00  0.00000000E+00  0.00000000E+00
  0.00000000E+00  0.00000000E+00  0.00000000E+00
  0.00000000E+00  0.00000000E+00  0.00000000E+00
  0.00000000E+00  0.00000000E+00  0.00000000E+00
  0.00000000E+00  0.00000000E+00  0.00000000E+00
  0.00000000E+00  0.00000000E+00  0.00000000E+00
  0.00000000E+00  0.00000000E+00  0.00000000E+00
  0.00000000E+00  0.00000000E+00  0.00000000E+00
  0.00000000E+00  0.00000000E+00  0.00000000E+00
  0.00000000E+00  0.00000000E+00  0.00000000E+00
  0.00000000E+00  0.00000000E+00  0.00000000E+00
  0.00000000E+00  0.00000000E+00  0.00000000E+00
  0.00000000E+00  0.00000000E+00  0.00000000E+00
  0.00000000E+00  0.00000000E+00  0.00000000E+00
  0.00000000E+00  0.00000000E+00  0.00000000E+00
  0.00000000E+00  0.00000000E+00  0.00000000E+00
  0.00000000E+00  0.00000000E+00  0.00000000E+00
  0.00000000E+00  0.00000000E+00  0.00000000E+00
  0.00000000E+00  0.00000000E+00  0.00000000E+00
  0.00000000E+00  0.00000000E+00  0.00000000E+00
  0.00000000E+00  0.00000000E+00  0.00000000E+00
  0.00000000E+00  0.00000000E+00  0.00000000E+00
  0.00000000E+00  0.00000000E+00  0.00000000E+00
  0.00000000E+00  0.00000000E+00  0.00000000E+00
  0.00000000E+00  0.00000000E+00  0.00000000E+00
  0.00000000E+00  0.00000000E+00  0.00000000E+00
  0.00000000E+00  0.00000000E+00  0.00000000E+00
  0.00000000E+00  0.00000000E+00  0.00000000E+00
  0.00000000E+00  0.00000000E+00  0.00000000E+00
  0.00000000E+00  0.00000000E+00  0.00000000E+00
  0.00000000E+00  0.00000000E+00  0.00000000E+00
  0.00000000E+00  0.00000000E+00  0.00000000E+00
  0.00000000E+00  0.00000000E+00  0.00000000E+00
  0.00000000E+00  0.00000000E+00  0.00000000E+00
  0.00000000E+00  0.00000000E+00  0.00000000E+00
  0.00000000E+00  0.00000000E+00  0.00000000E+00
  0.00000000E+00  0.00000000E+00  0.00000000E+00
  0.00000000E+00  0.00000000E+00  0.00000000E+00
  0.00000000E+00  0.00000000E+00  0.00000000E+00
  0.00000000E+00  0.00000000E+00  0.00000000E+00
  0.00000000E+00  0.00000000E+00  0.00000000E+00
  0.00000000E+00  0.00000000E+00  0.00000000E+00
  0.00000000E+00  0.00000000E+00  0.00000000E+00
  0.00000000E+00  0.00000000E+00  0.00000000E+00
  0.00000000E+00  0.00000000E+00  0.00000000E+00
  0.00000000E+00  0.00000000E+00  0.00000000E+00
  0.00000000E+00  0.00000000E+00  0.00000000E+00
  0.00000000E+00  0.00000000E+00  0.00000000E+00
  0.00000000E+00  0.00000000E+00  0.00000000E+00
  0.00000000E+00  0.00000000E+00  0.00000000E+00
  0.00000000E+00  0.00000000E+00  0.00000000E+00
  0.00000000E+00  0.00000000E+00  0.00000000E+00
  0.00000000E+00  0.00000000E+00  0.00000000E+00
  0.00000000E+00  0.00000000E+00  0.00000000E+00
  0.00000000E+00  0.00000000E+00  0.00000000E+00
  0.00000000E+00  0.00000000E+00  0.00000000E+00
  0.00000000E+00  0.00000000E+00  0.00000000E+00
  0.00000000E+00  0.00000000E+00  0.00000000E+00
  0.00000000E+00  0.00000000E+00  0.00000000E+00
  0.00000000E+00  0.00000000E+00  0.00000000E+00
  0.00000000E+00  0.00000000E+00  0.00000000E+00
  0.00000000E+00  0.00000000E+00  0.00000000E+00
  0.00000000E+00  0.00000000E+00  0.00000000E+00
  0.00000000E+00  0.00000000E+00  0.00000000E+00
  0.00000000E+00  0.00000000E+00  0.00000000E+00
  0.00000000E+00  0.00000000E+00  0.00000000E+00
  0.00000000E+00  0.00000000E+00  0.00000000E+00
  0.00000000E+00  0.00000000E+00  0.00000000E+00
  0.00000000E+00  0.00000000E+00  0.00000000E+00
  0.00000000E+00  0.00000000E+00  0.00000000E+00
  0.00000000E+00  0.00000000E+00  0.00000000E+00
  0.00000000E+00  0.00000000E+00  0.00000000E+00
  0.00000000E+00  0.00000000E+00  0.00000000E+00
  0.00000000E+00  0.00000000E+00  0.00000000E+00
  0.00000000E+00  0.00000000E+00  0.00000000E+00
  0.00000000E+00  0.00000000E+00  0.00000000E+00
  0.00000000E+00  0.00000000E+00  0.00000000E+00
  0.00000000E+00  0.00000000E+00  0.00000000E+00
  0.00000000E+00  0.00000000E+00  0.00000000E+00
  0.00000000E+00  0.00000000E+00  0.00000000E+00
  0.00000000E+00  0.00000000E+00  0.00000000E+00
  0.00000000E+00  0.00000000E+00  0.00000000E+00
  0.00000000E+00  0.00000000E+00  0.00000000E+00
  0.00000000E+00  0.00000000E+00  0.00000000E+00
  0.00000000E+00  0.00000000E+00  0.00000000E+00
  0.00000000E+00  0.00000000E+00  0.00000000E+00
  0.00000000E+00  0.00000000E+00  0.00000000E+00
  0.00000000E+00  0.00000000E+00  0.00000000E+00
  0.00000000E+00  0.00000000E+00  0.00000000E+00
  0.00000000E+00  0.00000000E+00  0.00000000E+00
  0.00000000E+00  0.00000000E+00  0.00000000E+00
  0.00000000E+00  0.00000000E+00  0.00000000E+00
  0.00000000E+00  0.00000000E+00  0.00000000E+00
  0.00000000E+00  0.00000000E+00  0.00000000E+00
  0.00000000E+00  0.00000000E+00  0.00000000E+00
  0.00000000E+00  0.00000000E+00  0.00000000E+00
  0.00000000E+00  0.00000000E+00  0.00000000E+00
  0.00000000E+00  0.00000000E+00  0.00000000E+00
  0.00000000E+00  0.00000000E+00  0.00000000E+00
  0.00000000E+00  0.00000000E+00  0.00000000E+00
  0.00000000E+00  0.00000000E+00  0.00000000E+00
  0.00000000E+00  0.00000000E+00  0.00000000E+00
  0.00000000E+00  0.00000000E+00  0.00000000E+00
  0.00000000E+00  0.00000000E+00  0.00000000E+00
  0.00000000E+00  0.00000000E+00  0.00000000E+00
  0.00000000E+00  0.00000000E+00  0.00000000E+00
  0.00000000E+00  0.00000000E+00  0.00000000E+00
  0.00000000E+00  0.00000000E+00  0.00000000E+00
  0.00000000E+00  0.00000000E+00  0.00000000E+00
  0.00000000E+00  0.00000000E+00  0.00000000E+00
  0.00000000E+00  0.00000000E+00  0.00000000E+00
  0.00000000E+00  0.00000000E+00  0.00000000E+00
  0.00000000E+00  0.00000000E+00  0.00000000E+00
  0.00000000E+00  0.00000000E+00  0.00000000E+00
  0.00000000E+00  0.00000000E+00  0.00000000E+00
  0.00000000E+00  0.00000000E+00  0.00000000E+00
  0.00000000E+00  0.00000000E+00  0.00000000E+00
  0.00000000E+00  0.00000000E+00  0.00000000E+00
  0.00000000E+00  0.00000000E+00  0.00000000E+00
  0.00000000E+00  0.00000000E+00  0.00000000E+00
  0.00000000E+00  0.00000000E+00  0.00000000E+00
  0.00000000E+00  0.00000000E+00  0.00000000E+00
  0.00000000E+00  0.00000000E+00  0.00000000E+00
  0.00000000E+00  0.00000000E+00  0.00000000E+00
  0.00000000E+00  0.00000000E+00  0.00000000E+00
  0.00000000E+00  0.00000000E+00  0.00000000E+00
  0.00000000E+00  0.00000000E+00  0.00000000E+00
  0.00000000E+00  0.00000000E+00  0.00000000E+00
  0.00000000E+00  0.00000000E+00  0.00000000E+00
  0.00000000E+00  0.00000000E+00  0.00000000E+00
  0.00000000E+00  0.00000000E+00  0.00000000E+00
  0.00000000E+00  0.00000000E+00  0.00000000E+00
  0.00000000E+00  0.00000000E+00  0.00000000E+00
  0.00000000E+00  0.00000000E+00  0.00000000E+00
  0.00000000E+00  0.00000000E+00  0.00000000E+00
  0.00000000E+00  0.00000000E+00  0.00000000E+00
  0.00000000E+00  0.00000000E+00  0.00000000E+00
  0.00000000E+00  0.00000000E+00  0.00000000E+00
  0.00000000E+00  0.00000000E+00  0.00000000E+00
  0.00000000E+00  0.00000000E+00  0.00000000E+00
  0.00000000E+00  0.00000000E+00  0.00000000E+00
  0.00000000E+00  0.00000000E+00  0.00000000E+00
  0.00000000E+00  0.00000000E+00  0.00000000E+00
  0.00000000E+00  0.00000000E+00  0.00000000E+00
  0.00000000E+00  0.00000000E+00  0.00000000E+00
  0.00000000E+00  0.00000000E+00  0.00000000E+00
  0.00000000E+00  0.00000000E+00  0.00000000E+00
  0.00000000E+00  0.00000000E+00  0.00000000E+00
  0.00000000E+00  0.00000000E+00  0.00000000E+00
  0.00000000E+00  0.00000000E+00  0.00000000E+00
  0.00000000E+00  0.00000000E+00  0.00000000E+00
  0.00000000E+00  0.00000000E+00  0.00000000E+00
  0.00000000E+00  0.00000000E+00  0.00000000E+00
