Generated by VASPKIT code               
   1.00000000000000     
    12.8227866471369349    0.0326403040454308    0.0000000000000000
    -6.3841124235444555   10.5991890322709121    0.0000000000000000
     0.0000000000000013    0.0000000000000022   20.2241467039712326
  C             
   108
Direct
  0.9279267872229724  0.9891285482974297  0.6216437172350879
  0.9129757335765589  0.8683864969511887  0.6146290025721513
  0.8115165295530673  0.7900749004722627  0.5625114363430583
  0.8504793903410288  0.9991192508540223  0.5716366616016089
  0.7887263326351217  0.8888835845477914  0.5343241591736074
  0.9153390560750339  0.1157523220686372  0.5378806135521117
  0.0445886143642795  0.1012089489332482  0.6169605450304445
  0.0371877533642788  0.1775972972511539  0.5646773825422784
  0.1524323825618055  0.0991535195897555  0.6053258237968109
  0.0188346025805544  0.8663153262102554  0.5998155053300422
  0.1343599081727902  0.9785917408990912  0.5949533407996981
  0.8863765491797366  0.7757400937980847  0.5107875517419771
  0.9960977693177497  0.7837058218750528  0.5392181095624906
  0.8688549597283881  0.7745845953137689  0.4450861256524732
  0.7723862995881490  0.8919677108166510  0.4664285422389369
  0.7723763284397407  0.7973544433978859  0.4181867148986171
  0.8972640881834053  0.1181625800147614  0.4700213161220788
  0.8187165859407557  0.0088713424618732  0.4354644226026920
  0.9954261701956284  0.2112775250616821  0.4252110108434337
  0.1349464926523183  0.2244493971350181  0.5217743082563047
  0.2293001318784462  0.1946383315203661  0.5479000620846861
  0.1140461484500364  0.2269889975289914  0.4523235747268188
  0.1991385412121858  0.9761687662133625  0.5330280974523163
  0.1019624529640808  0.8671829649189391  0.4945928815719540
  0.2315566570792171  0.1009146605283817  0.4998961377015192
  0.9651423793733329  0.8093299388733683  0.3991167066927375
  0.0855250256646443  0.8746301971578205  0.4272383308796108
  0.8445421050237911  0.8869729826324289  0.3578809362668167
  0.8625201013320947  0.0096666328827268  0.3692238953741409
  0.9733589670699772  0.1274459521247451  0.3622643747550356
  0.9539932106350903  0.8859607359518833  0.3484235116351400
  0.1629219969817726  0.1812547665254343  0.4074125332423151
  0.2091588111941007  0.1036752292449563  0.4324958699137582
  0.1511520892794351  0.9922731168625631  0.3926111413652649
  0.0772604322953470  0.1168876836412736  0.3534818492549618
  0.0700870200359986  0.9995709816930756  0.3439699575910922
  0.7043086783402330  0.1802437555954057  0.5494572253842733
  0.8208967165668142  0.5257239324846950  0.5504345594178588
  0.4878464719274191  0.3470635844732968  0.5530841966116853
  0.6686985870188948  0.2184846898048889  0.4838079017096319
  0.7861900142063263  0.4657798235157458  0.4791675504663644
  0.5408599124654003  0.3329128823942398  0.4897428804551538
  0.6103068890272780  0.1504867241126533  0.5990674979606894
  0.8376805670841065  0.4337088488182985  0.5912711809491142
  0.5703282076945442  0.4473072951603072  0.5891147551410683
  0.5446516521734353  0.2106796319990707  0.4963391162465243
  0.7907548107205145  0.3398872342402015  0.4779814398662481
  0.6665648843513310  0.4683925063524370  0.4793113510910985
  0.5132498939725565  0.1528528966954923  0.5684186188741407
  0.8222887298936428  0.3162101059250091  0.5523461978011994
  0.6930627066695791  0.5334623002194050  0.5536215395701731
  0.5639473524009517  0.0254863323435330  0.6287718080722300
  0.9589012928142822  0.4943818426323503  0.6154770133758376
  0.5106662132493014  0.5111820288237823  0.6152902912895541
  0.4367876476922987  0.9646225438615872  0.6283793137634248
  0.0177364372398543  0.4213900981752374  0.6158799401850743
  0.5794662918408875  0.6401993674938495  0.6116388388510501
  0.4058611687747558  0.0425542615417527  0.5885930274642988
  0.9458035120281281  0.3382523963643820  0.5623645832296731
  0.6904093916704710  0.6622462506417435  0.5631274362948346
  0.5949843458234341  0.9527427969445839  0.5847427421611613
  0.0374310259085817  0.6128282608918596  0.5843280365342380
  0.3869212373833690  0.4525256343646973  0.5852613427644542
  0.6678548935765107  0.0389609850734018  0.5354650135776780
  0.9639682990562477  0.6456934178302163  0.5411065059372717
  0.3602142231391525  0.3313184009830223  0.5473205166338602
  0.6317701320462987  0.0099394284796404  0.4677028787762225
  0.9917397296526289  0.6245391500270969  0.4716369597789054
  0.3730082943802131  0.3640121741761604  0.4739620291408357
  0.4846759431695347  0.8133835245435534  0.5690704066221173
  0.1449031528706541  0.6162138936782213  0.5638198512029930
  0.3748307400621798  0.5484539973484104  0.5591317465789984
  0.4465336460141955  0.7891743832845108  0.4865272057127896
  0.2019873703493431  0.6516988500094101  0.4905627600315725
  0.3378107964161785  0.5493033986452147  0.4823994444424855
  0.5252426663650169  0.9009904544731668  0.4441030757374165
  0.1004977069999171  0.6368810448828270  0.4480983548620188
  0.3582941742204042  0.4576120598509803  0.4446043412245047
  0.3881239215284538  0.8437820745930296  0.5950530661637714
  0.1371846110836543  0.5019130977359652  0.5888102758104026
  0.4925133030370858  0.6810978180296630  0.5790484012987278
  0.5255405771541746  0.0715233201357890  0.3988043424165753
  0.9329849597705291  0.4727817152723262  0.3969267566875700
  0.5218967573495661  0.4538114310331594  0.3985820071651673
  0.6324716286436001  0.1132860358185397  0.4369474723003535
  0.8910150916424371  0.5434729167447969  0.4343587765250732
  0.4587122826513337  0.3450192540666208  0.4411635051816063
  0.4625415027221891  0.9348944521942784  0.3976364154993064
  0.0667350372388285  0.5404831722180177  0.3994943202232548
  0.4523862195460424  0.5184153289660216  0.3959154738268822
  0.3543494471171371  0.8889198086563468  0.4374403382125749
  0.1157395584935514  0.4660622626014046  0.4138123049560392
  0.5218375655083207  0.6480394054276530  0.4049024572096869
  0.3197273070277546  0.7804751771421934  0.4852975674513829
  0.2114667543514486  0.5323287595402775  0.4717013353991675
  0.4553199944125623  0.6762969138740544  0.4619511278953397
  0.3113646771968135  0.8394209761804632  0.5476549284339072
  0.1356637010619934  0.4507664616477456  0.5255214368961916
  0.5356780242989032  0.6794807778983980  0.5131335950006815
  0.4638663783614945  0.1040234969952820  0.4482118054695619
  0.8872418104489483  0.3566663333479028  0.4250529209186737
  0.6358972586317932  0.5343600654973812  0.4229910249025437
  0.3630964657389129  0.9924428972379857  0.4702419081609008
  0.9985097710547919  0.3371418725947279  0.4352431273234174
  0.6501360067070934  0.6683112898724701  0.4271064370405782
  0.3108263280929222  0.9629353091770980  0.5386785040246522
  0.0200530200789544  0.3620649614500167  0.5075374995941431
  0.6287052276489078  0.6661120406441015  0.5005837970851417
 
  0.00000000E+00  0.00000000E+00  0.00000000E+00
  0.00000000E+00  0.00000000E+00  0.00000000E+00
  0.00000000E+00  0.00000000E+00  0.00000000E+00
  0.00000000E+00  0.00000000E+00  0.00000000E+00
  0.00000000E+00  0.00000000E+00  0.00000000E+00
  0.00000000E+00  0.00000000E+00  0.00000000E+00
  0.00000000E+00  0.00000000E+00  0.00000000E+00
  0.00000000E+00  0.00000000E+00  0.00000000E+00
  0.00000000E+00  0.00000000E+00  0.00000000E+00
  0.00000000E+00  0.00000000E+00  0.00000000E+00
  0.00000000E+00  0.00000000E+00  0.00000000E+00
  0.00000000E+00  0.00000000E+00  0.00000000E+00
  0.00000000E+00  0.00000000E+00  0.00000000E+00
  0.00000000E+00  0.00000000E+00  0.00000000E+00
  0.00000000E+00  0.00000000E+00  0.00000000E+00
  0.00000000E+00  0.00000000E+00  0.00000000E+00
  0.00000000E+00  0.00000000E+00  0.00000000E+00
  0.00000000E+00  0.00000000E+00  0.00000000E+00
  0.00000000E+00  0.00000000E+00  0.00000000E+00
  0.00000000E+00  0.00000000E+00  0.00000000E+00
  0.00000000E+00  0.00000000E+00  0.00000000E+00
  0.00000000E+00  0.00000000E+00  0.00000000E+00
  0.00000000E+00  0.00000000E+00  0.00000000E+00
  0.00000000E+00  0.00000000E+00  0.00000000E+00
  0.00000000E+00  0.00000000E+00  0.00000000E+00
  0.00000000E+00  0.00000000E+00  0.00000000E+00
  0.00000000E+00  0.00000000E+00  0.00000000E+00
  0.00000000E+00  0.00000000E+00  0.00000000E+00
  0.00000000E+00  0.00000000E+00  0.00000000E+00
  0.00000000E+00  0.00000000E+00  0.00000000E+00
  0.00000000E+00  0.00000000E+00  0.00000000E+00
  0.00000000E+00  0.00000000E+00  0.00000000E+00
  0.00000000E+00  0.00000000E+00  0.00000000E+00
  0.00000000E+00  0.00000000E+00  0.00000000E+00
  0.00000000E+00  0.00000000E+00  0.00000000E+00
  0.00000000E+00  0.00000000E+00  0.00000000E+00
  0.00000000E+00  0.00000000E+00  0.00000000E+00
  0.00000000E+00  0.00000000E+00  0.00000000E+00
  0.00000000E+00  0.00000000E+00  0.00000000E+00
  0.00000000E+00  0.00000000E+00  0.00000000E+00
  0.00000000E+00  0.00000000E+00  0.00000000E+00
  0.00000000E+00  0.00000000E+00  0.00000000E+00
  0.00000000E+00  0.00000000E+00  0.00000000E+00
  0.00000000E+00  0.00000000E+00  0.00000000E+00
  0.00000000E+00  0.00000000E+00  0.00000000E+00
  0.00000000E+00  0.00000000E+00  0.00000000E+00
  0.00000000E+00  0.00000000E+00  0.00000000E+00
  0.00000000E+00  0.00000000E+00  0.00000000E+00
  0.00000000E+00  0.00000000E+00  0.00000000E+00
  0.00000000E+00  0.00000000E+00  0.00000000E+00
  0.00000000E+00  0.00000000E+00  0.00000000E+00
  0.00000000E+00  0.00000000E+00  0.00000000E+00
  0.00000000E+00  0.00000000E+00  0.00000000E+00
  0.00000000E+00  0.00000000E+00  0.00000000E+00
  0.00000000E+00  0.00000000E+00  0.00000000E+00
  0.00000000E+00  0.00000000E+00  0.00000000E+00
  0.00000000E+00  0.00000000E+00  0.00000000E+00
  0.00000000E+00  0.00000000E+00  0.00000000E+00
  0.00000000E+00  0.00000000E+00  0.00000000E+00
  0.00000000E+00  0.00000000E+00  0.00000000E+00
  0.00000000E+00  0.00000000E+00  0.00000000E+00
  0.00000000E+00  0.00000000E+00  0.00000000E+00
  0.00000000E+00  0.00000000E+00  0.00000000E+00
  0.00000000E+00  0.00000000E+00  0.00000000E+00
  0.00000000E+00  0.00000000E+00  0.00000000E+00
  0.00000000E+00  0.00000000E+00  0.00000000E+00
  0.00000000E+00  0.00000000E+00  0.00000000E+00
  0.00000000E+00  0.00000000E+00  0.00000000E+00
  0.00000000E+00  0.00000000E+00  0.00000000E+00
  0.00000000E+00  0.00000000E+00  0.00000000E+00
  0.00000000E+00  0.00000000E+00  0.00000000E+00
  0.00000000E+00  0.00000000E+00  0.00000000E+00
  0.00000000E+00  0.00000000E+00  0.00000000E+00
  0.00000000E+00  0.00000000E+00  0.00000000E+00
  0.00000000E+00  0.00000000E+00  0.00000000E+00
  0.00000000E+00  0.00000000E+00  0.00000000E+00
  0.00000000E+00  0.00000000E+00  0.00000000E+00
  0.00000000E+00  0.00000000E+00  0.00000000E+00
  0.00000000E+00  0.00000000E+00  0.00000000E+00
  0.00000000E+00  0.00000000E+00  0.00000000E+00
  0.00000000E+00  0.00000000E+00  0.00000000E+00
  0.00000000E+00  0.00000000E+00  0.00000000E+00
  0.00000000E+00  0.00000000E+00  0.00000000E+00
  0.00000000E+00  0.00000000E+00  0.00000000E+00
  0.00000000E+00  0.00000000E+00  0.00000000E+00
  0.00000000E+00  0.00000000E+00  0.00000000E+00
  0.00000000E+00  0.00000000E+00  0.00000000E+00
  0.00000000E+00  0.00000000E+00  0.00000000E+00
  0.00000000E+00  0.00000000E+00  0.00000000E+00
  0.00000000E+00  0.00000000E+00  0.00000000E+00
  0.00000000E+00  0.00000000E+00  0.00000000E+00
  0.00000000E+00  0.00000000E+00  0.00000000E+00
  0.00000000E+00  0.00000000E+00  0.00000000E+00
  0.00000000E+00  0.00000000E+00  0.00000000E+00
  0.00000000E+00  0.00000000E+00  0.00000000E+00
  0.00000000E+00  0.00000000E+00  0.00000000E+00
  0.00000000E+00  0.00000000E+00  0.00000000E+00
  0.00000000E+00  0.00000000E+00  0.00000000E+00
  0.00000000E+00  0.00000000E+00  0.00000000E+00
  0.00000000E+00  0.00000000E+00  0.00000000E+00
  0.00000000E+00  0.00000000E+00  0.00000000E+00
  0.00000000E+00  0.00000000E+00  0.00000000E+00
  0.00000000E+00  0.00000000E+00  0.00000000E+00
  0.00000000E+00  0.00000000E+00  0.00000000E+00
  0.00000000E+00  0.00000000E+00  0.00000000E+00
  0.00000000E+00  0.00000000E+00  0.00000000E+00
  0.00000000E+00  0.00000000E+00  0.00000000E+00
  0.00000000E+00  0.00000000E+00  0.00000000E+00
