Generated by VASPKIT code               
   1.00000000000000     
    11.6626975630346195   -0.0017545894105508    0.0000000000000000
    -5.8329426889367060    9.6441811510587598    0.0000000000000000
     0.0000000000000013    0.0000000000000022   20.2297253706125204
  C             
    84
Direct
  0.4231804278519959  0.8470995429846084  0.3503971806438031
  0.4926443045017876  0.7744645023317105  0.3466949233749332
  0.5786237550837114  0.8101504167838627  0.4050823136650763
  0.4592192922600162  0.9195472018854076  0.4142813823886158
  0.5530727448492527  0.8961123725145015  0.4478376871114875
  0.3415914796078141  0.8952360983544096  0.4477686517996489
  0.2809376071152414  0.7735938461387803  0.3466589413669112
  0.2302506696381101  0.8087378641999976  0.4050182721448934
  0.2067482918363623  0.6264086170319629  0.3371860143322607
  0.4204055097517170  0.6273037137848547  0.3371978079793436
  0.2769502687384531  0.5532011345549535  0.3342615356873182
  0.5487416490456525  0.6828423733442079  0.4356111006188286
  0.4532129514643941  0.5713830838759648  0.3937677566837507
  0.5372588466321417  0.6668435272042075  0.5047783827327947
  0.5454743130914892  0.8809334285749770  0.5181517302844725
  0.5771050534865054  0.7832506817026541  0.5547787043213788
  0.3339514954269021  0.8802218070920134  0.5180847671942459
  0.4404960299551774  0.8821533033103819  0.5515246094901514
  0.2047277406626478  0.7818148955276456  0.5546618251757920
  0.1330919395108978  0.6811230403535191  0.4355802816609895
  0.1179191570425147  0.5699834204217211  0.3937191987548232
  0.1283652576381868  0.6651849099221039  0.5046914850292481
  0.2222864499682302  0.4433212581603243  0.3843499812359070
  0.3335321666577471  0.4586485719288902  0.4223171147683047
  0.1258208327918808  0.4578703574364269  0.4222884635150024
  0.4334889056896358  0.5444007144512071  0.5312580209091777
  0.3267795483240974  0.4473635485706353  0.4915602791392644
  0.4636018410310072  0.7136355465005977  0.6063985041677782
  0.3905665436604906  0.7819972673289897  0.6063831608557209
  0.2490341888483840  0.7127053643502848  0.6062616657899156
  0.3866597588810734  0.5696161080827054  0.5937296266293686
  0.1097549762725691  0.5425435761019273  0.5312434539314239
  0.1215038197131619  0.4468093715325807  0.4914632999764663
  0.1997137559980118  0.3982249356175203  0.5296182077908753
  0.1825245437169158  0.5687220402750981  0.5936503582485670
  0.2455433863962497  0.4906357308118316  0.5921054748802632
  0.8582918995251845  0.5185602267524416  0.4509047152588366
  0.1179849192269771  0.8484156275139583  0.5625338946912137
  0.8674201438887081  0.3981773444667951  0.4565438929247065
  0.9710623993770326  0.7414927318490285  0.5335850174681624
  0.7400639082230356  0.4807103178744754  0.4159965393619416
  0.1837990403226755  0.9692018007991550  0.5142364512605297
  0.7448630108365819  0.2783403176162693  0.4327666664047669
  0.9720677311157431  0.8252769471919734  0.4732973242590006
  0.6639389804724658  0.3277716724108117  0.4058251241725230
  0.0963536859370606  0.9494941833122823  0.4626751096671669
  0.6592572919786193  0.5181686582914935  0.4508740161379450
  0.2567733788526354  0.1221996148334767  0.5392784281644794
  0.5301979433917126  0.3970927132555104  0.4565778903457200
  0.1923834695078170  0.1789559421131557  0.4936743222031055
  0.5334898500557159  0.2776412755234361  0.4327413665553337
  0.1019566837940147  0.0788865244622130  0.4508976496105959
  0.7156017379195418  0.5794094050632879  0.5194639019600373
  0.1509939653910166  0.0823569298826712  0.5954925680941585
  0.8630177629590534  0.5796131732033771  0.5194495473950127
  0.0825877248901818  0.9396135494105948  0.6110666662952084
  0.8526672007544818  0.4607633328712453  0.5621146717015080
  0.9386099679176425  0.8775795670960989  0.6179941254491652
  0.6071510570756118  0.4601719452492787  0.5621681482947523
  0.0753542316554316  0.1499414846031542  0.5887926235633287
  0.6227411705471226  0.3722541275723046  0.6057115561380755
  0.9321443991644074  0.0829569429685435  0.5954763442894446
  0.7495940557076892  0.3726576336817544  0.6056880530756743
  0.8572290353214598  0.9402045005840876  0.6110449991990947
  0.4866324934652368  0.3731134720761062  0.5237449589869669
  0.1222241210063686  0.2433138113686937  0.5285377613500444
  0.8009241767406934  0.2182267552915746  0.5425618556273832
  0.7697335501215719  0.7417058148235540  0.5335928094273257
  0.8875723512993048  0.3746507971238913  0.5237585952831907
  0.8856784576518137  0.7721370892890889  0.5732781165425962
  0.7192312093960282  0.2297416368108784  0.6003948968067121
  0.7304282244284721  0.8494059098223943  0.5625549423649900
  0.5808719724662978  0.1607811020801222  0.5841468238823992
  0.7860795897170050  0.9701630113692090  0.5142470353472532
  0.5108503653143899  0.2290982612547978  0.6004015430302871
  0.8665654678294246  0.1232122146169345  0.5392689833701994
  0.4173897620157092  0.2169891816532896  0.5425812836350232
  0.9877159390845804  0.1794774347833012  0.4936662966507015
  0.6964479535276382  0.1810398348744329  0.4856218177162219
  0.8527770357967341  0.8254443631606421  0.4732959752616068
  0.5704971895018787  0.1400443156240030  0.5121589455732476
  0.8534631969341788  0.9500649823270422  0.4627101161562592
  0.4849512677944858  0.1802104964996545  0.4856205275864696
  0.9775855269581157  0.0791908516540616  0.4508757858378232
 
  0.00000000E+00  0.00000000E+00  0.00000000E+00
  0.00000000E+00  0.00000000E+00  0.00000000E+00
  0.00000000E+00  0.00000000E+00  0.00000000E+00
  0.00000000E+00  0.00000000E+00  0.00000000E+00
  0.00000000E+00  0.00000000E+00  0.00000000E+00
  0.00000000E+00  0.00000000E+00  0.00000000E+00
  0.00000000E+00  0.00000000E+00  0.00000000E+00
  0.00000000E+00  0.00000000E+00  0.00000000E+00
  0.00000000E+00  0.00000000E+00  0.00000000E+00
  0.00000000E+00  0.00000000E+00  0.00000000E+00
  0.00000000E+00  0.00000000E+00  0.00000000E+00
  0.00000000E+00  0.00000000E+00  0.00000000E+00
  0.00000000E+00  0.00000000E+00  0.00000000E+00
  0.00000000E+00  0.00000000E+00  0.00000000E+00
  0.00000000E+00  0.00000000E+00  0.00000000E+00
  0.00000000E+00  0.00000000E+00  0.00000000E+00
  0.00000000E+00  0.00000000E+00  0.00000000E+00
  0.00000000E+00  0.00000000E+00  0.00000000E+00
  0.00000000E+00  0.00000000E+00  0.00000000E+00
  0.00000000E+00  0.00000000E+00  0.00000000E+00
  0.00000000E+00  0.00000000E+00  0.00000000E+00
  0.00000000E+00  0.00000000E+00  0.00000000E+00
  0.00000000E+00  0.00000000E+00  0.00000000E+00
  0.00000000E+00  0.00000000E+00  0.00000000E+00
  0.00000000E+00  0.00000000E+00  0.00000000E+00
  0.00000000E+00  0.00000000E+00  0.00000000E+00
  0.00000000E+00  0.00000000E+00  0.00000000E+00
  0.00000000E+00  0.00000000E+00  0.00000000E+00
  0.00000000E+00  0.00000000E+00  0.00000000E+00
  0.00000000E+00  0.00000000E+00  0.00000000E+00
  0.00000000E+00  0.00000000E+00  0.00000000E+00
  0.00000000E+00  0.00000000E+00  0.00000000E+00
  0.00000000E+00  0.00000000E+00  0.00000000E+00
  0.00000000E+00  0.00000000E+00  0.00000000E+00
  0.00000000E+00  0.00000000E+00  0.00000000E+00
  0.00000000E+00  0.00000000E+00  0.00000000E+00
  0.00000000E+00  0.00000000E+00  0.00000000E+00
  0.00000000E+00  0.00000000E+00  0.00000000E+00
  0.00000000E+00  0.00000000E+00  0.00000000E+00
  0.00000000E+00  0.00000000E+00  0.00000000E+00
  0.00000000E+00  0.00000000E+00  0.00000000E+00
  0.00000000E+00  0.00000000E+00  0.00000000E+00
  0.00000000E+00  0.00000000E+00  0.00000000E+00
  0.00000000E+00  0.00000000E+00  0.00000000E+00
  0.00000000E+00  0.00000000E+00  0.00000000E+00
  0.00000000E+00  0.00000000E+00  0.00000000E+00
  0.00000000E+00  0.00000000E+00  0.00000000E+00
  0.00000000E+00  0.00000000E+00  0.00000000E+00
  0.00000000E+00  0.00000000E+00  0.00000000E+00
  0.00000000E+00  0.00000000E+00  0.00000000E+00
  0.00000000E+00  0.00000000E+00  0.00000000E+00
  0.00000000E+00  0.00000000E+00  0.00000000E+00
  0.00000000E+00  0.00000000E+00  0.00000000E+00
  0.00000000E+00  0.00000000E+00  0.00000000E+00
  0.00000000E+00  0.00000000E+00  0.00000000E+00
  0.00000000E+00  0.00000000E+00  0.00000000E+00
  0.00000000E+00  0.00000000E+00  0.00000000E+00
  0.00000000E+00  0.00000000E+00  0.00000000E+00
  0.00000000E+00  0.00000000E+00  0.00000000E+00
  0.00000000E+00  0.00000000E+00  0.00000000E+00
  0.00000000E+00  0.00000000E+00  0.00000000E+00
  0.00000000E+00  0.00000000E+00  0.00000000E+00
  0.00000000E+00  0.00000000E+00  0.00000000E+00
  0.00000000E+00  0.00000000E+00  0.00000000E+00
  0.00000000E+00  0.00000000E+00  0.00000000E+00
  0.00000000E+00  0.00000000E+00  0.00000000E+00
  0.00000000E+00  0.00000000E+00  0.00000000E+00
  0.00000000E+00  0.00000000E+00  0.00000000E+00
  0.00000000E+00  0.00000000E+00  0.00000000E+00
  0.00000000E+00  0.00000000E+00  0.00000000E+00
  0.00000000E+00  0.00000000E+00  0.00000000E+00
  0.00000000E+00  0.00000000E+00  0.00000000E+00
  0.00000000E+00  0.00000000E+00  0.00000000E+00
  0.00000000E+00  0.00000000E+00  0.00000000E+00
  0.00000000E+00  0.00000000E+00  0.00000000E+00
  0.00000000E+00  0.00000000E+00  0.00000000E+00
  0.00000000E+00  0.00000000E+00  0.00000000E+00
  0.00000000E+00  0.00000000E+00  0.00000000E+00
  0.00000000E+00  0.00000000E+00  0.00000000E+00
  0.00000000E+00  0.00000000E+00  0.00000000E+00
  0.00000000E+00  0.00000000E+00  0.00000000E+00
  0.00000000E+00  0.00000000E+00  0.00000000E+00
  0.00000000E+00  0.00000000E+00  0.00000000E+00
  0.00000000E+00  0.00000000E+00  0.00000000E+00
