Generated by VASPKIT code               
   1.00000000000000     
    12.7777417322820845   -0.0702913556435118    0.0000000000000000
    -6.4750313203148568   11.2976391242377474    0.0000000000000000
     0.0000000000000012    0.0000000000000022   20.2284190462842766
  C             
    96
Direct
  0.8235962578888731  0.7802743198533548  0.5617888905714921
  0.5415751715328980  0.4472485435055660  0.5696426568858683
  0.7708499185074089  0.8529226148566380  0.5621097643363839
  0.6398704957336534  0.5368566532892132  0.5347566308286957
  0.8497266559044192  0.9559579281344739  0.5981533467280755
  0.7482895525415714  0.5352342268419434  0.5569421317886309
  0.9348689557933625  0.8359222312518000  0.6011695580706373
  0.5883627845795587  0.3905136636708590  0.6150635375094922
  0.9519995525363640  0.9461787874863958  0.6241301025102288
  0.7183869318496505  0.4497712787077646  0.6078963278782936
  0.0299032427472099  0.8350284644149397  0.5626725966746164
  0.5146331752088713  0.2665835531037430  0.6111711104698827
  0.8550640627512252  0.7532626260156761  0.5001851567657880
  0.4436384071684856  0.3576079849052149  0.5345853406891550
  0.9806969673981598  0.7815411914972401  0.5002394897115465
  0.4098745625770661  0.2376064454451736  0.5643465359797162
  0.8236566055024213  0.7798792064872444  0.4384228442377278
  0.4437604508624560  0.3574307229622988  0.4650750298651616
  0.7220601238995243  0.8818403049696997  0.4998341526043646
  0.6400081357097349  0.5367083509839574  0.4648878881983194
  0.7709053715617245  0.8524609320750827  0.4377378383777781
  0.5418259433355601  0.4469046038044695  0.4300073893119460
  0.8712829475333734  0.0585025378382866  0.5598271488444837
  0.8165516035666940  0.5376362046452883  0.5000539337775010
  0.8059906357340907  0.0180766147544489  0.4996632213988619
  0.7485183132642561  0.5349828604189781  0.4429933265865955
  0.9889743135145466  0.1598975023779943  0.5604931190383198
  0.8768198260473454  0.4710381458438064  0.5002359496225708
  0.0707803118278036  0.0481765060789385  0.6238692656545695
  0.7773917047125707  0.3811901593852554  0.6077071529247675
  0.0840899197535165  0.1577526023008886  0.5980816105420104
  0.8676105639193565  0.4032249844340825  0.5581341631948007
  0.1471276015001948  0.9377439751302177  0.5630399870105336
  0.5738456375308871  0.1981034985887931  0.6083347200359199
  0.1736768182632247  0.0398072792005877  0.6033813257667902
  0.7032704336618067  0.2549747067363271  0.6152088855900217
  0.2028463135366607  0.9758694095404863  0.5001137623961682
  0.5419857782694422  0.1082009716615246  0.5577703085485481
  0.0299503935268604  0.8346148525614652  0.4377173130588048
  0.4111379488286175  0.1694372573133478  0.5000509456291837
  0.9349874849551014  0.8352589081184973  0.3990570429999494
  0.4100813912609027  0.2372668114308993  0.4355517936776394
  0.1472074941618757  0.9373038765420176  0.4372198672869558
  0.4810990205264005  0.1111025399414629  0.5002297284520623
  0.8498801948371479  0.9552886458711782  0.4014934385925102
  0.5887898069088067  0.3899480535706772  0.3848686886207631
  0.8713902470800790  0.0580843616041591  0.4394870896949428
  0.7188128029965668  0.4492701007239290  0.3922148742349378
  0.9521672892025421  0.9453304123345205  0.3757390452145728
  0.5150411299282140  0.2660340649922190  0.3889209975263270
  0.0410944909403810  0.2195379201609313  0.4995586971979407
  0.8678890788925884  0.4029948056157977  0.4424942008667827
  0.9890948137771716  0.1595048946741215  0.4387398084478491
  0.7778769212483851  0.3807425831079456  0.3927472084525334
  0.1932363339709013  0.2164772211989074  0.5609157299472898
  0.8490169722212713  0.2881988136459626  0.5355594755469539
  0.2643198018324284  0.1550547976908803  0.5670903865750603
  0.7496823939299020  0.1978281522819927  0.5707885498128960
  0.2756784234103762  0.1039651973969313  0.4999839443099745
  0.6510331471027015  0.1073588040364868  0.5357631858013931
  0.1689150218717117  0.2532794302296608  0.4996395426921509
  0.8491881014876341  0.2880607634505097  0.4653392738811775
  0.1738455956614757  0.0390862236442970  0.3965921303555149
  0.5422363107707895  0.1079452970505344  0.4428282227534552
  0.0709855149606113  0.0473175400935872  0.3758939522945752
  0.5742798259492901  0.1976281961036221  0.3921108264348376
  0.0842957382417140  0.1570939701443663  0.4013564202806208
  0.7037507843636632  0.2545086426709560  0.3854126402833131
  0.2644694922633164  0.1546193727358798  0.4327108224359790
  0.6511921889734182  0.1072379284514327  0.4651344420962147
  0.1933983071599883  0.2161233198386370  0.4385175517335114
  0.7499479652715522  0.1975886407966101  0.4301269186211911
  0.2576247507176745  0.5855487241783877  0.6001244590790975
  0.3396237286227404  0.7085948081045927  0.6155411745820558
  0.1617526270883047  0.5737006507286750  0.5592039853925215
  0.3083334030634433  0.7776794038927619  0.5707825204580459
  0.2007676955368183  0.6969406365918047  0.5354843942204468
  0.1630020653183735  0.5137247312046114  0.4999361379920870
  0.1617087974388056  0.5737071315814077  0.4406857459363138
  0.2007253796819128  0.6969633769346757  0.4643959715017445
  0.2670222865879239  0.4954887716359337  0.4999088318515206
  0.3284371169086100  0.5443504090472899  0.5614261388892814
  0.4514166270502358  0.6403108681720369  0.5608725844658764
  0.3283345536332334  0.5443110170617587  0.4383827902275215
  0.4513205975310441  0.6402483393344127  0.4389126183267109
  0.5123103197086181  0.6860285033583580  0.4998827653962437
  0.2574382091118324  0.5854752721663843  0.3996782644952361
  0.5149321087934666  0.8406507457065615  0.5581330738137211
  0.4623649580800802  0.7411543745585547  0.6014556805903695
  0.5815707879304455  0.8248293140518825  0.4998532929604664
  0.5148892770614850  0.8406616883327231  0.4415975566414261
  0.4621878323196427  0.7410852531335124  0.3983823033199840
  0.3394039622190164  0.7085111383896390  0.3843173693534823
  0.4181633290099214  0.8591206980221457  0.5351930010462240
  0.4181587462069913  0.8592184178719506  0.4645749947904392
  0.3082263636390223  0.7776867327168517  0.4290545872323506
 
  0.00000000E+00  0.00000000E+00  0.00000000E+00
  0.00000000E+00  0.00000000E+00  0.00000000E+00
  0.00000000E+00  0.00000000E+00  0.00000000E+00
  0.00000000E+00  0.00000000E+00  0.00000000E+00
  0.00000000E+00  0.00000000E+00  0.00000000E+00
  0.00000000E+00  0.00000000E+00  0.00000000E+00
  0.00000000E+00  0.00000000E+00  0.00000000E+00
  0.00000000E+00  0.00000000E+00  0.00000000E+00
  0.00000000E+00  0.00000000E+00  0.00000000E+00
  0.00000000E+00  0.00000000E+00  0.00000000E+00
  0.00000000E+00  0.00000000E+00  0.00000000E+00
  0.00000000E+00  0.00000000E+00  0.00000000E+00
  0.00000000E+00  0.00000000E+00  0.00000000E+00
  0.00000000E+00  0.00000000E+00  0.00000000E+00
  0.00000000E+00  0.00000000E+00  0.00000000E+00
  0.00000000E+00  0.00000000E+00  0.00000000E+00
  0.00000000E+00  0.00000000E+00  0.00000000E+00
  0.00000000E+00  0.00000000E+00  0.00000000E+00
  0.00000000E+00  0.00000000E+00  0.00000000E+00
  0.00000000E+00  0.00000000E+00  0.00000000E+00
  0.00000000E+00  0.00000000E+00  0.00000000E+00
  0.00000000E+00  0.00000000E+00  0.00000000E+00
  0.00000000E+00  0.00000000E+00  0.00000000E+00
  0.00000000E+00  0.00000000E+00  0.00000000E+00
  0.00000000E+00  0.00000000E+00  0.00000000E+00
  0.00000000E+00  0.00000000E+00  0.00000000E+00
  0.00000000E+00  0.00000000E+00  0.00000000E+00
  0.00000000E+00  0.00000000E+00  0.00000000E+00
  0.00000000E+00  0.00000000E+00  0.00000000E+00
  0.00000000E+00  0.00000000E+00  0.00000000E+00
  0.00000000E+00  0.00000000E+00  0.00000000E+00
  0.00000000E+00  0.00000000E+00  0.00000000E+00
  0.00000000E+00  0.00000000E+00  0.00000000E+00
  0.00000000E+00  0.00000000E+00  0.00000000E+00
  0.00000000E+00  0.00000000E+00  0.00000000E+00
  0.00000000E+00  0.00000000E+00  0.00000000E+00
  0.00000000E+00  0.00000000E+00  0.00000000E+00
  0.00000000E+00  0.00000000E+00  0.00000000E+00
  0.00000000E+00  0.00000000E+00  0.00000000E+00
  0.00000000E+00  0.00000000E+00  0.00000000E+00
  0.00000000E+00  0.00000000E+00  0.00000000E+00
  0.00000000E+00  0.00000000E+00  0.00000000E+00
  0.00000000E+00  0.00000000E+00  0.00000000E+00
  0.00000000E+00  0.00000000E+00  0.00000000E+00
  0.00000000E+00  0.00000000E+00  0.00000000E+00
  0.00000000E+00  0.00000000E+00  0.00000000E+00
  0.00000000E+00  0.00000000E+00  0.00000000E+00
  0.00000000E+00  0.00000000E+00  0.00000000E+00
  0.00000000E+00  0.00000000E+00  0.00000000E+00
  0.00000000E+00  0.00000000E+00  0.00000000E+00
  0.00000000E+00  0.00000000E+00  0.00000000E+00
  0.00000000E+00  0.00000000E+00  0.00000000E+00
  0.00000000E+00  0.00000000E+00  0.00000000E+00
  0.00000000E+00  0.00000000E+00  0.00000000E+00
  0.00000000E+00  0.00000000E+00  0.00000000E+00
  0.00000000E+00  0.00000000E+00  0.00000000E+00
  0.00000000E+00  0.00000000E+00  0.00000000E+00
  0.00000000E+00  0.00000000E+00  0.00000000E+00
  0.00000000E+00  0.00000000E+00  0.00000000E+00
  0.00000000E+00  0.00000000E+00  0.00000000E+00
  0.00000000E+00  0.00000000E+00  0.00000000E+00
  0.00000000E+00  0.00000000E+00  0.00000000E+00
  0.00000000E+00  0.00000000E+00  0.00000000E+00
  0.00000000E+00  0.00000000E+00  0.00000000E+00
  0.00000000E+00  0.00000000E+00  0.00000000E+00
  0.00000000E+00  0.00000000E+00  0.00000000E+00
  0.00000000E+00  0.00000000E+00  0.00000000E+00
  0.00000000E+00  0.00000000E+00  0.00000000E+00
  0.00000000E+00  0.00000000E+00  0.00000000E+00
  0.00000000E+00  0.00000000E+00  0.00000000E+00
  0.00000000E+00  0.00000000E+00  0.00000000E+00
  0.00000000E+00  0.00000000E+00  0.00000000E+00
  0.00000000E+00  0.00000000E+00  0.00000000E+00
  0.00000000E+00  0.00000000E+00  0.00000000E+00
  0.00000000E+00  0.00000000E+00  0.00000000E+00
  0.00000000E+00  0.00000000E+00  0.00000000E+00
  0.00000000E+00  0.00000000E+00  0.00000000E+00
  0.00000000E+00  0.00000000E+00  0.00000000E+00
  0.00000000E+00  0.00000000E+00  0.00000000E+00
  0.00000000E+00  0.00000000E+00  0.00000000E+00
  0.00000000E+00  0.00000000E+00  0.00000000E+00
  0.00000000E+00  0.00000000E+00  0.00000000E+00
  0.00000000E+00  0.00000000E+00  0.00000000E+00
  0.00000000E+00  0.00000000E+00  0.00000000E+00
  0.00000000E+00  0.00000000E+00  0.00000000E+00
  0.00000000E+00  0.00000000E+00  0.00000000E+00
  0.00000000E+00  0.00000000E+00  0.00000000E+00
  0.00000000E+00  0.00000000E+00  0.00000000E+00
  0.00000000E+00  0.00000000E+00  0.00000000E+00
  0.00000000E+00  0.00000000E+00  0.00000000E+00
  0.00000000E+00  0.00000000E+00  0.00000000E+00
  0.00000000E+00  0.00000000E+00  0.00000000E+00
  0.00000000E+00  0.00000000E+00  0.00000000E+00
  0.00000000E+00  0.00000000E+00  0.00000000E+00
  0.00000000E+00  0.00000000E+00  0.00000000E+00
  0.00000000E+00  0.00000000E+00  0.00000000E+00
