Generated by VASPKIT code               
   1.00000000000000     
    12.5052727117343618    0.0116962391010106    0.0000000000000000
    -6.2339796277740671   11.5928540415998622    0.0000000000000000
     0.0000000000000013    0.0000000000000024   20.2235623057184917
  C             
   108
Direct
  0.6363130861511976  0.1525699141411749  0.4019548204182470
  0.6750693957118159  0.1066913598613084  0.4609729298609224
  0.7880483082374070  0.2166638808902661  0.4795729351812525
  0.7295691360412917  0.2695711608650626  0.3829609089088208
  0.8222638721378175  0.3062325339747503  0.4317127398973071
  0.6764900895607724  0.3425797663489618  0.3679547693396685
  0.5315451814036010  0.1607904784207932  0.4034840607806061
  0.5514175765788565  0.2737430504744651  0.3852595383085244
  0.4385704418795555  0.1130029530250098  0.4538462303471604
  0.5918247507996668  0.0759430376009007  0.5250668926074553
  0.4716575662167628  0.0774581672610992  0.5214148009069248
  0.7879868044752598  0.2430093363166321  0.5471653317412049
  0.6712988294435789  0.1670443558187031  0.5732408023082769
  0.8495725918590438  0.3611363904777036  0.5687368510105841
  0.8774547892375395  0.4242958379931991  0.4532956530272543
  0.9036545539271827  0.4502608201123266  0.5207600901501408
  0.7285384690837589  0.4579109294098629  0.3920997467172285
  0.8360276696117310  0.5003349439091025  0.4275632336020934
  0.6567275019417167  0.4988240145107810  0.4293057915634790
  0.4922100216357634  0.3079996973436394  0.4310351726474835
  0.4057137823261741  0.2103379868916164  0.4749404253748679
  0.5467779794871603  0.4229184918903783  0.4549583922019806
  0.4935566698214444  0.1688690978353478  0.5710613585249789
  0.6058204206740712  0.2098357962378756  0.6083488173309988
  0.4584486705500908  0.2443186693259278  0.5455673584662577
  0.7935946292796672  0.3983225013853016  0.6173853647184373
  0.6679650682543894  0.3253620814649025  0.6323365810972916
  0.9018638910087802  0.5607942624319833  0.5392346456097812
  0.8478894538127619  0.5920442480852657  0.4753933275179065
  0.7249635556151617  0.5913609931552344  0.4785524880954100
  0.8169740451802312  0.5155163589418663  0.5983070205943832
  0.5271748620480139  0.4566876415662051  0.5255785913044164
  0.5173012038310105  0.3593020210248383  0.5694387256122866
  0.6112829775660913  0.3939988045670901  0.6148660767654874
  0.6567978166897959  0.5546199145898498  0.5463860915302448
  0.7036612246268774  0.5070325084096581  0.5963470690807569
  0.1782131026029106  0.8393984204633824  0.5811177994880623
  0.2343115902622017  0.4719926868614266  0.5876696119803455
  0.5931759732031807  0.7518982467288069  0.6423710306589925
  0.0496931788757777  0.7818850744429469  0.5709663177427586
  0.2397267782510113  0.3739322497922188  0.6118702243097047
  0.7216300076403854  0.8258092480206898  0.6411941864566373
  0.2329919034600394  0.7789764058242241  0.5524974332785177
  0.3407412864768915  0.5423525287659032  0.5405563130318782
  0.5334650921220359  0.8215307834234409  0.6271236428782956
  0.0198013761190268  0.6780883583833344  0.5270155979500402
  0.3193223812854171  0.3565510869350064  0.5690243014208107
  0.7401173414200954  0.9387962983126386  0.6123477608459638
  0.1458428969020957  0.6916496967861860  0.5107983955592914
  0.3981589053405870  0.4547205251025304  0.5241467807034113
  0.6268276814280327  0.9329577338684913  0.6034647549101635
  0.3482516635657760  0.8548252990702565  0.5165421724487160
  0.2659061701839320  0.5302085705600987  0.4776458231265153
  0.4514969306646748  0.7683823147277664  0.5778885397309992
  0.3375953423870897  0.8003932659651198  0.4478102643254260
  0.2978870004098013  0.4834607947552527  0.4236172352656453
  0.4660898517395822  0.8536661091590645  0.5271479537280186
  0.1994611928827794  0.7066795204524681  0.4475256217494348
  0.3550009504188978  0.4238669509835304  0.4532253322555491
  0.5869730763270766  0.9611461153329230  0.5381745563052505
  0.3467667234384422  0.9685283229625412  0.5135991937493287
  0.1375105541433825  0.4523448495222198  0.4857576401523218
  0.4516150117586690  0.6593839465629969  0.5515661181361509
  0.2341498704862843  0.9517462922606867  0.5485373363439265
  0.1183672653653574  0.4167300257588593  0.5520448245424490
  0.5593319000774457  0.6694433422414718  0.5929515185005769
  0.1394049456992050  0.9611290853580527  0.5181332939483951
  0.0545192741382508  0.2922157620163830  0.5660965612997302
  0.6702546049611868  0.6718905927955063  0.5634847705327104
  0.3373344247304217  0.9939919301137792  0.4367216664853615
  0.0953735126434125  0.3703096059722810  0.4305160500982552
  0.5007027910835191  0.7048276400310058  0.4816114566119083
  0.2278740488274167  0.9954140363808577  0.4083833884582404
  0.0365070600352766  0.2457558592044222  0.4445982079660737
  0.6067871705122485  0.7185505815525417  0.4537218576588558
  0.1305831197094918  0.0064656525693962  0.4494287700118775
  0.0175705638032113  0.2097632046769817  0.5109135914181877
  0.7044698680356589  0.6999883563311684  0.4865787880230954
  0.3403313674138957  0.8908607829749542  0.4010420617010197
  0.1936902771941433  0.3978616821103742  0.3863733656949648
  0.4706046360373080  0.8006281942420870  0.4595378131578443
  0.9449515922184801  0.8155067135955960  0.4755372898223555
  0.1470283892183630  0.1815267462021026  0.5752171611669752
  0.8347732049337608  0.8616924919735780  0.5511687377000456
  0.0271753281480827  0.8605104486933044  0.5350706260401026
  0.1249694615709060  0.2663803746550428  0.6113851577573399
  0.7739088079608649  0.7765169492792054  0.5992179263501924
  0.0172561501577064  0.9005782961151994  0.4235520897772105
  0.0710668059433814  0.1343935808742955  0.5204599592982007
  0.8225174401034963  0.8152251839862998  0.4833969254202160
  0.0510982018284167  0.8458527494514172  0.3765606267314112
  0.1370807838527242  0.1234685327357212  0.4589186780396730
  0.7858363776202353  0.8925610910294282  0.4440909811582898
  0.1788811526622212  0.9142112618289957  0.3594595332847703
  0.1008055175554219  0.1924074376446612  0.4105661827325591
  0.6614687441060596  0.8310022136281106  0.4199088712968901
  0.2360123554196178  0.8407097405543595  0.3634364811993933
  0.2033567272147678  0.2912248999646323  0.3867781212681791
  0.5899746147947624  0.8854967067582322  0.4256739979786488
  0.9587245020586721  0.7047847437715049  0.4620944661254711
  0.2645400294070370  0.2425698323529062  0.5469456703714570
  0.8155913888282029  0.9600797685646043  0.5540097774421326
  0.0320063692052557  0.7343477834970784  0.3989670951152533
  0.2792382484690279  0.2120685580198511  0.4762376902358412
  0.7798798038066153  0.9726311657519418  0.4875908918794991
  0.1422617111207956  0.7295538219176976  0.3915595275346320
  0.2985861436972570  0.3099853379725559  0.4311241309592830
  0.6685645973283059  0.9863195322662719  0.4715909433075183
 
  0.00000000E+00  0.00000000E+00  0.00000000E+00
  0.00000000E+00  0.00000000E+00  0.00000000E+00
  0.00000000E+00  0.00000000E+00  0.00000000E+00
  0.00000000E+00  0.00000000E+00  0.00000000E+00
  0.00000000E+00  0.00000000E+00  0.00000000E+00
  0.00000000E+00  0.00000000E+00  0.00000000E+00
  0.00000000E+00  0.00000000E+00  0.00000000E+00
  0.00000000E+00  0.00000000E+00  0.00000000E+00
  0.00000000E+00  0.00000000E+00  0.00000000E+00
  0.00000000E+00  0.00000000E+00  0.00000000E+00
  0.00000000E+00  0.00000000E+00  0.00000000E+00
  0.00000000E+00  0.00000000E+00  0.00000000E+00
  0.00000000E+00  0.00000000E+00  0.00000000E+00
  0.00000000E+00  0.00000000E+00  0.00000000E+00
  0.00000000E+00  0.00000000E+00  0.00000000E+00
  0.00000000E+00  0.00000000E+00  0.00000000E+00
  0.00000000E+00  0.00000000E+00  0.00000000E+00
  0.00000000E+00  0.00000000E+00  0.00000000E+00
  0.00000000E+00  0.00000000E+00  0.00000000E+00
  0.00000000E+00  0.00000000E+00  0.00000000E+00
  0.00000000E+00  0.00000000E+00  0.00000000E+00
  0.00000000E+00  0.00000000E+00  0.00000000E+00
  0.00000000E+00  0.00000000E+00  0.00000000E+00
  0.00000000E+00  0.00000000E+00  0.00000000E+00
  0.00000000E+00  0.00000000E+00  0.00000000E+00
  0.00000000E+00  0.00000000E+00  0.00000000E+00
  0.00000000E+00  0.00000000E+00  0.00000000E+00
  0.00000000E+00  0.00000000E+00  0.00000000E+00
  0.00000000E+00  0.00000000E+00  0.00000000E+00
  0.00000000E+00  0.00000000E+00  0.00000000E+00
  0.00000000E+00  0.00000000E+00  0.00000000E+00
  0.00000000E+00  0.00000000E+00  0.00000000E+00
  0.00000000E+00  0.00000000E+00  0.00000000E+00
  0.00000000E+00  0.00000000E+00  0.00000000E+00
  0.00000000E+00  0.00000000E+00  0.00000000E+00
  0.00000000E+00  0.00000000E+00  0.00000000E+00
  0.00000000E+00  0.00000000E+00  0.00000000E+00
  0.00000000E+00  0.00000000E+00  0.00000000E+00
  0.00000000E+00  0.00000000E+00  0.00000000E+00
  0.00000000E+00  0.00000000E+00  0.00000000E+00
  0.00000000E+00  0.00000000E+00  0.00000000E+00
  0.00000000E+00  0.00000000E+00  0.00000000E+00
  0.00000000E+00  0.00000000E+00  0.00000000E+00
  0.00000000E+00  0.00000000E+00  0.00000000E+00
  0.00000000E+00  0.00000000E+00  0.00000000E+00
  0.00000000E+00  0.00000000E+00  0.00000000E+00
  0.00000000E+00  0.00000000E+00  0.00000000E+00
  0.00000000E+00  0.00000000E+00  0.00000000E+00
  0.00000000E+00  0.00000000E+00  0.00000000E+00
  0.00000000E+00  0.00000000E+00  0.00000000E+00
  0.00000000E+00  0.00000000E+00  0.00000000E+00
  0.00000000E+00  0.00000000E+00  0.00000000E+00
  0.00000000E+00  0.00000000E+00  0.00000000E+00
  0.00000000E+00  0.00000000E+00  0.00000000E+00
  0.00000000E+00  0.00000000E+00  0.00000000E+00
  0.00000000E+00  0.00000000E+00  0.00000000E+00
  0.00000000E+00  0.00000000E+00  0.00000000E+00
  0.00000000E+00  0.00000000E+00  0.00000000E+00
  0.00000000E+00  0.00000000E+00  0.00000000E+00
  0.00000000E+00  0.00000000E+00  0.00000000E+00
  0.00000000E+00  0.00000000E+00  0.00000000E+00
  0.00000000E+00  0.00000000E+00  0.00000000E+00
  0.00000000E+00  0.00000000E+00  0.00000000E+00
  0.00000000E+00  0.00000000E+00  0.00000000E+00
  0.00000000E+00  0.00000000E+00  0.00000000E+00
  0.00000000E+00  0.00000000E+00  0.00000000E+00
  0.00000000E+00  0.00000000E+00  0.00000000E+00
  0.00000000E+00  0.00000000E+00  0.00000000E+00
  0.00000000E+00  0.00000000E+00  0.00000000E+00
  0.00000000E+00  0.00000000E+00  0.00000000E+00
  0.00000000E+00  0.00000000E+00  0.00000000E+00
  0.00000000E+00  0.00000000E+00  0.00000000E+00
  0.00000000E+00  0.00000000E+00  0.00000000E+00
  0.00000000E+00  0.00000000E+00  0.00000000E+00
  0.00000000E+00  0.00000000E+00  0.00000000E+00
  0.00000000E+00  0.00000000E+00  0.00000000E+00
  0.00000000E+00  0.00000000E+00  0.00000000E+00
  0.00000000E+00  0.00000000E+00  0.00000000E+00
  0.00000000E+00  0.00000000E+00  0.00000000E+00
  0.00000000E+00  0.00000000E+00  0.00000000E+00
  0.00000000E+00  0.00000000E+00  0.00000000E+00
  0.00000000E+00  0.00000000E+00  0.00000000E+00
  0.00000000E+00  0.00000000E+00  0.00000000E+00
  0.00000000E+00  0.00000000E+00  0.00000000E+00
  0.00000000E+00  0.00000000E+00  0.00000000E+00
  0.00000000E+00  0.00000000E+00  0.00000000E+00
  0.00000000E+00  0.00000000E+00  0.00000000E+00
  0.00000000E+00  0.00000000E+00  0.00000000E+00
  0.00000000E+00  0.00000000E+00  0.00000000E+00
  0.00000000E+00  0.00000000E+00  0.00000000E+00
  0.00000000E+00  0.00000000E+00  0.00000000E+00
  0.00000000E+00  0.00000000E+00  0.00000000E+00
  0.00000000E+00  0.00000000E+00  0.00000000E+00
  0.00000000E+00  0.00000000E+00  0.00000000E+00
  0.00000000E+00  0.00000000E+00  0.00000000E+00
  0.00000000E+00  0.00000000E+00  0.00000000E+00
  0.00000000E+00  0.00000000E+00  0.00000000E+00
  0.00000000E+00  0.00000000E+00  0.00000000E+00
  0.00000000E+00  0.00000000E+00  0.00000000E+00
  0.00000000E+00  0.00000000E+00  0.00000000E+00
  0.00000000E+00  0.00000000E+00  0.00000000E+00
  0.00000000E+00  0.00000000E+00  0.00000000E+00
  0.00000000E+00  0.00000000E+00  0.00000000E+00
  0.00000000E+00  0.00000000E+00  0.00000000E+00
  0.00000000E+00  0.00000000E+00  0.00000000E+00
  0.00000000E+00  0.00000000E+00  0.00000000E+00
  0.00000000E+00  0.00000000E+00  0.00000000E+00
  0.00000000E+00  0.00000000E+00  0.00000000E+00
