Generated by VASPKIT code               
   1.00000000000000     
    11.3789754008666115    0.1880625141331930    0.0000000000000000
    -5.5283557983700433    9.6119900600358115    0.0000000000000000
     0.0000000000000013    0.0000000000000022   20.2289767774156175
  C             
    84
Direct
  0.0235599571160847  0.1522966647435524  0.3806194017477011
  0.1219135918495837  0.1096091547171554  0.3670823927356679
  0.2416151397092108  0.1765447289447764  0.4239931247933413
  0.0620077194233417  0.2431989367789384  0.4342157729810694
  0.1899802238361517  0.2620368089742584  0.4644113214659669
  0.9501953836704402  0.2293072963756018  0.4764755547634891
  0.8794961783263275  0.0598641190559022  0.3850435192376978
  0.8241964546760272  0.0982987753442686  0.4445686391112034
  0.8249885035232438  0.9177331006205662  0.3822143138290031
  0.0618266828636607  0.9641679889571435  0.3682668958742994
  0.9208173590097743  0.8708220916492948  0.3757742739877017
  0.2080557553581102  0.0391517851033214  0.4542008432281008
  0.1266747707797506  0.9248928511933912  0.4196419680641057
  0.2616436274338980  0.0444414959586226  0.5210863749071919
  0.1718504852330156  0.2092131756287330  0.5315142081899182
  0.2218849326584404  0.1341733386234694  0.5592921307129899
  0.9705413715920486  0.2085720304702505  0.5482260962733889
  0.1080842855397250  0.2670871564111224  0.5756671541314020
  0.8833562138913891  0.0962738537858030  0.5842632539468582
  0.7680395541420069  0.9714083929319202  0.4844856973869440
  0.7262564654716215  0.8444988428858764  0.4416909546755221
  0.7884770798883736  0.9717696928530586  0.5519427689060095
  0.9024605221859403  0.7820449268527625  0.4322800063535652
  0.0289640435760390  0.8082862728843807  0.4584910594709442
  0.7962528645154876  0.7687259884642970  0.4736777048524417
  0.1827601584668272  0.8996317332971131  0.5624906750338070
  0.0479431796476959  0.8067578094609331  0.5269029893224229
  0.1682555799491894  0.0916339965856992  0.6242729322264537
  0.0883243302082377  0.1601031880976649  0.6366162184558206
  0.9507280983654383  0.0651205412986613  0.6377756698611208
  0.1258375948466579  0.9472517645123730  0.6244667087701288
  0.7932108140005312  0.8605886979260191  0.5858778764262738
  0.8201375784732932  0.7742390251604903  0.5429672085506070
  0.9393781224147375  0.7780688626935941  0.5683492774575356
  0.8961553231460542  0.9182106822218046  0.6374582480908870
  0.9850708705933826  0.8632950344385648  0.6281562897646893
  0.4244036243542695  0.7535352863070557  0.6136433922873792
  0.8247128266983239  0.4270815609361733  0.5649681676556284
  0.4098359977129746  0.8624260982294061  0.5823981729025220
  0.7030160048430218  0.3977375364513733  0.6002431873276350
  0.2996814937754593  0.6344190064451851  0.6172042306376397
  0.8215428975973254  0.3049667125692963  0.5474617919790035
  0.2625901040343805  0.8139028521008314  0.5582254402679325
  0.6073002337768401  0.2511411872115232  0.5924808753315460
  0.2025312472692349  0.6528611378836970  0.5785496892757180
  0.6802631378339896  0.1984332960640813  0.5555310600319885
  0.3121618927390557  0.5161926147441491  0.5920050202722038
  0.8628360904233645  0.3064398877167420  0.4767476206620032
  0.1958757747519897  0.4266651154970091  0.5510676925298696
  0.7453548071519052  0.1777328969442209  0.4460564407463892
  0.1504830231626784  0.5405481876010825  0.5336311821886781
  0.6338419788997030  0.1313214870828361  0.4960005991127687
  0.4326337380183247  0.5658380022343650  0.5587781857834031
  0.8459368435593291  0.4263489181834714  0.4485364810711303
  0.5066665763553502  0.7131530240120156  0.5717309116716507
  0.8311020745364814  0.5004815848729649  0.5015861812866476
  0.5406619745428642  0.7988275533884206  0.5166803043192800
  0.7156229376465291  0.5206098540940829  0.5036036846401259
  0.4187930384520797  0.4999258138198570  0.4888811989630995
  0.7461116143726159  0.3741489750148546  0.3963863410403690
  0.4651928302113433  0.6157969317743124  0.4362093403104623
  0.6315823144865433  0.3994083878182906  0.3980799715579906
  0.5644287644532255  0.7733360247995194  0.4453999814716951
  0.6174005077224933  0.4695317139263366  0.4513798859081888
  0.2614327184584084  0.4171295794374927  0.4819756173519849
  0.6876862531218109  0.2280947604844386  0.3944159604463593
  0.4392987448944154  0.9234539633051071  0.4651090819316792
  0.5094073292108590  0.3692528797671955  0.5473169540153222
  0.4902513688068026  0.8924261734649193  0.5261402672966682
  0.6447133219016337  0.4667782732564163  0.5652599461601326
  0.4776818441507586  0.8420838600328011  0.4144514438114797
  0.4748685722264909  0.4000008017902275  0.4808145724524167
  0.3562594078965233  0.7317567857516138  0.3981178790481081
  0.4020575285735148  0.2527584031779000  0.4438001445285664
  0.3533702889265484  0.6001736758657046  0.4028387873819597
  0.5075948013500380  0.2664277277896900  0.3962810270887189
  0.2313919080000275  0.5014523608873418  0.4349969516700725
  0.5438257398167679  0.1647040160224620  0.3998536450231001
  0.2924294770400309  0.8230553454420644  0.4830628226233316
  0.4918480255462541  0.2387457243458897  0.5574423436429683
  0.2422197519734226  0.7148261996422747  0.4404029878714226
  0.4132886237698656  0.1418025861402796  0.5020932621611820
  0.1703689316335968  0.5720528655506243  0.4641307194817088
  0.4965001969387828  0.0808915642210337  0.4638218872074447
 
  0.00000000E+00  0.00000000E+00  0.00000000E+00
  0.00000000E+00  0.00000000E+00  0.00000000E+00
  0.00000000E+00  0.00000000E+00  0.00000000E+00
  0.00000000E+00  0.00000000E+00  0.00000000E+00
  0.00000000E+00  0.00000000E+00  0.00000000E+00
  0.00000000E+00  0.00000000E+00  0.00000000E+00
  0.00000000E+00  0.00000000E+00  0.00000000E+00
  0.00000000E+00  0.00000000E+00  0.00000000E+00
  0.00000000E+00  0.00000000E+00  0.00000000E+00
  0.00000000E+00  0.00000000E+00  0.00000000E+00
  0.00000000E+00  0.00000000E+00  0.00000000E+00
  0.00000000E+00  0.00000000E+00  0.00000000E+00
  0.00000000E+00  0.00000000E+00  0.00000000E+00
  0.00000000E+00  0.00000000E+00  0.00000000E+00
  0.00000000E+00  0.00000000E+00  0.00000000E+00
  0.00000000E+00  0.00000000E+00  0.00000000E+00
  0.00000000E+00  0.00000000E+00  0.00000000E+00
  0.00000000E+00  0.00000000E+00  0.00000000E+00
  0.00000000E+00  0.00000000E+00  0.00000000E+00
  0.00000000E+00  0.00000000E+00  0.00000000E+00
  0.00000000E+00  0.00000000E+00  0.00000000E+00
  0.00000000E+00  0.00000000E+00  0.00000000E+00
  0.00000000E+00  0.00000000E+00  0.00000000E+00
  0.00000000E+00  0.00000000E+00  0.00000000E+00
  0.00000000E+00  0.00000000E+00  0.00000000E+00
  0.00000000E+00  0.00000000E+00  0.00000000E+00
  0.00000000E+00  0.00000000E+00  0.00000000E+00
  0.00000000E+00  0.00000000E+00  0.00000000E+00
  0.00000000E+00  0.00000000E+00  0.00000000E+00
  0.00000000E+00  0.00000000E+00  0.00000000E+00
  0.00000000E+00  0.00000000E+00  0.00000000E+00
  0.00000000E+00  0.00000000E+00  0.00000000E+00
  0.00000000E+00  0.00000000E+00  0.00000000E+00
  0.00000000E+00  0.00000000E+00  0.00000000E+00
  0.00000000E+00  0.00000000E+00  0.00000000E+00
  0.00000000E+00  0.00000000E+00  0.00000000E+00
  0.00000000E+00  0.00000000E+00  0.00000000E+00
  0.00000000E+00  0.00000000E+00  0.00000000E+00
  0.00000000E+00  0.00000000E+00  0.00000000E+00
  0.00000000E+00  0.00000000E+00  0.00000000E+00
  0.00000000E+00  0.00000000E+00  0.00000000E+00
  0.00000000E+00  0.00000000E+00  0.00000000E+00
  0.00000000E+00  0.00000000E+00  0.00000000E+00
  0.00000000E+00  0.00000000E+00  0.00000000E+00
  0.00000000E+00  0.00000000E+00  0.00000000E+00
  0.00000000E+00  0.00000000E+00  0.00000000E+00
  0.00000000E+00  0.00000000E+00  0.00000000E+00
  0.00000000E+00  0.00000000E+00  0.00000000E+00
  0.00000000E+00  0.00000000E+00  0.00000000E+00
  0.00000000E+00  0.00000000E+00  0.00000000E+00
  0.00000000E+00  0.00000000E+00  0.00000000E+00
  0.00000000E+00  0.00000000E+00  0.00000000E+00
  0.00000000E+00  0.00000000E+00  0.00000000E+00
  0.00000000E+00  0.00000000E+00  0.00000000E+00
  0.00000000E+00  0.00000000E+00  0.00000000E+00
  0.00000000E+00  0.00000000E+00  0.00000000E+00
  0.00000000E+00  0.00000000E+00  0.00000000E+00
  0.00000000E+00  0.00000000E+00  0.00000000E+00
  0.00000000E+00  0.00000000E+00  0.00000000E+00
  0.00000000E+00  0.00000000E+00  0.00000000E+00
  0.00000000E+00  0.00000000E+00  0.00000000E+00
  0.00000000E+00  0.00000000E+00  0.00000000E+00
  0.00000000E+00  0.00000000E+00  0.00000000E+00
  0.00000000E+00  0.00000000E+00  0.00000000E+00
  0.00000000E+00  0.00000000E+00  0.00000000E+00
  0.00000000E+00  0.00000000E+00  0.00000000E+00
  0.00000000E+00  0.00000000E+00  0.00000000E+00
  0.00000000E+00  0.00000000E+00  0.00000000E+00
  0.00000000E+00  0.00000000E+00  0.00000000E+00
  0.00000000E+00  0.00000000E+00  0.00000000E+00
  0.00000000E+00  0.00000000E+00  0.00000000E+00
  0.00000000E+00  0.00000000E+00  0.00000000E+00
  0.00000000E+00  0.00000000E+00  0.00000000E+00
  0.00000000E+00  0.00000000E+00  0.00000000E+00
  0.00000000E+00  0.00000000E+00  0.00000000E+00
  0.00000000E+00  0.00000000E+00  0.00000000E+00
  0.00000000E+00  0.00000000E+00  0.00000000E+00
  0.00000000E+00  0.00000000E+00  0.00000000E+00
  0.00000000E+00  0.00000000E+00  0.00000000E+00
  0.00000000E+00  0.00000000E+00  0.00000000E+00
  0.00000000E+00  0.00000000E+00  0.00000000E+00
  0.00000000E+00  0.00000000E+00  0.00000000E+00
  0.00000000E+00  0.00000000E+00  0.00000000E+00
  0.00000000E+00  0.00000000E+00  0.00000000E+00
