Generated by VASPKIT code               
   1.00000000000000     
    20.5897263877430419    0.3924046664510838    0.0000000000000000
    -9.9665526585540860   17.0472717622021470    0.0000000000000000
     0.0000000000000013    0.0000000000000021   20.2256379912126327
  C             
   240
Direct
  0.5742030413038037  0.4032861465929898  0.5441495436111836
  0.4717304129153490  0.7661752466204916  0.5623209565404750
  0.5615545748536093  0.3577904064712101  0.6007980551538452
  0.4763418125715546  0.8376193637626201  0.5342568039799644
  0.6337413531798859  0.3855393555115114  0.6346163052830107
  0.3976698777142715  0.8305906181643294  0.5595103221766919
  0.6551156142676362  0.4706490721195138  0.5430409422999602
  0.4105321302085443  0.7262846415253819  0.6081010140439744
  0.6905644512552200  0.4495161098933380  0.6004425072061395
  0.3640811845900629  0.7583347454266161  0.6043147570396883
  0.6829784446843732  0.4533773245961328  0.4784842698879643
  0.3829638928288190  0.6431856159582310  0.6061420454929731
  0.5550792036409860  0.3662072162212198  0.4822647802312972
  0.4786273824283924  0.7099039054990115  0.5280514060160542
  0.6226787142495880  0.3982774439308727  0.4412756102815365
  0.4237617697086691  0.6331109701644664  0.5541220441595414
  0.5208621976862773  0.2844791322096754  0.4770980066718522
  0.4735929477609417  0.7041058877765565  0.4572090141830074
  0.5274948878250427  0.2757526612698982  0.5957592833588095
  0.4649746241870503  0.8268306599437025  0.4453445486504251
  0.5058353484903861  0.2386840195783861  0.5341188451159695
  0.4620648225262016  0.7554188283448653  0.4200321446416666
  0.6414721991527941  0.3198551410185857  0.6537002897032167
  0.3512945827418790  0.8128102884976229  0.4960106984454313
  0.5782368583431179  0.2523527113535877  0.6267258724744096
  0.3892358271472531  0.8156697761098712  0.4292711388003099
  0.7128880391116184  0.3262388552363831  0.6479310163267655
  0.2722378729934078  0.7536425467139836  0.4996604202262134
  0.7625559233975281  0.4567331536736816  0.5948108261027798
  0.2855404303239055  0.7072143393851604  0.6072646566398916
  0.7735583864524642  0.3978483418070198  0.6234982249885803
  0.2381932012386656  0.7131175538356374  0.5587763251253364
  0.7545807103281632  0.4625755284274362  0.4720283255264803
  0.3042336693897454  0.5931403203092174  0.6094659603232842
  0.8103547978288361  0.4863397789414847  0.5305331956660950
  0.2569173671945535  0.6265926033303444  0.6209341601762048
  0.7633419990621348  0.4120078157826867  0.4287974061520785
  0.2680728143334221  0.5283637290532965  0.5660167925100481
  0.6279041574342017  0.3377746128515824  0.4072646597386935
  0.3873573171770985  0.5836404112160167  0.4997833057823158
  0.5672261496786817  0.2667364790275499  0.4323238755113081
  0.4153095990884808  0.6252325335408671  0.4402608687994558
  0.6999710144517906  0.3450409483510910  0.4012372158325945
  0.3089050522661552  0.5173739710467089  0.5049111306354845
  0.5326288783897795  0.1779422096764307  0.5254217801399008
  0.3968813811995844  0.7127583188908559  0.3797785228723853
  0.5863517896453061  0.1995196876491079  0.5851883924951053
  0.3507416889557007  0.7462731822490127  0.3848109413903629
  0.5802846103804455  0.2102878849676202  0.4623413775867178
  0.3693230795483657  0.6305900243205969  0.3885158277164749
  0.7178237623716299  0.2643590024303819  0.6153340738587758
  0.2357911095945369  0.7070793517805072  0.4448387745692202
  0.6576424618666579  0.2063264464208459  0.5793777270100620
  0.2728707422511647  0.6945089054068845  0.3909938775357915
  0.8194059724178118  0.3793398623750548  0.5791460091682410
  0.1641048232538580  0.6375001214584515  0.5489733464749520
  0.8347564247172485  0.4244977969806030  0.5220984728554967
  0.1841871455999780  0.5809030670863393  0.5869215466852822
  0.8140019174272126  0.3885564170652174  0.4599573200406866
  0.1999019425322501  0.5296615944412224  0.5420676468541146
  0.7853492023330944  0.2974548928432768  0.5742057969149599
  0.1653298134146652  0.6354609106183844  0.4622897508075638
  0.7082226911445417  0.2802577283486727  0.4210383365906907
  0.2654995904148123  0.5294863862332377  0.4482005909109148
  0.6518052135487977  0.2190255646429833  0.4571822663931542
  0.2916957213096580  0.5826504319434562  0.3916798931560663
  0.6863660834132475  0.1945715968734305  0.5127434199467658
  0.2409998590102091  0.6120174689839644  0.3806542858023292
  0.7798491809185606  0.3069331432918645  0.4552235164708307
  0.2102961426031769  0.5397069499343417  0.4742582667595698
  0.7665471046985033  0.2615905293755603  0.5123262860761386
  0.1744095644087835  0.5708505867015532  0.4311216060050853
  0.9777418763405237  0.9326971237315860  0.5790712565969898
  0.9848091751139521  0.6488777838229893  0.6017578478966428
  0.6752232466511501  0.0149481170325174  0.5694577577299285
  0.3138101653376424  0.3084384379716383  0.6235215291400067
  0.7124682244492249  0.7362800350259775  0.6068415400994667
  0.0616940195889981  0.3615566414706777  0.6342656968741949
  0.3334140302040396  0.9659637800603065  0.6345585534007512
  0.9326658286801575  0.8712161015164526  0.5391344256580766
  0.9485152896379603  0.6922464039750338  0.5775825582281087
  0.7485461403197178  0.0537655693761536  0.5393446811926808
  0.2543981483692690  0.2346349331167730  0.6024490012747776
  0.7779018407401708  0.7546062704794565  0.5708593204496495
  0.0296903563406090  0.2838852910570822  0.6101036249077438
  0.2885871138312268  0.9992511136372570  0.6133748240686856
  0.9454906430916168  0.9806785511224874  0.5978080777569375
  0.0614505743804443  0.6934622374357886  0.5992205053228190
  0.6391983175213909  0.9333257324912552  0.5676729005828278
  0.2926625835860648  0.3642402392145812  0.6039783733981707
  0.6748311543155694  0.6541372159578032  0.6144162710932406
  0.0122207490603685  0.3889310377533377  0.6159522718125388
  0.4079841460897455  0.0191706675619656  0.6208265242526423
  0.8680154870172956  0.8867767408189238  0.5156485943941860
  0.0028585439622049  0.7648216069763762  0.5486301784002308
  0.7537622111124165  0.9954648145707807  0.4987893071276588
  0.1976698725982402  0.2424477440223782  0.5647856285629231
  0.7784010826625192  0.6858057575085610  0.5483492281893234
  0.9575125821767045  0.2631626826486482  0.5754979868704240
  0.3385237331449531  0.0710303015473954  0.5760303602265608
  0.8882378603775720  0.9633667248988900  0.5518251673247079
  0.0689200627905251  0.7613524005833483  0.5566344133974752
  0.6868373786459330  0.9249531771157535  0.5142347248129511
  0.2236157346257812  0.3224782815591425  0.5632961281750468
  0.7146649834089018  0.6226031386727939  0.5741990123102880
  0.9473893669835434  0.3297360279773898  0.5822003815201384
  0.4115310447831391  0.0809145292986102  0.5812763587741898
  0.0017998845981637  0.0613622668156850  0.5853853257541388
  0.0896884264010183  0.6448059447514396  0.5589914912992100
  0.5596193007582357  0.9080398524351949  0.5362596043461423
  0.3463905791772390  0.4222945116462071  0.5630219456212586
  0.6056186369342740  0.6231108451853871  0.5811629506035842
  0.0491522873902568  0.4592289127374301  0.5748095677087193
  0.4387270703541830  0.9769424659509554  0.5840872506539654
  0.9721764500672734  0.0979613825012038  0.5446974907957340
  0.1026753117692891  0.6897632918035086  0.4989652631189045
  0.5792623940299535  0.8926064201216377  0.4712570896248565
  0.3114084442226925  0.4402540853445274  0.5039935873791492
  0.5902190051246876  0.5587007666339332  0.5398339773121990
  0.0056854568265976  0.4468475419897118  0.5197374191901929
  0.4670919467551613  0.0147322578597482  0.5247858347170009
  0.9061887830900446  0.0351325642909330  0.5175402624705328
  0.1034054254567707  0.7587131423835984  0.4950675098454553
  0.6421351511793461  0.8901839051922309  0.4559069117872454
  0.2367386332845882  0.3640404584332586  0.5020613852022393
  0.6620511979375294  0.5515498089707620  0.5333812241906699
  0.9418737244904989  0.3674567893298004  0.5237535510580926
  0.4633663770973371  0.0937163094196904  0.5221276021015129
  0.0634799824831447  0.0640145007703552  0.5526994363035840
  0.0138114503943001  0.5767661751101230  0.5311284807321641
  0.5682128407812357  0.9852372450580447  0.5122709419600540
  0.3961161899140535  0.3941721827365541  0.5418279900006056
  0.5999372045966425  0.6841489813934416  0.5439123159281607
  0.1305954684518440  0.4907069073773940  0.5839814389937104
  0.3862136575674953  0.8951099400600668  0.5862919237375763
  0.0502240053787517  0.9846760292884014  0.5481112734613163
  0.9547912342498819  0.5796774271657270  0.5598003121930546
  0.6327452371929212  0.0456651014186562  0.5352130452521848
  0.3775958610830514  0.3236031245344577  0.5789695186701849
  0.6682647002543689  0.7538577631741461  0.5568722927009375
  0.1283562011366115  0.4145423011390719  0.5956901603684486
  0.3166764193489300  0.8954670093153396  0.5967291611990433
  0.0519143658830572  0.9487918114128178  0.4878133031859591
  0.8834194438476857  0.5680529973005406  0.5226149628521455
  0.6813245204252851  0.1168618565901980  0.4939047031362662
  0.3584528798515194  0.2555254948030594  0.5420054279358339
  0.7140905269555020  0.7964725557419428  0.5022975663075115
  0.1239524484769206  0.3676326317139669  0.5371345032267740
  0.2597259507452847  0.8892044100550365  0.5470492275916925
  0.0931913618720941  0.1246947822757036  0.4960895100294920
  0.0189796885828173  0.5602691390885184  0.4562162030000110
  0.5324555159874009  0.9773562865755778  0.4431033495838932
  0.3983382177349668  0.3950351281563727  0.4708949103618068
  0.5794349815330548  0.6552735962839762  0.4777633959674077
  0.1031324371172033  0.4961249534504120  0.4287273924515702
  0.3797656983479669  0.8834033781936910  0.4497179655095778
  0.0783142490233786  0.0758750290581531  0.4327013683039382
  0.9629828140987016  0.5772564879857995  0.4197608020767873
  0.5941047139072495  0.0359481092710041  0.3975661306511640
  0.3820745990185941  0.3252826736166057  0.4336308367822639
  0.6246815888773867  0.6959288680633193  0.4228690841469742
  0.0987618403061461  0.4226776040550320  0.4214726698255333
  0.3193064292517960  0.8978385157251907  0.4297750455095866
  0.0623398248424678  0.9952033824057906  0.4297878095007093
  0.9054402369297776  0.5828227502449010  0.4499501166271358
  0.6596887002398830  0.0969862578714711  0.4205883126349903
  0.3603679610274355  0.2564754853003208  0.4703040369267342
  0.6924123997458835  0.7659388857226972  0.4370375539581204
  0.1152141821623758  0.3709158471625855  0.4639258752967592
  0.2633243916533559  0.8927722335215904  0.4753378077088470
  0.0248981301724172  0.1513971309753046  0.4924443684849820
  0.0957123674191180  0.6414415407227523  0.4417436728812802
  0.5325418783653930  0.8997903349554619  0.4209376209554279
  0.3500279403901345  0.4238543512677566  0.4466814074012717
  0.5718849101148109  0.5769112175670514  0.4773708298757739
  0.0255805736794983  0.4822036070130338  0.4491044174688810
  0.4543832267503163  0.9728149306961242  0.4570718183925919
  0.9470612284687832  0.8869522430549921  0.4251137999865335
  0.8872943751502760  0.6957703912008739  0.4785253689814724
  0.7755350991943075  0.0999917312934144  0.4320921621941594
  0.2386799433200721  0.1700065014772107  0.5032981294262555
  0.8041039532394407  0.7663822233822728  0.4585718213792589
  0.0331314274161869  0.2337116299002702  0.4999516003361251
  0.2352123713787293  0.9920084388565726  0.5093486279521500
  0.9770572927518728  0.8623199111738558  0.4824083299320137
  0.8895813642561308  0.6487623882025417  0.5370137759863525
  0.7536908980716177  0.1114744623355861  0.4957869627280971
  0.2816983433103388  0.1955004256027735  0.5615458973697471
  0.7947645152331404  0.8110781551481097  0.5157023839277883
  0.0743181709953262  0.2863987303837732  0.5567481033690456
  0.2389328142172360  0.9495629438332287  0.5656545944797884
  0.0008131913045091  0.9499146366503126  0.3841081503079806
  0.9032359189530297  0.6520540854914643  0.4260423475029782
  0.7225896784189771  0.0978257381825713  0.3845101992856925
  0.2851878455424739  0.1967918580737020  0.4472764136153344
  0.7519788066618389  0.7521484283471906  0.4105782664849116
  0.0620851182142204  0.2917665318971956  0.4439871339158614
  0.2469455024330074  0.9549543397266973  0.4539683091933640
  0.9712233662114187  0.9994484551050391  0.3685684350269085
  0.9640309916560597  0.6942935501801273  0.3855596804436701
  0.6973933276207802  0.0346448265298349  0.3415411514234492
  0.2605418927701280  0.2373528158220566  0.4048670679491480
  0.7207663827982884  0.6746646044166908  0.3862805700020218
  0.0035711524590099  0.2932258279796258  0.4101204127928995
  0.3022822924629480  0.0056382043094487  0.4087933570404445
  0.0210347416360648  0.0771509217920254  0.3958484424876119
  0.0003659680198425  0.6470494696713018  0.3764964989419752
  0.6165312487125831  0.9958707234778643  0.3468056903700614
  0.3210827288916036  0.3113181288187405  0.3859585622732524
  0.6428743457959669  0.6409735714231175  0.3846800629522420
  0.0260485245640680  0.3726668457135247  0.3939166045353915
  0.3473391363700884  0.9696024822353593  0.3948988250404497
  0.9830799014499121  0.1110029956305922  0.4295468562155733
  0.0733693917433769  0.6893249590060719  0.3960610016169781
  0.5877937469536576  0.9192363125782776  0.3643819442907414
  0.2989304261460006  0.3667557048436976  0.4035385385419872
  0.6163474550828880  0.5734058317660100  0.4256614026476342
  0.9769931547579205  0.3982656097346862  0.4141317909993134
  0.4208404518125946  0.0164035335681163  0.4196602292687643
  0.8929680022115321  0.9073106634676691  0.4443697059230445
  0.9752330322143408  0.7818775414914185  0.4821611844933713
  0.7702786547776199  0.0238768132561162  0.4309453885233054
  0.1742941732005150  0.1909994064982286  0.5014927956975654
  0.8107812198906075  0.6949415190550354  0.4778545384754054
  0.9554626218366238  0.2324203798967233  0.5116212253696943
  0.3053043082216789  0.0659442896200986  0.5126238564588306
  0.9061493666479592  0.9752457613063612  0.4096273388801634
  0.0139016281360753  0.7645512307944742  0.4228323347375209
  0.7214268271127153  0.9826274462558899  0.3748371051414523
  0.2018051077997356  0.2443902895501182  0.4390804613339228
  0.7456974207726645  0.6342453560385906  0.4340160147199512
  0.9406790704126067  0.2664805758767983  0.4559001017960611
  0.3473065655529624  0.0709081173099833  0.4530893789687482
  0.9147213617528891  0.0426802853358765  0.4464982446161727
  0.0810717399726073  0.7637548167189365  0.4283776957859189
  0.6562919100259279  0.9123996925418609  0.3873344356525408
  0.2266314599726300  0.3242619992016955  0.4406820641095663
  0.6807518253069063  0.5744560472681073  0.4593548346507390
  0.9293489206152969  0.3341104178799696  0.4613529547902928
  0.4188922386824245  0.0759656185460216  0.4583725691990921
 
  0.00000000E+00  0.00000000E+00  0.00000000E+00
  0.00000000E+00  0.00000000E+00  0.00000000E+00
  0.00000000E+00  0.00000000E+00  0.00000000E+00
  0.00000000E+00  0.00000000E+00  0.00000000E+00
  0.00000000E+00  0.00000000E+00  0.00000000E+00
  0.00000000E+00  0.00000000E+00  0.00000000E+00
  0.00000000E+00  0.00000000E+00  0.00000000E+00
  0.00000000E+00  0.00000000E+00  0.00000000E+00
  0.00000000E+00  0.00000000E+00  0.00000000E+00
  0.00000000E+00  0.00000000E+00  0.00000000E+00
  0.00000000E+00  0.00000000E+00  0.00000000E+00
  0.00000000E+00  0.00000000E+00  0.00000000E+00
  0.00000000E+00  0.00000000E+00  0.00000000E+00
  0.00000000E+00  0.00000000E+00  0.00000000E+00
  0.00000000E+00  0.00000000E+00  0.00000000E+00
  0.00000000E+00  0.00000000E+00  0.00000000E+00
  0.00000000E+00  0.00000000E+00  0.00000000E+00
  0.00000000E+00  0.00000000E+00  0.00000000E+00
  0.00000000E+00  0.00000000E+00  0.00000000E+00
  0.00000000E+00  0.00000000E+00  0.00000000E+00
  0.00000000E+00  0.00000000E+00  0.00000000E+00
  0.00000000E+00  0.00000000E+00  0.00000000E+00
  0.00000000E+00  0.00000000E+00  0.00000000E+00
  0.00000000E+00  0.00000000E+00  0.00000000E+00
  0.00000000E+00  0.00000000E+00  0.00000000E+00
  0.00000000E+00  0.00000000E+00  0.00000000E+00
  0.00000000E+00  0.00000000E+00  0.00000000E+00
  0.00000000E+00  0.00000000E+00  0.00000000E+00
  0.00000000E+00  0.00000000E+00  0.00000000E+00
  0.00000000E+00  0.00000000E+00  0.00000000E+00
  0.00000000E+00  0.00000000E+00  0.00000000E+00
  0.00000000E+00  0.00000000E+00  0.00000000E+00
  0.00000000E+00  0.00000000E+00  0.00000000E+00
  0.00000000E+00  0.00000000E+00  0.00000000E+00
  0.00000000E+00  0.00000000E+00  0.00000000E+00
  0.00000000E+00  0.00000000E+00  0.00000000E+00
  0.00000000E+00  0.00000000E+00  0.00000000E+00
  0.00000000E+00  0.00000000E+00  0.00000000E+00
  0.00000000E+00  0.00000000E+00  0.00000000E+00
  0.00000000E+00  0.00000000E+00  0.00000000E+00
  0.00000000E+00  0.00000000E+00  0.00000000E+00
  0.00000000E+00  0.00000000E+00  0.00000000E+00
  0.00000000E+00  0.00000000E+00  0.00000000E+00
  0.00000000E+00  0.00000000E+00  0.00000000E+00
  0.00000000E+00  0.00000000E+00  0.00000000E+00
  0.00000000E+00  0.00000000E+00  0.00000000E+00
  0.00000000E+00  0.00000000E+00  0.00000000E+00
  0.00000000E+00  0.00000000E+00  0.00000000E+00
  0.00000000E+00  0.00000000E+00  0.00000000E+00
  0.00000000E+00  0.00000000E+00  0.00000000E+00
  0.00000000E+00  0.00000000E+00  0.00000000E+00
  0.00000000E+00  0.00000000E+00  0.00000000E+00
  0.00000000E+00  0.00000000E+00  0.00000000E+00
  0.00000000E+00  0.00000000E+00  0.00000000E+00
  0.00000000E+00  0.00000000E+00  0.00000000E+00
  0.00000000E+00  0.00000000E+00  0.00000000E+00
  0.00000000E+00  0.00000000E+00  0.00000000E+00
  0.00000000E+00  0.00000000E+00  0.00000000E+00
  0.00000000E+00  0.00000000E+00  0.00000000E+00
  0.00000000E+00  0.00000000E+00  0.00000000E+00
  0.00000000E+00  0.00000000E+00  0.00000000E+00
  0.00000000E+00  0.00000000E+00  0.00000000E+00
  0.00000000E+00  0.00000000E+00  0.00000000E+00
  0.00000000E+00  0.00000000E+00  0.00000000E+00
  0.00000000E+00  0.00000000E+00  0.00000000E+00
  0.00000000E+00  0.00000000E+00  0.00000000E+00
  0.00000000E+00  0.00000000E+00  0.00000000E+00
  0.00000000E+00  0.00000000E+00  0.00000000E+00
  0.00000000E+00  0.00000000E+00  0.00000000E+00
  0.00000000E+00  0.00000000E+00  0.00000000E+00
  0.00000000E+00  0.00000000E+00  0.00000000E+00
  0.00000000E+00  0.00000000E+00  0.00000000E+00
  0.00000000E+00  0.00000000E+00  0.00000000E+00
  0.00000000E+00  0.00000000E+00  0.00000000E+00
  0.00000000E+00  0.00000000E+00  0.00000000E+00
  0.00000000E+00  0.00000000E+00  0.00000000E+00
  0.00000000E+00  0.00000000E+00  0.00000000E+00
  0.00000000E+00  0.00000000E+00  0.00000000E+00
  0.00000000E+00  0.00000000E+00  0.00000000E+00
  0.00000000E+00  0.00000000E+00  0.00000000E+00
  0.00000000E+00  0.00000000E+00  0.00000000E+00
  0.00000000E+00  0.00000000E+00  0.00000000E+00
  0.00000000E+00  0.00000000E+00  0.00000000E+00
  0.00000000E+00  0.00000000E+00  0.00000000E+00
  0.00000000E+00  0.00000000E+00  0.00000000E+00
  0.00000000E+00  0.00000000E+00  0.00000000E+00
  0.00000000E+00  0.00000000E+00  0.00000000E+00
  0.00000000E+00  0.00000000E+00  0.00000000E+00
  0.00000000E+00  0.00000000E+00  0.00000000E+00
  0.00000000E+00  0.00000000E+00  0.00000000E+00
  0.00000000E+00  0.00000000E+00  0.00000000E+00
  0.00000000E+00  0.00000000E+00  0.00000000E+00
  0.00000000E+00  0.00000000E+00  0.00000000E+00
  0.00000000E+00  0.00000000E+00  0.00000000E+00
  0.00000000E+00  0.00000000E+00  0.00000000E+00
  0.00000000E+00  0.00000000E+00  0.00000000E+00
  0.00000000E+00  0.00000000E+00  0.00000000E+00
  0.00000000E+00  0.00000000E+00  0.00000000E+00
  0.00000000E+00  0.00000000E+00  0.00000000E+00
  0.00000000E+00  0.00000000E+00  0.00000000E+00
  0.00000000E+00  0.00000000E+00  0.00000000E+00
  0.00000000E+00  0.00000000E+00  0.00000000E+00
  0.00000000E+00  0.00000000E+00  0.00000000E+00
  0.00000000E+00  0.00000000E+00  0.00000000E+00
  0.00000000E+00  0.00000000E+00  0.00000000E+00
  0.00000000E+00  0.00000000E+00  0.00000000E+00
  0.00000000E+00  0.00000000E+00  0.00000000E+00
  0.00000000E+00  0.00000000E+00  0.00000000E+00
  0.00000000E+00  0.00000000E+00  0.00000000E+00
  0.00000000E+00  0.00000000E+00  0.00000000E+00
  0.00000000E+00  0.00000000E+00  0.00000000E+00
  0.00000000E+00  0.00000000E+00  0.00000000E+00
  0.00000000E+00  0.00000000E+00  0.00000000E+00
  0.00000000E+00  0.00000000E+00  0.00000000E+00
  0.00000000E+00  0.00000000E+00  0.00000000E+00
  0.00000000E+00  0.00000000E+00  0.00000000E+00
  0.00000000E+00  0.00000000E+00  0.00000000E+00
  0.00000000E+00  0.00000000E+00  0.00000000E+00
  0.00000000E+00  0.00000000E+00  0.00000000E+00
  0.00000000E+00  0.00000000E+00  0.00000000E+00
  0.00000000E+00  0.00000000E+00  0.00000000E+00
  0.00000000E+00  0.00000000E+00  0.00000000E+00
  0.00000000E+00  0.00000000E+00  0.00000000E+00
  0.00000000E+00  0.00000000E+00  0.00000000E+00
  0.00000000E+00  0.00000000E+00  0.00000000E+00
  0.00000000E+00  0.00000000E+00  0.00000000E+00
  0.00000000E+00  0.00000000E+00  0.00000000E+00
  0.00000000E+00  0.00000000E+00  0.00000000E+00
  0.00000000E+00  0.00000000E+00  0.00000000E+00
  0.00000000E+00  0.00000000E+00  0.00000000E+00
  0.00000000E+00  0.00000000E+00  0.00000000E+00
  0.00000000E+00  0.00000000E+00  0.00000000E+00
  0.00000000E+00  0.00000000E+00  0.00000000E+00
  0.00000000E+00  0.00000000E+00  0.00000000E+00
  0.00000000E+00  0.00000000E+00  0.00000000E+00
  0.00000000E+00  0.00000000E+00  0.00000000E+00
  0.00000000E+00  0.00000000E+00  0.00000000E+00
  0.00000000E+00  0.00000000E+00  0.00000000E+00
  0.00000000E+00  0.00000000E+00  0.00000000E+00
  0.00000000E+00  0.00000000E+00  0.00000000E+00
  0.00000000E+00  0.00000000E+00  0.00000000E+00
  0.00000000E+00  0.00000000E+00  0.00000000E+00
  0.00000000E+00  0.00000000E+00  0.00000000E+00
  0.00000000E+00  0.00000000E+00  0.00000000E+00
  0.00000000E+00  0.00000000E+00  0.00000000E+00
  0.00000000E+00  0.00000000E+00  0.00000000E+00
  0.00000000E+00  0.00000000E+00  0.00000000E+00
  0.00000000E+00  0.00000000E+00  0.00000000E+00
  0.00000000E+00  0.00000000E+00  0.00000000E+00
  0.00000000E+00  0.00000000E+00  0.00000000E+00
  0.00000000E+00  0.00000000E+00  0.00000000E+00
  0.00000000E+00  0.00000000E+00  0.00000000E+00
  0.00000000E+00  0.00000000E+00  0.00000000E+00
  0.00000000E+00  0.00000000E+00  0.00000000E+00
  0.00000000E+00  0.00000000E+00  0.00000000E+00
  0.00000000E+00  0.00000000E+00  0.00000000E+00
  0.00000000E+00  0.00000000E+00  0.00000000E+00
  0.00000000E+00  0.00000000E+00  0.00000000E+00
  0.00000000E+00  0.00000000E+00  0.00000000E+00
  0.00000000E+00  0.00000000E+00  0.00000000E+00
  0.00000000E+00  0.00000000E+00  0.00000000E+00
  0.00000000E+00  0.00000000E+00  0.00000000E+00
  0.00000000E+00  0.00000000E+00  0.00000000E+00
  0.00000000E+00  0.00000000E+00  0.00000000E+00
  0.00000000E+00  0.00000000E+00  0.00000000E+00
  0.00000000E+00  0.00000000E+00  0.00000000E+00
  0.00000000E+00  0.00000000E+00  0.00000000E+00
  0.00000000E+00  0.00000000E+00  0.00000000E+00
  0.00000000E+00  0.00000000E+00  0.00000000E+00
  0.00000000E+00  0.00000000E+00  0.00000000E+00
  0.00000000E+00  0.00000000E+00  0.00000000E+00
  0.00000000E+00  0.00000000E+00  0.00000000E+00
  0.00000000E+00  0.00000000E+00  0.00000000E+00
  0.00000000E+00  0.00000000E+00  0.00000000E+00
  0.00000000E+00  0.00000000E+00  0.00000000E+00
  0.00000000E+00  0.00000000E+00  0.00000000E+00
  0.00000000E+00  0.00000000E+00  0.00000000E+00
  0.00000000E+00  0.00000000E+00  0.00000000E+00
  0.00000000E+00  0.00000000E+00  0.00000000E+00
  0.00000000E+00  0.00000000E+00  0.00000000E+00
  0.00000000E+00  0.00000000E+00  0.00000000E+00
  0.00000000E+00  0.00000000E+00  0.00000000E+00
  0.00000000E+00  0.00000000E+00  0.00000000E+00
  0.00000000E+00  0.00000000E+00  0.00000000E+00
  0.00000000E+00  0.00000000E+00  0.00000000E+00
  0.00000000E+00  0.00000000E+00  0.00000000E+00
  0.00000000E+00  0.00000000E+00  0.00000000E+00
  0.00000000E+00  0.00000000E+00  0.00000000E+00
  0.00000000E+00  0.00000000E+00  0.00000000E+00
  0.00000000E+00  0.00000000E+00  0.00000000E+00
  0.00000000E+00  0.00000000E+00  0.00000000E+00
  0.00000000E+00  0.00000000E+00  0.00000000E+00
  0.00000000E+00  0.00000000E+00  0.00000000E+00
  0.00000000E+00  0.00000000E+00  0.00000000E+00
  0.00000000E+00  0.00000000E+00  0.00000000E+00
  0.00000000E+00  0.00000000E+00  0.00000000E+00
  0.00000000E+00  0.00000000E+00  0.00000000E+00
  0.00000000E+00  0.00000000E+00  0.00000000E+00
  0.00000000E+00  0.00000000E+00  0.00000000E+00
  0.00000000E+00  0.00000000E+00  0.00000000E+00
  0.00000000E+00  0.00000000E+00  0.00000000E+00
  0.00000000E+00  0.00000000E+00  0.00000000E+00
  0.00000000E+00  0.00000000E+00  0.00000000E+00
  0.00000000E+00  0.00000000E+00  0.00000000E+00
  0.00000000E+00  0.00000000E+00  0.00000000E+00
  0.00000000E+00  0.00000000E+00  0.00000000E+00
  0.00000000E+00  0.00000000E+00  0.00000000E+00
  0.00000000E+00  0.00000000E+00  0.00000000E+00
  0.00000000E+00  0.00000000E+00  0.00000000E+00
  0.00000000E+00  0.00000000E+00  0.00000000E+00
  0.00000000E+00  0.00000000E+00  0.00000000E+00
  0.00000000E+00  0.00000000E+00  0.00000000E+00
  0.00000000E+00  0.00000000E+00  0.00000000E+00
  0.00000000E+00  0.00000000E+00  0.00000000E+00
  0.00000000E+00  0.00000000E+00  0.00000000E+00
  0.00000000E+00  0.00000000E+00  0.00000000E+00
  0.00000000E+00  0.00000000E+00  0.00000000E+00
  0.00000000E+00  0.00000000E+00  0.00000000E+00
  0.00000000E+00  0.00000000E+00  0.00000000E+00
  0.00000000E+00  0.00000000E+00  0.00000000E+00
  0.00000000E+00  0.00000000E+00  0.00000000E+00
  0.00000000E+00  0.00000000E+00  0.00000000E+00
  0.00000000E+00  0.00000000E+00  0.00000000E+00
  0.00000000E+00  0.00000000E+00  0.00000000E+00
  0.00000000E+00  0.00000000E+00  0.00000000E+00
  0.00000000E+00  0.00000000E+00  0.00000000E+00
  0.00000000E+00  0.00000000E+00  0.00000000E+00
  0.00000000E+00  0.00000000E+00  0.00000000E+00
  0.00000000E+00  0.00000000E+00  0.00000000E+00
  0.00000000E+00  0.00000000E+00  0.00000000E+00
  0.00000000E+00  0.00000000E+00  0.00000000E+00
  0.00000000E+00  0.00000000E+00  0.00000000E+00
  0.00000000E+00  0.00000000E+00  0.00000000E+00
  0.00000000E+00  0.00000000E+00  0.00000000E+00
  0.00000000E+00  0.00000000E+00  0.00000000E+00
  0.00000000E+00  0.00000000E+00  0.00000000E+00
  0.00000000E+00  0.00000000E+00  0.00000000E+00
  0.00000000E+00  0.00000000E+00  0.00000000E+00
  0.00000000E+00  0.00000000E+00  0.00000000E+00
  0.00000000E+00  0.00000000E+00  0.00000000E+00
