Generated by VASPKIT code               
   1.00000000000000     
    15.6076784061781986   -0.0588165229723525    0.0000000000000000
    -7.8589593800255191   13.4236209755554068    0.0000000000000000
     0.0000000000000013    0.0000000000000022   20.2283469827034281
  C             
   144
Direct
  0.5463105225576754  0.2525253407979022  0.6308837019382239
  0.1513633887769927  0.6428249224993152  0.5637256711310243
  0.6284631775773519  0.2372774992562015  0.6282861489622107
  0.1605576290407740  0.6868334206371216  0.5000179774530622
  0.6193818656277443  0.1766721833805960  0.5698223477049353
  0.2504157372275131  0.7742117042224237  0.5000006557884333
  0.4723013127159916  0.1910910247119233  0.5730032252965955
  0.2373092637588599  0.7139086655983462  0.6037440422518188
  0.5360487308790596  0.1594504141522890  0.5347815500089794
  0.2957915606029147  0.8147101915222166  0.5660546990831108
  0.4730957459273810  0.2754380670330150  0.5342940244673215
  0.2832556062171818  0.6602104265134017  0.6250130404448271
  0.5716728895731720  0.3544365200810304  0.6281127361271714
  0.1371121459820017  0.5465842351893855  0.5645411084835530
  0.5243988952937642  0.3661544734694431  0.5687313041758415
  0.2218143135270552  0.5581962662468527  0.6000564706202880
  0.6699617086253014  0.4385518277655720  0.6312422795889603
  0.1246006891091440  0.4893843390191108  0.5000678233382345
  0.7285072352608069  0.3165982455069738  0.6297725640145941
  0.1512647893050314  0.6427686901899321  0.4363213478180725
  0.7467624256801244  0.4154548394771780  0.6283257587769668
  0.1370777049960381  0.5465540903672164  0.4356070477388130
  0.7126818163168949  0.2165522647139326  0.5354415306898588
  0.2957670212487002  0.8147115962045746  0.4339615389197604
  0.7794995936774995  0.3046466630364790  0.5708625657222228
  0.2372539751563494  0.7138476804463707  0.3962967829228958
  0.7126565403809906  0.2165528190922998  0.4643461693685396
  0.4037664011635087  0.8478380410752422  0.4387088958487340
  0.5360193201084087  0.1594687381121176  0.4651725966900884
  0.4037822570861636  0.8478609876329486  0.5613967379110676
  0.6192911710354139  0.1766608800791971  0.4300559986911168
  0.4563489694706533  0.8845730769791800  0.5000459713511347
  0.4730649840453012  0.2754287080698958  0.4657411638185351
  0.3894339320617917  0.7026321824234714  0.6251406690872514
  0.4722090093561064  0.1910708860858392  0.4269923229672372
  0.4478568413367725  0.8036458054287934  0.5989721406133697
  0.5242781781165462  0.3661107813390032  0.4312700518828692
  0.4351284109348867  0.6484791327762736  0.6029769567915579
  0.5898123399875033  0.4541138675093990  0.5346413520799160
  0.2708808620702925  0.5171907546252186  0.5625403158992057
  0.6859252997576490  0.5143761489055265  0.5740563223304349
  0.2242893882384038  0.4929860446881165  0.5000845531329858
  0.5897607327714738  0.4540940861587046  0.4653199134771029
  0.3753213236693895  0.5601144152256410  0.5631998986709377
  0.8083934477447059  0.4628219901885586  0.5695181304555845
  0.2217672094997312  0.5581619885857165  0.4001076249530442
  0.8315860223084002  0.3963386892773073  0.5353811741888705
  0.2832054164040798  0.6601217125913195  0.3750949801890044
  0.7667199895222936  0.5092374130905384  0.5345167476716455
  0.2708660337765423  0.5172049298224053  0.4376223747279795
  0.7794413194741594  0.3046254822171761  0.4288648013475083
  0.4478341861584170  0.8036137564665680  0.4011124614152877
  0.8315188200800350  0.3963273072016520  0.4643190182901407
  0.3893836610569892  0.7025793747287636  0.3749713684323979
  0.6282731575933340  0.2372188955462207  0.3715871337933621
  0.5359909284276654  0.8609420811873179  0.5000253531431298
  0.5461155470489345  0.2524667435223407  0.3690779083601115
  0.5260833102839300  0.8091245224997721  0.5593881722893812
  0.5714506201464786  0.3543660246324052  0.3718416041749535
  0.5328118097464269  0.7183695629342495  0.5656016134108697
  0.7283103357019769  0.3165443666311560  0.3700131333708327
  0.5260674791521609  0.8091194034026756  0.4406489429499061
  0.6858029909964642  0.5143481049243803  0.4258484413662629
  0.4201773488397862  0.5707109524720195  0.5000274374099902
  0.7666461665161250  0.5092050742320922  0.4652790701378748
  0.3752995616493280  0.5601193371135764  0.4368838528980348
  0.8082528104850439  0.4627783320003829  0.4302225319787922
  0.4350883737056748  0.6484528862444137  0.3970621288292762
  0.6697261847295479  0.4384978898975262  0.3686427213498789
  0.5159508067748249  0.6608082728048714  0.5000043112139636
  0.7465292374800470  0.4153901166082790  0.3714664062648438
  0.5327688653521463  0.7183579350618459  0.4344336614930029
  0.0141973521274750  0.2849295689438023  0.6047794383065224
  0.6994955420534410  0.7043205621302491  0.6077329821464801
  0.3138757370941363  0.9980442625501311  0.6080600289160856
  0.0224917729802812  0.1995354969631933  0.6230603664872163
  0.7923881650243843  0.7906517850788646  0.6144327997112526
  0.2238473099710774  0.9857122765340449  0.6242653416174448
  0.0868213681677759  0.3322171685202875  0.5569137587808157
  0.6435447596000259  0.7379136747592057  0.5637279403762321
  0.2831301789584231  0.9087300323300198  0.5617192443338936
  0.1053301190213034  0.2011793745002635  0.5845237497634628
  0.8060161873480425  0.8745614322695658  0.5725741190572933
  0.1339874966466539  0.9031417138296050  0.5904318897466609
  0.1352359261688889  0.2770751479662081  0.5376218701890352
  0.7209495239692600  0.8410364867417144  0.5361134765315967
  0.1724726780400943  0.8759082084545611  0.5375146642984703
  0.0578601854864687  0.3741574627925246  0.5000597430323381
  0.6249918144153952  0.6784489055507876  0.5000369413567896
  0.3302414518983667  0.9611112955726284  0.4999740198470093
  0.0867954640267641  0.3322401564906343  0.4431783357332080
  0.6435579273892174  0.7379388182439683  0.4363655341212578
  0.2831210910298410  0.9087171577517594  0.4382388211218569
  0.1352006237269734  0.2770875649121365  0.4624346123965424
  0.7209356606825352  0.8410764227089018  0.4640096662719628
  0.1724303898582278  0.8758930678511234  0.4624464897801275
  0.9452962076336604  0.2989416828361797  0.5000856486721332
  0.6871800073379362  0.6364363170154732  0.5000030480686206
  0.3605821254159736  0.0577768978472974  0.4999798225786236
  0.9226705693452217  0.2478881422549506  0.5622423393132934
  0.7240640246571317  0.6302576615425011  0.5686920958366599
  0.3630054079767646  0.0997775963989298  0.5673119768059891
  0.8734792593645722  0.1415682826434690  0.5644319311612165
  0.8380600836099248  0.6944504006052270  0.5630340084128278
  0.2775634980295365  0.1249091330625589  0.5634279530913915
  0.9225883673433799  0.2479167980880206  0.4379000843940659
  0.7240282835094192  0.6302860728196364  0.4312958024504994
  0.3629690743089569  0.0998051213731941  0.4326637449237083
  0.8733959586416233  0.1415823474195932  0.4357099966476525
  0.8380560997670798  0.6944560908828663  0.4369536088049060
  0.2775474377630403  0.1249657466280141  0.4365765027045470
  0.8612157559038423  0.0974319450611247  0.5000719371663251
  0.8883373445548060  0.7206291794012714  0.4999937059503665
  0.2343883366805457  0.1332659428054725  0.5000110727890146
  0.0141593424333024  0.2849698828957159  0.3953411333309020
  0.6995052049800847  0.7044008752235342  0.3923362194288984
  0.3138029246171499  0.9980489418854575  0.3918953329178265
  0.9635406629222132  0.0460517410065293  0.5609812620381973
  0.9594818335960156  0.8701542533713962  0.5630853455972158
  0.1057669814708433  0.0338971305249487  0.6043347062582995
  0.9372903003144444  0.1132589525614307  0.6028444850237094
  0.8773946428659016  0.7808790734834190  0.6011128516168398
  0.2096125714870141  0.0698766206157941  0.6123674340205980
  0.9279050923636376  0.0640572580776748  0.5000496343564009
  0.9622022335823885  0.8212907274373649  0.5000188785279605
  0.1336249286280804  0.1071104858074889  0.5000138087366679
  0.9634882725607739  0.0460580120381167  0.4390949202778458
  0.9594668556809012  0.8701886682605675  0.4369728920450129
  0.1057184035818537  0.0338902087862678  0.3957203698827172
  0.9372278878800913  0.1132860260502682  0.3972505952583134
  0.8773893546837783  0.7809248861166225  0.3989086432101701
  0.2095572866232160  0.0698731805027677  0.3876765388344197
  0.0224282241243685  0.1995692378326979  0.3770100328819410
  0.7923950308453627  0.7907406589427239  0.3856342433046080
  0.2237621332001751  0.9857025955708494  0.3757258287661074
  0.0793454422807329  0.0974966216764912  0.5647146819859614
  0.9076214293091525  0.9315181588062700  0.5442510283212130
  0.0586841541089527  0.9320919916941222  0.5923595104154842
  0.0792939391603156  0.0975109520405866  0.4353394987004933
  0.9076203934856295  0.9315353214188420  0.4558351290924634
  0.0586438073015074  0.9320950083245805  0.4076854154738285
  0.1052395759694349  0.2011926842708931  0.4155295970083515
  0.8060054006038371  0.8745880696982766  0.4275557310271481
  0.1339217749025252  0.9031222788151183  0.4095339292100917
 
  0.00000000E+00  0.00000000E+00  0.00000000E+00
  0.00000000E+00  0.00000000E+00  0.00000000E+00
  0.00000000E+00  0.00000000E+00  0.00000000E+00
  0.00000000E+00  0.00000000E+00  0.00000000E+00
  0.00000000E+00  0.00000000E+00  0.00000000E+00
  0.00000000E+00  0.00000000E+00  0.00000000E+00
  0.00000000E+00  0.00000000E+00  0.00000000E+00
  0.00000000E+00  0.00000000E+00  0.00000000E+00
  0.00000000E+00  0.00000000E+00  0.00000000E+00
  0.00000000E+00  0.00000000E+00  0.00000000E+00
  0.00000000E+00  0.00000000E+00  0.00000000E+00
  0.00000000E+00  0.00000000E+00  0.00000000E+00
  0.00000000E+00  0.00000000E+00  0.00000000E+00
  0.00000000E+00  0.00000000E+00  0.00000000E+00
  0.00000000E+00  0.00000000E+00  0.00000000E+00
  0.00000000E+00  0.00000000E+00  0.00000000E+00
  0.00000000E+00  0.00000000E+00  0.00000000E+00
  0.00000000E+00  0.00000000E+00  0.00000000E+00
  0.00000000E+00  0.00000000E+00  0.00000000E+00
  0.00000000E+00  0.00000000E+00  0.00000000E+00
  0.00000000E+00  0.00000000E+00  0.00000000E+00
  0.00000000E+00  0.00000000E+00  0.00000000E+00
  0.00000000E+00  0.00000000E+00  0.00000000E+00
  0.00000000E+00  0.00000000E+00  0.00000000E+00
  0.00000000E+00  0.00000000E+00  0.00000000E+00
  0.00000000E+00  0.00000000E+00  0.00000000E+00
  0.00000000E+00  0.00000000E+00  0.00000000E+00
  0.00000000E+00  0.00000000E+00  0.00000000E+00
  0.00000000E+00  0.00000000E+00  0.00000000E+00
  0.00000000E+00  0.00000000E+00  0.00000000E+00
  0.00000000E+00  0.00000000E+00  0.00000000E+00
  0.00000000E+00  0.00000000E+00  0.00000000E+00
  0.00000000E+00  0.00000000E+00  0.00000000E+00
  0.00000000E+00  0.00000000E+00  0.00000000E+00
  0.00000000E+00  0.00000000E+00  0.00000000E+00
  0.00000000E+00  0.00000000E+00  0.00000000E+00
  0.00000000E+00  0.00000000E+00  0.00000000E+00
  0.00000000E+00  0.00000000E+00  0.00000000E+00
  0.00000000E+00  0.00000000E+00  0.00000000E+00
  0.00000000E+00  0.00000000E+00  0.00000000E+00
  0.00000000E+00  0.00000000E+00  0.00000000E+00
  0.00000000E+00  0.00000000E+00  0.00000000E+00
  0.00000000E+00  0.00000000E+00  0.00000000E+00
  0.00000000E+00  0.00000000E+00  0.00000000E+00
  0.00000000E+00  0.00000000E+00  0.00000000E+00
  0.00000000E+00  0.00000000E+00  0.00000000E+00
  0.00000000E+00  0.00000000E+00  0.00000000E+00
  0.00000000E+00  0.00000000E+00  0.00000000E+00
  0.00000000E+00  0.00000000E+00  0.00000000E+00
  0.00000000E+00  0.00000000E+00  0.00000000E+00
  0.00000000E+00  0.00000000E+00  0.00000000E+00
  0.00000000E+00  0.00000000E+00  0.00000000E+00
  0.00000000E+00  0.00000000E+00  0.00000000E+00
  0.00000000E+00  0.00000000E+00  0.00000000E+00
  0.00000000E+00  0.00000000E+00  0.00000000E+00
  0.00000000E+00  0.00000000E+00  0.00000000E+00
  0.00000000E+00  0.00000000E+00  0.00000000E+00
  0.00000000E+00  0.00000000E+00  0.00000000E+00
  0.00000000E+00  0.00000000E+00  0.00000000E+00
  0.00000000E+00  0.00000000E+00  0.00000000E+00
  0.00000000E+00  0.00000000E+00  0.00000000E+00
  0.00000000E+00  0.00000000E+00  0.00000000E+00
  0.00000000E+00  0.00000000E+00  0.00000000E+00
  0.00000000E+00  0.00000000E+00  0.00000000E+00
  0.00000000E+00  0.00000000E+00  0.00000000E+00
  0.00000000E+00  0.00000000E+00  0.00000000E+00
  0.00000000E+00  0.00000000E+00  0.00000000E+00
  0.00000000E+00  0.00000000E+00  0.00000000E+00
  0.00000000E+00  0.00000000E+00  0.00000000E+00
  0.00000000E+00  0.00000000E+00  0.00000000E+00
  0.00000000E+00  0.00000000E+00  0.00000000E+00
  0.00000000E+00  0.00000000E+00  0.00000000E+00
  0.00000000E+00  0.00000000E+00  0.00000000E+00
  0.00000000E+00  0.00000000E+00  0.00000000E+00
  0.00000000E+00  0.00000000E+00  0.00000000E+00
  0.00000000E+00  0.00000000E+00  0.00000000E+00
  0.00000000E+00  0.00000000E+00  0.00000000E+00
  0.00000000E+00  0.00000000E+00  0.00000000E+00
  0.00000000E+00  0.00000000E+00  0.00000000E+00
  0.00000000E+00  0.00000000E+00  0.00000000E+00
  0.00000000E+00  0.00000000E+00  0.00000000E+00
  0.00000000E+00  0.00000000E+00  0.00000000E+00
  0.00000000E+00  0.00000000E+00  0.00000000E+00
  0.00000000E+00  0.00000000E+00  0.00000000E+00
  0.00000000E+00  0.00000000E+00  0.00000000E+00
  0.00000000E+00  0.00000000E+00  0.00000000E+00
  0.00000000E+00  0.00000000E+00  0.00000000E+00
  0.00000000E+00  0.00000000E+00  0.00000000E+00
  0.00000000E+00  0.00000000E+00  0.00000000E+00
  0.00000000E+00  0.00000000E+00  0.00000000E+00
  0.00000000E+00  0.00000000E+00  0.00000000E+00
  0.00000000E+00  0.00000000E+00  0.00000000E+00
  0.00000000E+00  0.00000000E+00  0.00000000E+00
  0.00000000E+00  0.00000000E+00  0.00000000E+00
  0.00000000E+00  0.00000000E+00  0.00000000E+00
  0.00000000E+00  0.00000000E+00  0.00000000E+00
  0.00000000E+00  0.00000000E+00  0.00000000E+00
  0.00000000E+00  0.00000000E+00  0.00000000E+00
  0.00000000E+00  0.00000000E+00  0.00000000E+00
  0.00000000E+00  0.00000000E+00  0.00000000E+00
  0.00000000E+00  0.00000000E+00  0.00000000E+00
  0.00000000E+00  0.00000000E+00  0.00000000E+00
  0.00000000E+00  0.00000000E+00  0.00000000E+00
  0.00000000E+00  0.00000000E+00  0.00000000E+00
  0.00000000E+00  0.00000000E+00  0.00000000E+00
  0.00000000E+00  0.00000000E+00  0.00000000E+00
  0.00000000E+00  0.00000000E+00  0.00000000E+00
  0.00000000E+00  0.00000000E+00  0.00000000E+00
  0.00000000E+00  0.00000000E+00  0.00000000E+00
  0.00000000E+00  0.00000000E+00  0.00000000E+00
  0.00000000E+00  0.00000000E+00  0.00000000E+00
  0.00000000E+00  0.00000000E+00  0.00000000E+00
  0.00000000E+00  0.00000000E+00  0.00000000E+00
  0.00000000E+00  0.00000000E+00  0.00000000E+00
  0.00000000E+00  0.00000000E+00  0.00000000E+00
  0.00000000E+00  0.00000000E+00  0.00000000E+00
  0.00000000E+00  0.00000000E+00  0.00000000E+00
  0.00000000E+00  0.00000000E+00  0.00000000E+00
  0.00000000E+00  0.00000000E+00  0.00000000E+00
  0.00000000E+00  0.00000000E+00  0.00000000E+00
  0.00000000E+00  0.00000000E+00  0.00000000E+00
  0.00000000E+00  0.00000000E+00  0.00000000E+00
  0.00000000E+00  0.00000000E+00  0.00000000E+00
  0.00000000E+00  0.00000000E+00  0.00000000E+00
  0.00000000E+00  0.00000000E+00  0.00000000E+00
  0.00000000E+00  0.00000000E+00  0.00000000E+00
  0.00000000E+00  0.00000000E+00  0.00000000E+00
  0.00000000E+00  0.00000000E+00  0.00000000E+00
  0.00000000E+00  0.00000000E+00  0.00000000E+00
  0.00000000E+00  0.00000000E+00  0.00000000E+00
  0.00000000E+00  0.00000000E+00  0.00000000E+00
  0.00000000E+00  0.00000000E+00  0.00000000E+00
  0.00000000E+00  0.00000000E+00  0.00000000E+00
  0.00000000E+00  0.00000000E+00  0.00000000E+00
  0.00000000E+00  0.00000000E+00  0.00000000E+00
  0.00000000E+00  0.00000000E+00  0.00000000E+00
  0.00000000E+00  0.00000000E+00  0.00000000E+00
  0.00000000E+00  0.00000000E+00  0.00000000E+00
  0.00000000E+00  0.00000000E+00  0.00000000E+00
  0.00000000E+00  0.00000000E+00  0.00000000E+00
  0.00000000E+00  0.00000000E+00  0.00000000E+00
  0.00000000E+00  0.00000000E+00  0.00000000E+00
  0.00000000E+00  0.00000000E+00  0.00000000E+00
  0.00000000E+00  0.00000000E+00  0.00000000E+00
