Generated by VASPKIT code               
   1.00000000000000     
    13.0178142833467181   -0.1975778653068374    0.0000000000000000
    -0.1967957328434652   12.5090438028480389    0.0000000000000000
     0.0000000000000013    0.0000000000000012   20.2213613602622253
  C             
    84
Direct
  0.2161093071508446  0.0122469879654332  0.5351924198859308
  0.2160948308636605  0.0122336911887757  0.4647781639246276
  0.1677874003882351  0.9142283250456060  0.4416036589663648
  0.1678182617771000  0.9142524613028655  0.5583925858305108
  0.1328168477144231  0.8576717045330753  0.5000072935690838
  0.0959119435538014  0.9387181999726053  0.6096620886767568
  0.1799281618982462  0.0994343177205579  0.5718765152016090
  0.1010302342677676  0.0542306838054500  0.6168389598681401
  0.1376843270656920  0.1832298462021456  0.5354876532711472
  0.1798940720058013  0.0994211700916168  0.4280998516311243
  0.1376683583401928  0.1832242810854154  0.4644916051096004
  0.0958528427548941  0.9386915107697220  0.3903509506521132
  0.1009667919020032  0.0542088221266397  0.3831643467482664
  0.9999012043532147  0.8815909089778842  0.3878027545175442
  0.0395194683430091  0.8040524691439259  0.5000227888163096
  0.9758885014413607  0.7888506447321859  0.4360087028522130
  0.9999596493581961  0.8816211393080593  0.6122405564703186
  0.9759138563646417  0.7888726928121343  0.5640432282998091
  0.9115000041795014  0.9426316972421276  0.6156968479060936
  0.0101737639103519  0.1136707876599914  0.6089437166253191
  0.0311357886468784  0.1904098206109168  0.5573011253178279
  0.9133061106379543  0.0575812960340443  0.6081008886892292
  0.0311033845383761  0.1903830480641915  0.4427063918221563
  0.0101158857385997  0.1136405749254195  0.3910719326396688
  0.9674949812544327  0.1910400690712422  0.5000088528112840
  0.9114351938243956  0.9425970198279501  0.3843560774319812
  0.9132502050523073  0.0575513585462559  0.3919429967629995
  0.8710517579126744  0.8184343987873035  0.4641654913765052
  0.8710640013939468  0.8184482604816949  0.5359048276439182
  0.8310799364726265  0.8984322894197589  0.5721492732882965
  0.8310406113803026  0.8984209297734793  0.4279242647211845
  0.8396006276205057  0.0805152271992426  0.5584872626886010
  0.8703823936757473  0.1362380796682885  0.5000240805758551
  0.8395799515950060  0.0805004916419350  0.4415717839813524
  0.7690971558225144  0.9854779678844707  0.5465172512814860
  0.7690904816761446  0.9854647663615950  0.4535665117032721
  0.4949073748747139  0.0765926197011879  0.6017480993489031
  0.8911561229231140  0.4861725444265517  0.6013197523084841
  0.5532744328288928  0.9864972545485244  0.6212345736176701
  0.9773538412952405  0.5523211910179455  0.6212183228803880
  0.5468087508009347  0.1500319254846687  0.5583011684629611
  0.8220191898708649  0.5372416619758482  0.5576349337915474
  0.6540305732353033  0.9868532175687648  0.5687831002779902
  0.9767860690567218  0.6586011655441624  0.5745466074325520
  0.6275833483703650  0.0889284192842936  0.5342832638558406
  0.8814723745807314  0.6266523717592349  0.5347466659525892
  0.4880151159842612  0.1825231242775800  0.5000260361227618
  0.7917133933573481  0.4739280869573506  0.5000371712604164
  0.5468178396226406  0.1500115359774270  0.4417598990856959
  0.8220244937762402  0.5372438496472398  0.4424397742610608
  0.6275869345338521  0.0889061880860282  0.4657891013993378
  0.8814729730993207  0.6266440074104196  0.4653329729509537
  0.4073755500883323  0.1033360085774220  0.5000254712750660
  0.8669474316862065  0.3913718284231180  0.5000353307580099
  0.4041057902333662  0.0429278633328138  0.5623790106085877
  0.9243073143086846  0.3941822675089384  0.5621586928736662
  0.3997818732429366  0.9305613128472032  0.5624570826799982
  0.0331521380370319  0.3978066529515587  0.5623772363520061
  0.4041147418977076  0.0429086942563188  0.4376764573672460
  0.9243197991505099  0.3941892452505442  0.4379144332660871
  0.3997991895526880  0.9305375085634964  0.4376160833145306
  0.0331682590040145  0.3978137355327434  0.4377068635589154
  0.3980074892137111  0.8704933195321587  0.5000418760627880
  0.0907244284478992  0.4017268655771815  0.5000462492876494
  0.4949236555737926  0.0765647048307088  0.3983129894482715
  0.8911624606836099  0.4861692722224689  0.3987564293913266
  0.5358691560507225  0.8232412857590390  0.5580421547481293
  0.1341882210442122  0.5496683619871519  0.5580087044751068
  0.4889681257035718  0.8967706275866334  0.6014819497369146
  0.0648958615626825  0.4933141414850013  0.6014810308250702
  0.4747310431140050  0.7910017085723311  0.5000545909536740
  0.1646254136174647  0.4891518932880246  0.5000477649593762
  0.5358884815662321  0.8232160624175435  0.4420665238604897
  0.1341922252351821  0.5496896585217215  0.4420855162440702
  0.4889934860788117  0.8967297518740409  0.3986119805204495
  0.0649189223215387  0.4933288570250483  0.3986038509793275
  0.5532969481753440  0.9864504201171016  0.3788573942820577
  0.9773682621500015  0.5523249613243379  0.3788662740554685
  0.6210986753312966  0.8840265067396160  0.5342199091799387
  0.0709404958675108  0.6318419422106487  0.5345927972256845
  0.6211025039434332  0.8840078505595059  0.4658863411756116
  0.0709447540237633  0.6318505639344068  0.4654935160707723
  0.6540265350470165  0.9868251420375529  0.4313011150092692
  0.9767896449608529  0.6586038815024224  0.4255312525939274
 
  0.00000000E+00  0.00000000E+00  0.00000000E+00
  0.00000000E+00  0.00000000E+00  0.00000000E+00
  0.00000000E+00  0.00000000E+00  0.00000000E+00
  0.00000000E+00  0.00000000E+00  0.00000000E+00
  0.00000000E+00  0.00000000E+00  0.00000000E+00
  0.00000000E+00  0.00000000E+00  0.00000000E+00
  0.00000000E+00  0.00000000E+00  0.00000000E+00
  0.00000000E+00  0.00000000E+00  0.00000000E+00
  0.00000000E+00  0.00000000E+00  0.00000000E+00
  0.00000000E+00  0.00000000E+00  0.00000000E+00
  0.00000000E+00  0.00000000E+00  0.00000000E+00
  0.00000000E+00  0.00000000E+00  0.00000000E+00
  0.00000000E+00  0.00000000E+00  0.00000000E+00
  0.00000000E+00  0.00000000E+00  0.00000000E+00
  0.00000000E+00  0.00000000E+00  0.00000000E+00
  0.00000000E+00  0.00000000E+00  0.00000000E+00
  0.00000000E+00  0.00000000E+00  0.00000000E+00
  0.00000000E+00  0.00000000E+00  0.00000000E+00
  0.00000000E+00  0.00000000E+00  0.00000000E+00
  0.00000000E+00  0.00000000E+00  0.00000000E+00
  0.00000000E+00  0.00000000E+00  0.00000000E+00
  0.00000000E+00  0.00000000E+00  0.00000000E+00
  0.00000000E+00  0.00000000E+00  0.00000000E+00
  0.00000000E+00  0.00000000E+00  0.00000000E+00
  0.00000000E+00  0.00000000E+00  0.00000000E+00
  0.00000000E+00  0.00000000E+00  0.00000000E+00
  0.00000000E+00  0.00000000E+00  0.00000000E+00
  0.00000000E+00  0.00000000E+00  0.00000000E+00
  0.00000000E+00  0.00000000E+00  0.00000000E+00
  0.00000000E+00  0.00000000E+00  0.00000000E+00
  0.00000000E+00  0.00000000E+00  0.00000000E+00
  0.00000000E+00  0.00000000E+00  0.00000000E+00
  0.00000000E+00  0.00000000E+00  0.00000000E+00
  0.00000000E+00  0.00000000E+00  0.00000000E+00
  0.00000000E+00  0.00000000E+00  0.00000000E+00
  0.00000000E+00  0.00000000E+00  0.00000000E+00
  0.00000000E+00  0.00000000E+00  0.00000000E+00
  0.00000000E+00  0.00000000E+00  0.00000000E+00
  0.00000000E+00  0.00000000E+00  0.00000000E+00
  0.00000000E+00  0.00000000E+00  0.00000000E+00
  0.00000000E+00  0.00000000E+00  0.00000000E+00
  0.00000000E+00  0.00000000E+00  0.00000000E+00
  0.00000000E+00  0.00000000E+00  0.00000000E+00
  0.00000000E+00  0.00000000E+00  0.00000000E+00
  0.00000000E+00  0.00000000E+00  0.00000000E+00
  0.00000000E+00  0.00000000E+00  0.00000000E+00
  0.00000000E+00  0.00000000E+00  0.00000000E+00
  0.00000000E+00  0.00000000E+00  0.00000000E+00
  0.00000000E+00  0.00000000E+00  0.00000000E+00
  0.00000000E+00  0.00000000E+00  0.00000000E+00
  0.00000000E+00  0.00000000E+00  0.00000000E+00
  0.00000000E+00  0.00000000E+00  0.00000000E+00
  0.00000000E+00  0.00000000E+00  0.00000000E+00
  0.00000000E+00  0.00000000E+00  0.00000000E+00
  0.00000000E+00  0.00000000E+00  0.00000000E+00
  0.00000000E+00  0.00000000E+00  0.00000000E+00
  0.00000000E+00  0.00000000E+00  0.00000000E+00
  0.00000000E+00  0.00000000E+00  0.00000000E+00
  0.00000000E+00  0.00000000E+00  0.00000000E+00
  0.00000000E+00  0.00000000E+00  0.00000000E+00
  0.00000000E+00  0.00000000E+00  0.00000000E+00
  0.00000000E+00  0.00000000E+00  0.00000000E+00
  0.00000000E+00  0.00000000E+00  0.00000000E+00
  0.00000000E+00  0.00000000E+00  0.00000000E+00
  0.00000000E+00  0.00000000E+00  0.00000000E+00
  0.00000000E+00  0.00000000E+00  0.00000000E+00
  0.00000000E+00  0.00000000E+00  0.00000000E+00
  0.00000000E+00  0.00000000E+00  0.00000000E+00
  0.00000000E+00  0.00000000E+00  0.00000000E+00
  0.00000000E+00  0.00000000E+00  0.00000000E+00
  0.00000000E+00  0.00000000E+00  0.00000000E+00
  0.00000000E+00  0.00000000E+00  0.00000000E+00
  0.00000000E+00  0.00000000E+00  0.00000000E+00
  0.00000000E+00  0.00000000E+00  0.00000000E+00
  0.00000000E+00  0.00000000E+00  0.00000000E+00
  0.00000000E+00  0.00000000E+00  0.00000000E+00
  0.00000000E+00  0.00000000E+00  0.00000000E+00
  0.00000000E+00  0.00000000E+00  0.00000000E+00
  0.00000000E+00  0.00000000E+00  0.00000000E+00
  0.00000000E+00  0.00000000E+00  0.00000000E+00
  0.00000000E+00  0.00000000E+00  0.00000000E+00
  0.00000000E+00  0.00000000E+00  0.00000000E+00
  0.00000000E+00  0.00000000E+00  0.00000000E+00
  0.00000000E+00  0.00000000E+00  0.00000000E+00
