Generated by VASPKIT code               
   1.00000000000000     
    13.5114602304505009    0.1997095130589146    0.0000000000000000
    -6.5687875176949486   11.3968779003043483    0.0000000000000000
     0.0000000000000013    0.0000000000000021   20.2220044616550396
  C             
   108
Direct
  0.2086015904359044  0.0843834075896837  0.5619234133040791
  0.1515715262310096  0.9731643500288030  0.5923699209521729
  0.0430670356741985  0.9587837467250395  0.6175917907300672
  0.1455849064986339  0.1393377983471851  0.5690385463953120
  0.0415571529700713  0.0644184305290310  0.6041708844365061
  0.1637152642136783  0.2149986844284584  0.5105971903843809
  0.2677922531324626  0.1053403744250971  0.4979898477951750
  0.2277141896993271  0.1816120740442173  0.4537041749467150
  0.2328459286944948  0.9963054739767188  0.4518598276146761
  0.1248492711988618  0.8776176748389872  0.5531286058668101
  0.1560257525727877  0.8842223013555852  0.4859517289000976
  0.9518376410036211  0.8488261606588878  0.5997096477325528
  0.0055218759241953  0.7836689517283304  0.5644096094781332
  0.8514555746242394  0.8461383189534573  0.5768790566688082
  0.9398077311042670  0.0590995837641088  0.5848771777458879
  0.8442891022504853  0.9504199570965994  0.5754183052598378
  0.0526023666185296  0.2117603487268624  0.4900319821861601
  0.9434092899855031  0.1502817428083034  0.5399146064842171
  0.0081925587185196  0.1513285035816239  0.4245509504690546
  0.1569011406268785  0.1015782858924581  0.3989215105204877
  0.1605371563286013  0.9978568812755455  0.3975755783846893
  0.0545990483414442  0.0972245842026140  0.3810732663402803
  0.0596825500921554  0.8192145421226940  0.4483124545530472
  0.9554586921837185  0.7459014052756459  0.4918893767220069
  0.0622291459917079  0.8864886151415448  0.3904458468095768
  0.7808839437622126  0.7714083256453961  0.5199954483201950
  0.8611812721362213  0.7633327497875015  0.4705383071156746
  0.7649670405426932  0.9560432788312667  0.5249719871250917
  0.8384425727754277  0.0781516600103842  0.4891483288103160
  0.8931154346182808  0.0812523382430612  0.4267729739650292
  0.7318409547919629  0.8421011855592511  0.4809578771967864
  0.9618411105146620  0.9889572072442263  0.3586578173457013
  0.9615714190743887  0.8824143627421108  0.3701275756559994
  0.8604359173584655  0.8120083368190336  0.4106470310811119
  0.8580250284970958  0.9801078363084272  0.3872495868592765
  0.7969719177697030  0.8735563671818838  0.4176038973608627
  0.4858991970453133  0.0847545648582511  0.5980145247783213
  0.9577774971452797  0.4034334740426573  0.6548997112474453
  0.5397275084127671  0.5045328846062134  0.5898772933676568
  0.3921827206672219  0.0303796851800300  0.5569447514210424
  0.0325212962550836  0.3676138633130037  0.6191039094878761
  0.5743261595837055  0.6206375031146649  0.5781177419144470
  0.5353162331580918  0.0103722553006520  0.6076266380075239
  0.0094885410868315  0.5248270591397386  0.6534851095089209
  0.4175104895790156  0.4414265969632751  0.5882125676988608
  0.3851489130554029  0.9240740616471470  0.5288614574009500
  0.1235226128640434  0.4651022209074540  0.5922000719077687
  0.4700015565294464  0.6235789863126797  0.5552918382096692
  0.4755095725711982  0.9124923114404595  0.5579210808223607
  0.1107976437363334  0.5661285320525948  0.6107733700662195
  0.3717696855915875  0.5164940429503204  0.5670369664328234
  0.6450368677941825  0.0714879020692507  0.5818000825182850
  0.9382421211840466  0.5655601095929512  0.6211564943862484
  0.3768109849221943  0.3412642916181454  0.5515261070503641
  0.6724872948042702  0.9977226251659275  0.5354926753800910
  0.0048067042564099  0.6629485900892931  0.5737308642502228
  0.2760869760975808  0.3323497353273694  0.5119853454423478
  0.5543663793108635  0.9102781588748670  0.5134299153933952
  0.1097215801667915  0.6429767820996091  0.5630728635096744
  0.2752091249785025  0.4524134746759430  0.5155963110373847
  0.6606454797214951  0.1788714487096570  0.5491534014292299
  0.8502415052621757  0.4717715720927984  0.5883365049134355
  0.4809342914267560  0.3349611500563583  0.5124591415799671
  0.5640741482915033  0.1896613602343677  0.5597573438382355
  0.8641159231054232  0.3705631122367237  0.6072450077075047
  0.5790754631840400  0.4533863237783322  0.5367798354532098
  0.5006828964307246  0.2223491439196721  0.5063522842542127
  0.8784365316880525  0.3098538487900697  0.5570044457936092
  0.6412817195369271  0.5443995318505515  0.4938340123091294
  0.7275334119145285  0.2041450197299923  0.4833774355646909
  0.8467858541728859  0.4990998193219056  0.5185273850601106
  0.4422142474919823  0.3528347022412817  0.4452065149559132
  0.6445167203746749  0.1947296629882018  0.4290579795603051
  0.8545222657581348  0.4305263538910964  0.4693732876770937
  0.5059897238500071  0.4411211872673775  0.4014584619848023
  0.5451444844118072  0.2018143964821490  0.4383444634452758
  0.8487357919215270  0.3142626961048194  0.4860998823686131
  0.6110598781674312  0.5430871174426386  0.4253157733516701
  0.7305870157344501  0.0874412402909996  0.4783941899167417
  0.9426385671916506  0.6241900136040428  0.5065220794485015
  0.3157046819860838  0.3153693778399997  0.4428351847840020
  0.3589101016995784  0.0314652122348207  0.4439420431819059
  0.0475348936308677  0.3233575582390458  0.5045099545827014
  0.6168241455295060  0.7173241594011728  0.4721276750822909
  0.3832671037731572  0.1097714728039634  0.5059687089557769
  0.9698862954501237  0.2767132977320372  0.5655586578651324
  0.6613700286318149  0.6610721958212125  0.5236531250901990
  0.4579089509720546  0.1038844449068179  0.4007047166953086
  0.9700287919198871  0.3410622068301734  0.4582041681502886
  0.5991543761291069  0.6411342409948304  0.4110057550724378
  0.5013543039016568  0.0364979020958884  0.3707861714133927
  0.0294755119860994  0.4506987306152013  0.4329347003137514
  0.4870117463238799  0.5999635641117465  0.3830259663812043
  0.6200110126104121  0.0966824678766969  0.3843731668104269
  0.9580377728516396  0.5032061215158521  0.4281730538160105
  0.4344500079889571  0.4809579417355749  0.3672544693448145
  0.6496502440578737  0.0260606816466975  0.4224607674132770
  0.0181427127261244  0.6084909118691257  0.4597543930769774
  0.3271593595327644  0.4206449146058659  0.4047303846025017
  0.3783102053922391  0.9305743703659388  0.4593829263324878
  0.1551657809739382  0.4453841835660697  0.5222377230572732
  0.4925403557148798  0.6756992978807546  0.4901436669631209
  0.4562575270301963  0.9293229996605561  0.4141126481530790
  0.1309303797337265  0.5216887240806400  0.4736466699237170
  0.4207161810007136  0.6133717358526596  0.4369307277927987
  0.5487876160714364  0.9217261147391653  0.4435136547442156
  0.1174417504891778  0.6162452796703519  0.4937328236355683
  0.3213592245033752  0.5004046330415903  0.4471357450984570
 
  0.00000000E+00  0.00000000E+00  0.00000000E+00
  0.00000000E+00  0.00000000E+00  0.00000000E+00
  0.00000000E+00  0.00000000E+00  0.00000000E+00
  0.00000000E+00  0.00000000E+00  0.00000000E+00
  0.00000000E+00  0.00000000E+00  0.00000000E+00
  0.00000000E+00  0.00000000E+00  0.00000000E+00
  0.00000000E+00  0.00000000E+00  0.00000000E+00
  0.00000000E+00  0.00000000E+00  0.00000000E+00
  0.00000000E+00  0.00000000E+00  0.00000000E+00
  0.00000000E+00  0.00000000E+00  0.00000000E+00
  0.00000000E+00  0.00000000E+00  0.00000000E+00
  0.00000000E+00  0.00000000E+00  0.00000000E+00
  0.00000000E+00  0.00000000E+00  0.00000000E+00
  0.00000000E+00  0.00000000E+00  0.00000000E+00
  0.00000000E+00  0.00000000E+00  0.00000000E+00
  0.00000000E+00  0.00000000E+00  0.00000000E+00
  0.00000000E+00  0.00000000E+00  0.00000000E+00
  0.00000000E+00  0.00000000E+00  0.00000000E+00
  0.00000000E+00  0.00000000E+00  0.00000000E+00
  0.00000000E+00  0.00000000E+00  0.00000000E+00
  0.00000000E+00  0.00000000E+00  0.00000000E+00
  0.00000000E+00  0.00000000E+00  0.00000000E+00
  0.00000000E+00  0.00000000E+00  0.00000000E+00
  0.00000000E+00  0.00000000E+00  0.00000000E+00
  0.00000000E+00  0.00000000E+00  0.00000000E+00
  0.00000000E+00  0.00000000E+00  0.00000000E+00
  0.00000000E+00  0.00000000E+00  0.00000000E+00
  0.00000000E+00  0.00000000E+00  0.00000000E+00
  0.00000000E+00  0.00000000E+00  0.00000000E+00
  0.00000000E+00  0.00000000E+00  0.00000000E+00
  0.00000000E+00  0.00000000E+00  0.00000000E+00
  0.00000000E+00  0.00000000E+00  0.00000000E+00
  0.00000000E+00  0.00000000E+00  0.00000000E+00
  0.00000000E+00  0.00000000E+00  0.00000000E+00
  0.00000000E+00  0.00000000E+00  0.00000000E+00
  0.00000000E+00  0.00000000E+00  0.00000000E+00
  0.00000000E+00  0.00000000E+00  0.00000000E+00
  0.00000000E+00  0.00000000E+00  0.00000000E+00
  0.00000000E+00  0.00000000E+00  0.00000000E+00
  0.00000000E+00  0.00000000E+00  0.00000000E+00
  0.00000000E+00  0.00000000E+00  0.00000000E+00
  0.00000000E+00  0.00000000E+00  0.00000000E+00
  0.00000000E+00  0.00000000E+00  0.00000000E+00
  0.00000000E+00  0.00000000E+00  0.00000000E+00
  0.00000000E+00  0.00000000E+00  0.00000000E+00
  0.00000000E+00  0.00000000E+00  0.00000000E+00
  0.00000000E+00  0.00000000E+00  0.00000000E+00
  0.00000000E+00  0.00000000E+00  0.00000000E+00
  0.00000000E+00  0.00000000E+00  0.00000000E+00
  0.00000000E+00  0.00000000E+00  0.00000000E+00
  0.00000000E+00  0.00000000E+00  0.00000000E+00
  0.00000000E+00  0.00000000E+00  0.00000000E+00
  0.00000000E+00  0.00000000E+00  0.00000000E+00
  0.00000000E+00  0.00000000E+00  0.00000000E+00
  0.00000000E+00  0.00000000E+00  0.00000000E+00
  0.00000000E+00  0.00000000E+00  0.00000000E+00
  0.00000000E+00  0.00000000E+00  0.00000000E+00
  0.00000000E+00  0.00000000E+00  0.00000000E+00
  0.00000000E+00  0.00000000E+00  0.00000000E+00
  0.00000000E+00  0.00000000E+00  0.00000000E+00
  0.00000000E+00  0.00000000E+00  0.00000000E+00
  0.00000000E+00  0.00000000E+00  0.00000000E+00
  0.00000000E+00  0.00000000E+00  0.00000000E+00
  0.00000000E+00  0.00000000E+00  0.00000000E+00
  0.00000000E+00  0.00000000E+00  0.00000000E+00
  0.00000000E+00  0.00000000E+00  0.00000000E+00
  0.00000000E+00  0.00000000E+00  0.00000000E+00
  0.00000000E+00  0.00000000E+00  0.00000000E+00
  0.00000000E+00  0.00000000E+00  0.00000000E+00
  0.00000000E+00  0.00000000E+00  0.00000000E+00
  0.00000000E+00  0.00000000E+00  0.00000000E+00
  0.00000000E+00  0.00000000E+00  0.00000000E+00
  0.00000000E+00  0.00000000E+00  0.00000000E+00
  0.00000000E+00  0.00000000E+00  0.00000000E+00
  0.00000000E+00  0.00000000E+00  0.00000000E+00
  0.00000000E+00  0.00000000E+00  0.00000000E+00
  0.00000000E+00  0.00000000E+00  0.00000000E+00
  0.00000000E+00  0.00000000E+00  0.00000000E+00
  0.00000000E+00  0.00000000E+00  0.00000000E+00
  0.00000000E+00  0.00000000E+00  0.00000000E+00
  0.00000000E+00  0.00000000E+00  0.00000000E+00
  0.00000000E+00  0.00000000E+00  0.00000000E+00
  0.00000000E+00  0.00000000E+00  0.00000000E+00
  0.00000000E+00  0.00000000E+00  0.00000000E+00
  0.00000000E+00  0.00000000E+00  0.00000000E+00
  0.00000000E+00  0.00000000E+00  0.00000000E+00
  0.00000000E+00  0.00000000E+00  0.00000000E+00
  0.00000000E+00  0.00000000E+00  0.00000000E+00
  0.00000000E+00  0.00000000E+00  0.00000000E+00
  0.00000000E+00  0.00000000E+00  0.00000000E+00
  0.00000000E+00  0.00000000E+00  0.00000000E+00
  0.00000000E+00  0.00000000E+00  0.00000000E+00
  0.00000000E+00  0.00000000E+00  0.00000000E+00
  0.00000000E+00  0.00000000E+00  0.00000000E+00
  0.00000000E+00  0.00000000E+00  0.00000000E+00
  0.00000000E+00  0.00000000E+00  0.00000000E+00
  0.00000000E+00  0.00000000E+00  0.00000000E+00
  0.00000000E+00  0.00000000E+00  0.00000000E+00
  0.00000000E+00  0.00000000E+00  0.00000000E+00
  0.00000000E+00  0.00000000E+00  0.00000000E+00
  0.00000000E+00  0.00000000E+00  0.00000000E+00
  0.00000000E+00  0.00000000E+00  0.00000000E+00
  0.00000000E+00  0.00000000E+00  0.00000000E+00
  0.00000000E+00  0.00000000E+00  0.00000000E+00
  0.00000000E+00  0.00000000E+00  0.00000000E+00
  0.00000000E+00  0.00000000E+00  0.00000000E+00
  0.00000000E+00  0.00000000E+00  0.00000000E+00
  0.00000000E+00  0.00000000E+00  0.00000000E+00
