Generated by VASPKIT code               
   1.00000000000000     
    17.2448022475591713   -0.0049295379929725    0.0000000000000000
    -0.0048975737053674   17.2414936964590524    0.0000000000000000
     0.0000000000000013    0.0000000000000013   20.2257915375510677
  C             
   192
Direct
  0.3451324029987504  0.0276045493207846  0.5342396167820525
  0.9730338438206516  0.3449190084128730  0.5341038277493269
  0.3451768165604605  0.0276050947969750  0.4657658162776954
  0.9730843938026226  0.3449258217035549  0.4656698925629428
  0.3848742892759631  0.1009563592032379  0.4396822342624702
  0.8996294620747278  0.3841813841063697  0.4394639013022328
  0.3848193416674377  0.1009300304638998  0.5604004722040159
  0.8995535998933804  0.3841253234537163  0.5602519768406751
  0.4284143027943443  0.1269197423707382  0.5000517087167182
  0.8732632994492349  0.4274580620334802  0.4998369336631825
  0.4415310868373723  0.0612955429463540  0.6101960511708313
  0.9388788214849484  0.4411220723056744  0.6099892968890543
  0.3583722820678190  0.9624398041706215  0.5712968819263793
  0.0381266164850018  0.3584636907216279  0.5712521825740851
  0.4233408370889791  0.9814443827684372  0.6137724416615100
  0.0187646352274697  0.4233659415732518  0.6136877757263832
  0.3659949275997363  0.8828626278808045  0.5421307900882084
  0.1177028219753140  0.3666874104149471  0.5421734330066101
  0.3583794426432476  0.9624668167259429  0.4286379466873740
  0.0382463872643584  0.3584446154660483  0.4285831097300061
  0.3660458795524377  0.8828529002379710  0.4577579117692423
  0.1177698590239871  0.3667012736677222  0.4578289295656290
  0.4415672607319578  0.0613841953582863  0.3898476546559309
  0.9390166590870379  0.4411392100832217  0.3897547898890892
  0.4233699818885484  0.9815344999999951  0.3861947982304414
  0.0189301642708557  0.4233808218422226  0.3861713998214285
  0.5210767706823560  0.0810856839796585  0.3927978890808035
  0.9189588803699351  0.5205313541867795  0.3927096770553078
  0.5056870920622814  0.1461765587196737  0.5000625264408995
  0.8536232971795812  0.5046925714218631  0.4998643231017184
  0.5512539934895528  0.1344031848680061  0.4408766847001075
  0.8654337950138213  0.5503616349997387  0.4407370125328711
  0.5210461510359394  0.0809776593659777  0.6072665417845542
  0.9188080573788611  0.5205046217774196  0.6070820901270793
  0.5512364226753945  0.1342911989374258  0.5592332153037773
  0.8653258378586557  0.5503224261073782  0.5590344322841005
  0.5767178326906475  0.0183543928018040  0.6137743595763823
  0.9810928294702848  0.5765794224460450  0.6137128961401714
  0.4790156510894690  0.9188378536311959  0.6072055815380679
  0.0810585309281819  0.4794344264430634  0.6071997063503147
  0.4488132471577728  0.8655585165404531  0.5591350952632155
  0.1345803165320376  0.4495818028666889  0.5591882273196802
  0.5585261635016181  0.9385119312409032  0.6101390212198652
  0.0610102974065327  0.5588301926569628  0.6101520532843736
  0.4488457212007617  0.8656227921393125  0.4407894671245103
  0.1346984958700688  0.4496009625669473  0.4408637483662829
  0.4790492958430121  0.9189415735208897  0.3927297356533046
  0.0812182814438458  0.4794449046468614  0.3928129640360680
  0.4943831662156128  0.8537539798770766  0.4999559048495925
  0.1463710687783149  0.4952281351477410  0.5000499288797258
  0.5767563002874709  0.0184942727059223  0.3862304460825925
  0.9812556619256725  0.5766069925082178  0.3862111126860270
  0.5585658901034165  0.9386335153049714  0.3898201896982343
  0.0611527262100751  0.5588300176623804  0.3899115617296900
  0.6340638726962950  0.1170896353242412  0.4579184999412504
  0.8823384231091111  0.6332527657889315  0.4577780945899264
  0.6340445949006437  0.1170347836931711  0.5422806587087194
  0.8822670958528960  0.6332112354947768  0.5420775790977572
  0.6417215513202024  0.0374097047248867  0.5713561193256851
  0.9617859920103129  0.6415128141925521  0.5713099536032686
  0.6417109915376571  0.0375013073844030  0.4287339902575624
  0.9619022126057573  0.6415071652842954  0.4286530772014956
  0.6152004480677107  0.8989323751381306  0.5603068904086115
  0.1004019164798251  0.6157885708807598  0.5604416485574362
  0.5716703295780476  0.8730224368706487  0.4999379911803246
  0.1266964741597718  0.5724284650300007  0.5000894803900593
  0.6152988558409191  0.8989775157117066  0.4395876123376468
  0.1004954962022282  0.6157812058749457  0.4396811555918916
  0.6549632136671804  0.9722740433134192  0.5342392911676939
  0.0269517167610331  0.6550265411143528  0.5342206310378828
  0.6549774537498223  0.9723010364131568  0.4657583019625235
  0.0270202598576930  0.6550395312702975  0.4657926607628511
  0.3913055438761432  0.5183621548055228  0.5735956715401969
  0.1956727970429242  0.1762019742882757  0.6212364120958895
  0.8041298616443271  0.8235713233313504  0.6212761740598154
  0.8247711696544329  0.1948097905026032  0.6215300532006367
  0.1751467854175246  0.8054303020208025  0.6211143421650718
  0.4495886242464451  0.4712296808025229  0.6031125135250477
  0.2259862881306560  0.2489230191637901  0.6048683342765457
  0.7738349414820220  0.7508610839315253  0.6047416830720991
  0.7521331300804590  0.2250179053783867  0.6050415597966889
  0.2478203469378144  0.7751623307004820  0.6046926058460045
  0.4229165772140604  0.5932974884329241  0.5608648182061415
  0.1169178842848879  0.1646680243585834  0.6017314432196130
  0.8829110137443976  0.8351218300566998  0.6019012706776223
  0.8362052216713849  0.1160238510993281  0.6020042426229892
  0.1637222226378725  0.8841167310361726  0.6013943381063456
  0.5235029641661413  0.5116964722915398  0.6002763182334689
  0.1636455230016622  0.2896062158560113  0.5607443711664359
  0.8362666006865140  0.7102817139588637  0.5606759106677401
  0.7113908846104806  0.1626553525718180  0.5609530653577224
  0.2886014015439784  0.8373433138541913  0.5605391484669795
  0.5092122766712066  0.5883080794379865  0.5748604587390318
  0.0964989535373846  0.2297076676837833  0.5610547990769135
  0.9034601721176401  0.7700769328453845  0.5612216151598588
  0.7711621692325537  0.0954920716001908  0.5613565445253954
  0.2287762572215470  0.9045004165706771  0.5606926646386512
  0.4155391132421613  0.6119325786350203  0.4928993901537950
  0.1157004584538939  0.1005588985777877  0.5570421276251736
  0.8842597725913066  0.8992724162182739  0.5572748456422829
  0.9002552710785636  0.1148203106147463  0.5573218796569748
  0.0996808745579045  0.8852031988016407  0.5566835776217687
  0.4890459394351581  0.6335704491072320  0.4662374096836928
  0.0724086983306336  0.1184584691688499  0.4998950770694819
  0.9276637198202096  0.8813678044699245  0.5001882539068987
  0.8823253957819333  0.0713183735744138  0.5002406408786797
  0.1176669583682326  0.9285324329269571  0.4995312753437915
  0.5486128677094158  0.6117021498717250  0.5168715934284762
  0.0646410679094558  0.2031387061432426  0.4999166280155904
  0.9354293261713522  0.7967152422087977  0.5001726809390945
  0.7976376021220304  0.0634887728730789  0.5003009588476957
  0.2023636086316856  0.9364242871160613  0.4995854530173460
  0.3915902247981435  0.5377397744600572  0.4581175550826160
  0.1969128933057220  0.0826421157007573  0.5379933028185704
  0.8030640349914293  0.9171686295854045  0.5381002079701460
  0.9181687136032153  0.1960625158189231  0.5382256972460340
  0.0817440535666449  0.8038782667729336  0.5377538385245515
  0.3779750412562493  0.4811903243313864  0.5071783750115131
  0.2445208558893341  0.1184837066883944  0.5875433532576153
  0.7553584467254879  0.8813389281697255  0.5875961029913483
  0.8825067243890246  0.2437277732682830  0.5878109226566508
  0.1174575902326751  0.7563836406824791  0.5874146530206943
  0.4214062815672506  0.4084463087123495  0.5048461929569399
  0.3194586526252010  0.1536841761746430  0.5766667309150506
  0.6804791799539203  0.8461134095863088  0.5765414506417699
  0.8472104062118504  0.3186184742704015  0.5768791884822591
  0.1527706448371902  0.6814323249721426  0.5767242818874720
  0.4498976883114025  0.5223754688635935  0.4085337338147710
  0.1969605448736473  0.0826033779717221  0.4618958705161376
  0.8031679033062176  0.9171638483642255  0.4619795015552768
  0.9182556392036645  0.1959857900390958  0.4620632958911202
  0.0819705049439534  0.8037380231792497  0.4616197203922994
  0.4913892611843664  0.4488007386229782  0.4049421041847268
  0.2446506881452351  0.1184155434523646  0.4123801534917959
  0.7555996745678328  0.8814334136763691  0.4123476542182090
  0.8824893370604272  0.2435778408407430  0.4124863414348923
  0.1177236281526959  0.7560719465721064  0.4121183359053546
  0.4760730397235378  0.3911252382084669  0.4526713282937678
  0.3195230335612891  0.1536846023293208  0.4234292012532421
  0.6806414976742161  0.8462147297864462  0.4232644221993809
  0.8472578792002992  0.3185555014102661  0.4231941186649948
  0.1530065167059078  0.6811981741581832  0.4231896274328690
  0.5065019951218730  0.5844127771000132  0.4114907419240197
  0.1157387123121154  0.1005089049348058  0.4427708767065752
  0.8844146401356667  0.8992868529634848  0.4429956862415096
  0.9002119953146490  0.1147228363006079  0.4431168124493183
  0.0998723243756814  0.8849750868087867  0.4424740204850153
  0.5416035959633589  0.3842496986769817  0.5545295287171754
  0.2879519472613978  0.2638741026353983  0.5001124046515812
  0.7121006210411167  0.7360142770225480  0.4998638728770288
  0.7373560468274221  0.2868126740768915  0.5002353335100338
  0.2630797781854142  0.7129503949597833  0.4999635674351026
  0.4613467859181526  0.3989695530950783  0.5672267389823133
  0.2998255076989125  0.2337629197195383  0.5677152117536224
  0.7000955589219160  0.7660483451067037  0.5675025741208799
  0.7672994233625516  0.2988618983731470  0.5678235116041819
  0.2326002105546507  0.7014338860847502  0.5674516927467437
  0.5524485064471989  0.3715240979067573  0.4857295791500178
  0.2998845469992872  0.2337274199212871  0.4324835603883912
  0.7002981719461445  0.7661978529275544  0.4322822266095017
  0.7674189543419487  0.2985913451823876  0.4326683030234761
  0.2328676654216153  0.7010036155979407  0.4323756599454569
  0.6083159299800229  0.4245940222324691  0.4602842359648633
  0.2261424904961444  0.2489031983264383  0.3953000998694449
  0.7741661869004233  0.7510364139259735  0.3951576109689938
  0.7520409791424356  0.2249006777288542  0.3953733766922483
  0.2480880599993256  0.7747501667886354  0.3950843034707816
  0.5770922847196331  0.4654968224521028  0.4054571007365766
  0.1958405050686949  0.1762017832451477  0.3787454851967738
  0.8044948797368079  0.8237130150878187  0.3787056841053555
  0.8246778146628202  0.1946023899716778  0.3788661381477851
  0.1754794510316557  0.8049506144611698  0.3784095240777674
  0.5817145065938973  0.5468415348934101  0.4179993829288833
  0.1170868269180829  0.1646825747332770  0.3981930032764467
  0.8832401662885374  0.8352087829677899  0.3983072801942811
  0.8360959496683904  0.1158880452517153  0.3984819628248886
  0.1640059709858832  0.8837523049097058  0.3978513687653091
  0.5805938352903794  0.4597342765802495  0.5704435419591221
  0.2095414292258866  0.2816561555113992  0.5000809137794633
  0.7905125598602964  0.7182614004424153  0.4999318317929706
  0.7195150692003054  0.2084826109323146  0.5002497416985321
  0.2805756817152698  0.7914331059067763  0.4998992206022379
  0.6226178091101957  0.4842101564809340  0.5142210826250064
  0.1637492692491804  0.2895667751316964  0.4393435157526966
  0.8364343697005978  0.7103361644405410  0.4392771587115831
  0.7113497215029341  0.1626669254179376  0.4395389759749051
  0.2887042671039950  0.8371609949391967  0.4391546172964880
  0.6046125740807895  0.5589812967022567  0.4862389450013467
  0.0965541914230315  0.2297605737472139  0.4388683639284636
  0.9036445671288504  0.7701641710853551  0.4389976833532216
  0.7711155767721110  0.0954864807392894  0.4392445844943893
  0.2289471343010376  0.9043287074104711  0.4386048652831533
 
  0.00000000E+00  0.00000000E+00  0.00000000E+00
  0.00000000E+00  0.00000000E+00  0.00000000E+00
  0.00000000E+00  0.00000000E+00  0.00000000E+00
  0.00000000E+00  0.00000000E+00  0.00000000E+00
  0.00000000E+00  0.00000000E+00  0.00000000E+00
  0.00000000E+00  0.00000000E+00  0.00000000E+00
  0.00000000E+00  0.00000000E+00  0.00000000E+00
  0.00000000E+00  0.00000000E+00  0.00000000E+00
  0.00000000E+00  0.00000000E+00  0.00000000E+00
  0.00000000E+00  0.00000000E+00  0.00000000E+00
  0.00000000E+00  0.00000000E+00  0.00000000E+00
  0.00000000E+00  0.00000000E+00  0.00000000E+00
  0.00000000E+00  0.00000000E+00  0.00000000E+00
  0.00000000E+00  0.00000000E+00  0.00000000E+00
  0.00000000E+00  0.00000000E+00  0.00000000E+00
  0.00000000E+00  0.00000000E+00  0.00000000E+00
  0.00000000E+00  0.00000000E+00  0.00000000E+00
  0.00000000E+00  0.00000000E+00  0.00000000E+00
  0.00000000E+00  0.00000000E+00  0.00000000E+00
  0.00000000E+00  0.00000000E+00  0.00000000E+00
  0.00000000E+00  0.00000000E+00  0.00000000E+00
  0.00000000E+00  0.00000000E+00  0.00000000E+00
  0.00000000E+00  0.00000000E+00  0.00000000E+00
  0.00000000E+00  0.00000000E+00  0.00000000E+00
  0.00000000E+00  0.00000000E+00  0.00000000E+00
  0.00000000E+00  0.00000000E+00  0.00000000E+00
  0.00000000E+00  0.00000000E+00  0.00000000E+00
  0.00000000E+00  0.00000000E+00  0.00000000E+00
  0.00000000E+00  0.00000000E+00  0.00000000E+00
  0.00000000E+00  0.00000000E+00  0.00000000E+00
  0.00000000E+00  0.00000000E+00  0.00000000E+00
  0.00000000E+00  0.00000000E+00  0.00000000E+00
  0.00000000E+00  0.00000000E+00  0.00000000E+00
  0.00000000E+00  0.00000000E+00  0.00000000E+00
  0.00000000E+00  0.00000000E+00  0.00000000E+00
  0.00000000E+00  0.00000000E+00  0.00000000E+00
  0.00000000E+00  0.00000000E+00  0.00000000E+00
  0.00000000E+00  0.00000000E+00  0.00000000E+00
  0.00000000E+00  0.00000000E+00  0.00000000E+00
  0.00000000E+00  0.00000000E+00  0.00000000E+00
  0.00000000E+00  0.00000000E+00  0.00000000E+00
  0.00000000E+00  0.00000000E+00  0.00000000E+00
  0.00000000E+00  0.00000000E+00  0.00000000E+00
  0.00000000E+00  0.00000000E+00  0.00000000E+00
  0.00000000E+00  0.00000000E+00  0.00000000E+00
  0.00000000E+00  0.00000000E+00  0.00000000E+00
  0.00000000E+00  0.00000000E+00  0.00000000E+00
  0.00000000E+00  0.00000000E+00  0.00000000E+00
  0.00000000E+00  0.00000000E+00  0.00000000E+00
  0.00000000E+00  0.00000000E+00  0.00000000E+00
  0.00000000E+00  0.00000000E+00  0.00000000E+00
  0.00000000E+00  0.00000000E+00  0.00000000E+00
  0.00000000E+00  0.00000000E+00  0.00000000E+00
  0.00000000E+00  0.00000000E+00  0.00000000E+00
  0.00000000E+00  0.00000000E+00  0.00000000E+00
  0.00000000E+00  0.00000000E+00  0.00000000E+00
  0.00000000E+00  0.00000000E+00  0.00000000E+00
  0.00000000E+00  0.00000000E+00  0.00000000E+00
  0.00000000E+00  0.00000000E+00  0.00000000E+00
  0.00000000E+00  0.00000000E+00  0.00000000E+00
  0.00000000E+00  0.00000000E+00  0.00000000E+00
  0.00000000E+00  0.00000000E+00  0.00000000E+00
  0.00000000E+00  0.00000000E+00  0.00000000E+00
  0.00000000E+00  0.00000000E+00  0.00000000E+00
  0.00000000E+00  0.00000000E+00  0.00000000E+00
  0.00000000E+00  0.00000000E+00  0.00000000E+00
  0.00000000E+00  0.00000000E+00  0.00000000E+00
  0.00000000E+00  0.00000000E+00  0.00000000E+00
  0.00000000E+00  0.00000000E+00  0.00000000E+00
  0.00000000E+00  0.00000000E+00  0.00000000E+00
  0.00000000E+00  0.00000000E+00  0.00000000E+00
  0.00000000E+00  0.00000000E+00  0.00000000E+00
  0.00000000E+00  0.00000000E+00  0.00000000E+00
  0.00000000E+00  0.00000000E+00  0.00000000E+00
  0.00000000E+00  0.00000000E+00  0.00000000E+00
  0.00000000E+00  0.00000000E+00  0.00000000E+00
  0.00000000E+00  0.00000000E+00  0.00000000E+00
  0.00000000E+00  0.00000000E+00  0.00000000E+00
  0.00000000E+00  0.00000000E+00  0.00000000E+00
  0.00000000E+00  0.00000000E+00  0.00000000E+00
  0.00000000E+00  0.00000000E+00  0.00000000E+00
  0.00000000E+00  0.00000000E+00  0.00000000E+00
  0.00000000E+00  0.00000000E+00  0.00000000E+00
  0.00000000E+00  0.00000000E+00  0.00000000E+00
  0.00000000E+00  0.00000000E+00  0.00000000E+00
  0.00000000E+00  0.00000000E+00  0.00000000E+00
  0.00000000E+00  0.00000000E+00  0.00000000E+00
  0.00000000E+00  0.00000000E+00  0.00000000E+00
  0.00000000E+00  0.00000000E+00  0.00000000E+00
  0.00000000E+00  0.00000000E+00  0.00000000E+00
  0.00000000E+00  0.00000000E+00  0.00000000E+00
  0.00000000E+00  0.00000000E+00  0.00000000E+00
  0.00000000E+00  0.00000000E+00  0.00000000E+00
  0.00000000E+00  0.00000000E+00  0.00000000E+00
  0.00000000E+00  0.00000000E+00  0.00000000E+00
  0.00000000E+00  0.00000000E+00  0.00000000E+00
  0.00000000E+00  0.00000000E+00  0.00000000E+00
  0.00000000E+00  0.00000000E+00  0.00000000E+00
  0.00000000E+00  0.00000000E+00  0.00000000E+00
  0.00000000E+00  0.00000000E+00  0.00000000E+00
  0.00000000E+00  0.00000000E+00  0.00000000E+00
  0.00000000E+00  0.00000000E+00  0.00000000E+00
  0.00000000E+00  0.00000000E+00  0.00000000E+00
  0.00000000E+00  0.00000000E+00  0.00000000E+00
  0.00000000E+00  0.00000000E+00  0.00000000E+00
  0.00000000E+00  0.00000000E+00  0.00000000E+00
  0.00000000E+00  0.00000000E+00  0.00000000E+00
  0.00000000E+00  0.00000000E+00  0.00000000E+00
  0.00000000E+00  0.00000000E+00  0.00000000E+00
  0.00000000E+00  0.00000000E+00  0.00000000E+00
  0.00000000E+00  0.00000000E+00  0.00000000E+00
  0.00000000E+00  0.00000000E+00  0.00000000E+00
  0.00000000E+00  0.00000000E+00  0.00000000E+00
  0.00000000E+00  0.00000000E+00  0.00000000E+00
  0.00000000E+00  0.00000000E+00  0.00000000E+00
  0.00000000E+00  0.00000000E+00  0.00000000E+00
  0.00000000E+00  0.00000000E+00  0.00000000E+00
  0.00000000E+00  0.00000000E+00  0.00000000E+00
  0.00000000E+00  0.00000000E+00  0.00000000E+00
  0.00000000E+00  0.00000000E+00  0.00000000E+00
  0.00000000E+00  0.00000000E+00  0.00000000E+00
  0.00000000E+00  0.00000000E+00  0.00000000E+00
  0.00000000E+00  0.00000000E+00  0.00000000E+00
  0.00000000E+00  0.00000000E+00  0.00000000E+00
  0.00000000E+00  0.00000000E+00  0.00000000E+00
  0.00000000E+00  0.00000000E+00  0.00000000E+00
  0.00000000E+00  0.00000000E+00  0.00000000E+00
  0.00000000E+00  0.00000000E+00  0.00000000E+00
  0.00000000E+00  0.00000000E+00  0.00000000E+00
  0.00000000E+00  0.00000000E+00  0.00000000E+00
  0.00000000E+00  0.00000000E+00  0.00000000E+00
  0.00000000E+00  0.00000000E+00  0.00000000E+00
  0.00000000E+00  0.00000000E+00  0.00000000E+00
  0.00000000E+00  0.00000000E+00  0.00000000E+00
  0.00000000E+00  0.00000000E+00  0.00000000E+00
  0.00000000E+00  0.00000000E+00  0.00000000E+00
  0.00000000E+00  0.00000000E+00  0.00000000E+00
  0.00000000E+00  0.00000000E+00  0.00000000E+00
  0.00000000E+00  0.00000000E+00  0.00000000E+00
  0.00000000E+00  0.00000000E+00  0.00000000E+00
  0.00000000E+00  0.00000000E+00  0.00000000E+00
  0.00000000E+00  0.00000000E+00  0.00000000E+00
  0.00000000E+00  0.00000000E+00  0.00000000E+00
  0.00000000E+00  0.00000000E+00  0.00000000E+00
  0.00000000E+00  0.00000000E+00  0.00000000E+00
  0.00000000E+00  0.00000000E+00  0.00000000E+00
  0.00000000E+00  0.00000000E+00  0.00000000E+00
  0.00000000E+00  0.00000000E+00  0.00000000E+00
  0.00000000E+00  0.00000000E+00  0.00000000E+00
  0.00000000E+00  0.00000000E+00  0.00000000E+00
  0.00000000E+00  0.00000000E+00  0.00000000E+00
  0.00000000E+00  0.00000000E+00  0.00000000E+00
  0.00000000E+00  0.00000000E+00  0.00000000E+00
  0.00000000E+00  0.00000000E+00  0.00000000E+00
  0.00000000E+00  0.00000000E+00  0.00000000E+00
  0.00000000E+00  0.00000000E+00  0.00000000E+00
  0.00000000E+00  0.00000000E+00  0.00000000E+00
  0.00000000E+00  0.00000000E+00  0.00000000E+00
  0.00000000E+00  0.00000000E+00  0.00000000E+00
  0.00000000E+00  0.00000000E+00  0.00000000E+00
  0.00000000E+00  0.00000000E+00  0.00000000E+00
  0.00000000E+00  0.00000000E+00  0.00000000E+00
  0.00000000E+00  0.00000000E+00  0.00000000E+00
  0.00000000E+00  0.00000000E+00  0.00000000E+00
  0.00000000E+00  0.00000000E+00  0.00000000E+00
  0.00000000E+00  0.00000000E+00  0.00000000E+00
  0.00000000E+00  0.00000000E+00  0.00000000E+00
  0.00000000E+00  0.00000000E+00  0.00000000E+00
  0.00000000E+00  0.00000000E+00  0.00000000E+00
  0.00000000E+00  0.00000000E+00  0.00000000E+00
  0.00000000E+00  0.00000000E+00  0.00000000E+00
  0.00000000E+00  0.00000000E+00  0.00000000E+00
  0.00000000E+00  0.00000000E+00  0.00000000E+00
  0.00000000E+00  0.00000000E+00  0.00000000E+00
  0.00000000E+00  0.00000000E+00  0.00000000E+00
  0.00000000E+00  0.00000000E+00  0.00000000E+00
  0.00000000E+00  0.00000000E+00  0.00000000E+00
  0.00000000E+00  0.00000000E+00  0.00000000E+00
  0.00000000E+00  0.00000000E+00  0.00000000E+00
  0.00000000E+00  0.00000000E+00  0.00000000E+00
  0.00000000E+00  0.00000000E+00  0.00000000E+00
  0.00000000E+00  0.00000000E+00  0.00000000E+00
  0.00000000E+00  0.00000000E+00  0.00000000E+00
  0.00000000E+00  0.00000000E+00  0.00000000E+00
  0.00000000E+00  0.00000000E+00  0.00000000E+00
  0.00000000E+00  0.00000000E+00  0.00000000E+00
  0.00000000E+00  0.00000000E+00  0.00000000E+00
  0.00000000E+00  0.00000000E+00  0.00000000E+00
  0.00000000E+00  0.00000000E+00  0.00000000E+00
  0.00000000E+00  0.00000000E+00  0.00000000E+00
  0.00000000E+00  0.00000000E+00  0.00000000E+00
  0.00000000E+00  0.00000000E+00  0.00000000E+00
