Generated by VASPKIT code               
   1.00000000000000     
    10.5655344367722250   -0.1053953456472841    0.0000000000000000
    -5.3714716956930770    9.2127944253432688    0.0000000000000000
     0.0000000000000013    0.0000000000000023   20.2208020779655087
  C             
    60
Direct
  0.9109025248880442  0.8418528403091585  0.6315323447299050
  0.0678287170657015  0.9301844590589639  0.6279367514908927
  0.1168748343563593  0.8863816434744294  0.5696155264753315
  0.8532159441500795  0.7262348932575762  0.5730000411373766
  0.9945999409903976  0.7838112228098169  0.5343266382836518
  0.7563688235922683  0.7664731616506302  0.5344055134864831
  0.8387549848553277  0.9230701502124390  0.6275272121002118
  0.7433849022610346  0.8729928615726692  0.5690933559391809
  0.9098087182639603  0.0781246985100950  0.6305143992924869
  0.1510772204353259  0.0848929865011812  0.6304878945008312
  0.0663531193128222  0.1528709390763083  0.6269988080679170
  0.2215291109715452  0.0074289490543080  0.5338441125515700
  0.2711520821596523  0.1474992382334648  0.5713093353634520
  0.2215665195830070  0.0074542711015440  0.4661444663249199
  0.9946274250226068  0.7838800651496811  0.4656572322163086
  0.1169085690285598  0.8864147184946560  0.4303707844313962
  0.7563954836525681  0.7665030447916124  0.4655795055893250
  0.8532389305095478  0.7262702228911024  0.4270006098427430
  0.7434166549995780  0.8730508622961892  0.4308912599582726
  0.7589629231246491  0.9929674339063084  0.5342515447850786
  0.8505896487792342  0.1327590685493760  0.5726871671624068
  0.7589758766095471  0.9929825433804922  0.4657421054074788
  0.1146757382334371  0.2480141655561496  0.5689054419748771
  0.2268852884324417  0.2423565799290799  0.5343373559177991
  0.9912760377558598  0.2275462568563711  0.5341034350713372
  0.2711945153663962  0.1475446339133200  0.4286940794223781
  0.2269074677720155  0.2423889904961314  0.4656793949957816
  0.0678560240439978  0.9302427043355479  0.3720553045812238
  0.9109295574019853  0.8418999382314496  0.3684498527404827
  0.8387973563658022  0.9231321788234510  0.3724655586842616
  0.1511180809002752  0.0849622082051411  0.3695153133102664
  0.8506258129164834  0.1328073636206213  0.4273266177685713
  0.9912846885842370  0.2275651159602674  0.4659207283052282
  0.1147110730853313  0.2480503940692245  0.4311185743729808
  0.9098506174431051  0.0781963738159916  0.3694887949473156
  0.0663900221480347  0.1529405826200829  0.3730124603642722
  0.6368790269673923  0.1973448511735967  0.6074560438547962
  0.6643257553172290  0.3380156108747130  0.6224519718676476
  0.5030731568194611  0.1288468975830597  0.5687347028057275
  0.5502953405069206  0.3556947653600204  0.5867065231080844
  0.4294571451725204  0.2097608485379041  0.5773840344423817
  0.5423704009964965  0.1090663186883489  0.4999899898610849
  0.5031326587288802  0.1289210087971284  0.4312374685806759
  0.4295082077480927  0.2098220321516990  0.4225959940771773
  0.6931840470230313  0.1746849263347912  0.5000052323293929
  0.7691948463743543  0.2186675578779216  0.5679957802290829
  0.8672957923270346  0.3847963105880865  0.5640667673820658
  0.7692540100189262  0.2187333676431606  0.4320362034551408
  0.8673665033209517  0.3848480291305165  0.4360060193833135
  0.9125423234322483  0.4555949043458227  0.5000422131440558
  0.6369849741649887  0.1974651794644942  0.3925502398325875
  0.7918315658595247  0.5599229129569423  0.5621883451401075
  0.8076491086716970  0.4502344877877320  0.6029050445652686
  0.8664194985023528  0.5555818950719029  0.5000432347044210
  0.7918873187747053  0.5599739031478492  0.4378800277673136
  0.8077467858722400  0.4503194949779044  0.3971677915201894
  0.6644363960166046  0.3381378066407024  0.3775879453782167
  0.6278737431148116  0.4630044037838914  0.5369746209966237
  0.6278942315288916  0.4630283278882530  0.4630799875367586
  0.5503699276794123  0.3557783984786909  0.4133302276136774
 
  0.00000000E+00  0.00000000E+00  0.00000000E+00
  0.00000000E+00  0.00000000E+00  0.00000000E+00
  0.00000000E+00  0.00000000E+00  0.00000000E+00
  0.00000000E+00  0.00000000E+00  0.00000000E+00
  0.00000000E+00  0.00000000E+00  0.00000000E+00
  0.00000000E+00  0.00000000E+00  0.00000000E+00
  0.00000000E+00  0.00000000E+00  0.00000000E+00
  0.00000000E+00  0.00000000E+00  0.00000000E+00
  0.00000000E+00  0.00000000E+00  0.00000000E+00
  0.00000000E+00  0.00000000E+00  0.00000000E+00
  0.00000000E+00  0.00000000E+00  0.00000000E+00
  0.00000000E+00  0.00000000E+00  0.00000000E+00
  0.00000000E+00  0.00000000E+00  0.00000000E+00
  0.00000000E+00  0.00000000E+00  0.00000000E+00
  0.00000000E+00  0.00000000E+00  0.00000000E+00
  0.00000000E+00  0.00000000E+00  0.00000000E+00
  0.00000000E+00  0.00000000E+00  0.00000000E+00
  0.00000000E+00  0.00000000E+00  0.00000000E+00
  0.00000000E+00  0.00000000E+00  0.00000000E+00
  0.00000000E+00  0.00000000E+00  0.00000000E+00
  0.00000000E+00  0.00000000E+00  0.00000000E+00
  0.00000000E+00  0.00000000E+00  0.00000000E+00
  0.00000000E+00  0.00000000E+00  0.00000000E+00
  0.00000000E+00  0.00000000E+00  0.00000000E+00
  0.00000000E+00  0.00000000E+00  0.00000000E+00
  0.00000000E+00  0.00000000E+00  0.00000000E+00
  0.00000000E+00  0.00000000E+00  0.00000000E+00
  0.00000000E+00  0.00000000E+00  0.00000000E+00
  0.00000000E+00  0.00000000E+00  0.00000000E+00
  0.00000000E+00  0.00000000E+00  0.00000000E+00
  0.00000000E+00  0.00000000E+00  0.00000000E+00
  0.00000000E+00  0.00000000E+00  0.00000000E+00
  0.00000000E+00  0.00000000E+00  0.00000000E+00
  0.00000000E+00  0.00000000E+00  0.00000000E+00
  0.00000000E+00  0.00000000E+00  0.00000000E+00
  0.00000000E+00  0.00000000E+00  0.00000000E+00
  0.00000000E+00  0.00000000E+00  0.00000000E+00
  0.00000000E+00  0.00000000E+00  0.00000000E+00
  0.00000000E+00  0.00000000E+00  0.00000000E+00
  0.00000000E+00  0.00000000E+00  0.00000000E+00
  0.00000000E+00  0.00000000E+00  0.00000000E+00
  0.00000000E+00  0.00000000E+00  0.00000000E+00
  0.00000000E+00  0.00000000E+00  0.00000000E+00
  0.00000000E+00  0.00000000E+00  0.00000000E+00
  0.00000000E+00  0.00000000E+00  0.00000000E+00
  0.00000000E+00  0.00000000E+00  0.00000000E+00
  0.00000000E+00  0.00000000E+00  0.00000000E+00
  0.00000000E+00  0.00000000E+00  0.00000000E+00
  0.00000000E+00  0.00000000E+00  0.00000000E+00
  0.00000000E+00  0.00000000E+00  0.00000000E+00
  0.00000000E+00  0.00000000E+00  0.00000000E+00
  0.00000000E+00  0.00000000E+00  0.00000000E+00
  0.00000000E+00  0.00000000E+00  0.00000000E+00
  0.00000000E+00  0.00000000E+00  0.00000000E+00
  0.00000000E+00  0.00000000E+00  0.00000000E+00
  0.00000000E+00  0.00000000E+00  0.00000000E+00
  0.00000000E+00  0.00000000E+00  0.00000000E+00
  0.00000000E+00  0.00000000E+00  0.00000000E+00
  0.00000000E+00  0.00000000E+00  0.00000000E+00
  0.00000000E+00  0.00000000E+00  0.00000000E+00
