Generated by VASPKIT code               
   1.00000000000000     
    12.4689105485513281    0.0273965522774945    0.0000000000000000
     0.0300547676618032   13.0731924588000847    0.0000000000000000
     0.0000000000000012    0.0000000000000013   20.2273749300146619
  C             
   108
Direct
  0.1263556940776098  0.2307531836122863  0.4781525168227461
  0.0480792877888803  0.1782044600921679  0.4350188536056265
  0.0855014550257707  0.0833106036516611  0.4086461597801119
  0.2215233762530886  0.1376687132851586  0.4913516923353285
  0.1765656551820882  0.0532378414447336  0.4449706084415013
  0.1882843249571877  0.1021152778281120  0.5606716222284405
  0.0732935537955797  0.2417056165611982  0.5470611258357252
  0.1137463126420712  0.1630552916907533  0.5926900947488534
  0.9480044735960149  0.2355555577774808  0.5572301421772892
  0.9360516106280272  0.1730860928059315  0.4428681112975994
  0.8706451381565543  0.2180604053308244  0.4983512309515703
  0.9932510695377346  0.0192804303136924  0.3965074397287083
  0.9018492322595009  0.0765130252175652  0.4193334320210411
  0.0026931709590485  0.9150408573874813  0.4143543544442494
  0.1826514870530573  0.9482552917385121  0.4625129209076562
  0.1031860363714401  0.8802118249559001  0.4430383466085530
  0.1958136295122870  0.9981385566073300  0.5794638084679349
  0.2278969715598009  0.9148867480214662  0.5295697455162198
  0.1313073673584597  0.9581471111273814  0.6291943356207526
  0.0299327067146251  0.1180954221814901  0.6322128576907815
  0.9297019307547458  0.1538145247661262  0.6056204172299076
  0.0396070437327438  0.0151300478769016  0.6521893780106041
  0.7955405238873752  0.1222140305427359  0.5192513911343326
  0.8134305716394010  0.0359278122756308  0.4622037591403867
  0.8482302471819878  0.0883986865883841  0.5852049668209318
  0.9217317101956439  0.8698707232805347  0.4538766635114513
  0.8466171063438637  0.9329303374397995  0.4869028947146603
  0.0829867243840638  0.8072789712799775  0.4963653515126296
  0.1512436515432540  0.8284169310770935  0.5501815452209513
  0.1001158765410182  0.8535175976898373  0.6109445207779842
  0.9707524499662981  0.8025508662902183  0.5034954637457858
  0.9494531623008768  0.9488333885961424  0.6431314983521474
  0.8605265141995062  0.9831359857377606  0.6035128257578677
  0.8455069682110974  0.9055039077561133  0.5541056160169973
  0.9875268277545288  0.8485101318852699  0.6198668408981121
  0.9225232477872041  0.8221118546218236  0.5647600707477949
  0.6669433755882253  0.5235032027193824  0.4469441028600869
  0.5187940258800054  0.8254534613844839  0.5248660965845673
  0.1666938291854407  0.5182625084907855  0.5229521317464005
  0.6667659685898855  0.4492656314070729  0.5072447911963565
  0.4381490587232832  0.8623842599401996  0.5680263004543846
  0.1057734704993933  0.4543747461225962  0.5717523928601906
  0.5999698196108767  0.4704593172180580  0.3963941009524703
  0.4890037971985777  0.8320966230134772  0.4557712751646150
  0.1715107861705363  0.4536064273141349  0.4573289371078388
  0.5884405234233583  0.3641914629846212  0.4909884775127367
  0.3516844131183845  0.9148195102076215  0.5231221001546231
  0.0643563555778783  0.3584071500991470  0.5404968859453732
  0.5534191114860647  0.3773810926364476  0.4246100332162968
  0.4013640841132613  0.8991256257695639  0.4534712765344011
  0.1059424297349523  0.3539808993065066  0.4654551246034089
  0.5215449119295883  0.5328410710958238  0.3687210593966768
  0.5779884228545242  0.8770120878449106  0.4188208888255147
  0.1087860379843022  0.5169942513910186  0.4099868448239050
  0.4226292632689876  0.4770178130708658  0.3691457539748271
  0.5404137705197272  0.9668237942212556  0.3862563391967768
  0.0378743153474090  0.4645519256462123  0.3689855611591852
  0.4423626746490328  0.3783257007898655  0.4082570110369801
  0.4295883408821481  0.9846343041492958  0.4102064274809862
  0.0186531138335155  0.3766207365930256  0.4132636812272210
  0.5079534211055616  0.6186499574153075  0.4196357692382620
  0.6494787975780838  0.9161144866112068  0.4678214722231999
  0.0615157337684593  0.6058947816832898  0.4396415392421460
  0.5904111324344896  0.6109330876208219  0.4671792488339221
  0.6172486644626503  0.8839630872520630  0.5317490605623405
  0.0860046133889654  0.6042375195625596  0.5084460955130794
  0.5627480789900687  0.6012975734691111  0.5355131827940625
  0.5971795311050769  0.9581765781058493  0.5844206376406689
  0.0027194228140672  0.6025240861929575  0.5555336118477072
  0.3984370837477016  0.6163980022928897  0.4412974164019730
  0.6867909252642690  0.0249322762845239  0.4517741006806659
  0.9525316430257078  0.6061329209445390  0.4158214853582436
  0.3704220844009640  0.6114229774126088  0.5095794369462041
  0.6665129430281382  0.1069916583537776  0.5110532340653648
  0.8682563149444462  0.6050174157716270  0.4637374967923691
  0.4532855480915146  0.6016316971550566  0.5570153312438038
  0.6099366630214789  0.0637453522271088  0.5714267196709457
  0.8942485220579357  0.5981932160358738  0.5315555378637669
  0.3473279843900343  0.5309149910753916  0.4054996058519009
  0.6060970561915440  0.0538082473688277  0.3966670174184799
  0.9399524917033517  0.5239997902581948  0.3648942796166494
  0.5337982772425534  0.4464790425700471  0.5940121165658283
  0.4335118505643294  0.0347358673591813  0.5978991668260747
  0.9208808585347441  0.4484921066259275  0.5930459485762896
  0.6086015710401185  0.5057029741234444  0.5606284719942636
  0.4871947086530497  0.9382769185077393  0.6077636475891026
  0.0186146861324161  0.5077853455609187  0.5951274131683704
  0.4362951381133087  0.5061197922108818  0.5989948802186831
  0.5092118206432872  0.1156459071524978  0.5835606392917541
  0.8465732402670909  0.5042660165518313  0.5583222336606681
  0.3557338198627278  0.4547064648278081  0.5657373915147588
  0.4768846763476233  0.1706122145997071  0.5274762296104356
  0.7883435346262289  0.4440569156661951  0.5068730759911588
  0.2918776613670815  0.5228006337008608  0.5206849726330844
  0.5688466260730465  0.1714421427786448  0.4827766642549847
  0.7915625604372423  0.5184807391075168  0.4458710070468186
  0.2916754286171042  0.4630397618945707  0.4540641722313765
  0.5353074252970629  0.1281954073661566  0.4233860542375467
  0.8615235299868047  0.4637002587006052  0.3972195240938134
  0.5115671125093471  0.3637130695737127  0.5438762396334056
  0.3727277690619886  0.0263561323860273  0.5418182507677614
  0.9424351905168464  0.3525186710024357  0.5537869433233240
  0.4006863420571136  0.3678692288414922  0.5283399605695678
  0.3702153628334912  0.1184879444690523  0.4955137660240396
  0.8629652620533506  0.3471692455930437  0.4932905638162595
  0.3687071362422927  0.3743761369913017  0.4609461390957321
  0.4245255104199259  0.0862587311496483  0.4319248251603085
  0.9098952349635283  0.3781309148433678  0.4286308988656700
 
  0.00000000E+00  0.00000000E+00  0.00000000E+00
  0.00000000E+00  0.00000000E+00  0.00000000E+00
  0.00000000E+00  0.00000000E+00  0.00000000E+00
  0.00000000E+00  0.00000000E+00  0.00000000E+00
  0.00000000E+00  0.00000000E+00  0.00000000E+00
  0.00000000E+00  0.00000000E+00  0.00000000E+00
  0.00000000E+00  0.00000000E+00  0.00000000E+00
  0.00000000E+00  0.00000000E+00  0.00000000E+00
  0.00000000E+00  0.00000000E+00  0.00000000E+00
  0.00000000E+00  0.00000000E+00  0.00000000E+00
  0.00000000E+00  0.00000000E+00  0.00000000E+00
  0.00000000E+00  0.00000000E+00  0.00000000E+00
  0.00000000E+00  0.00000000E+00  0.00000000E+00
  0.00000000E+00  0.00000000E+00  0.00000000E+00
  0.00000000E+00  0.00000000E+00  0.00000000E+00
  0.00000000E+00  0.00000000E+00  0.00000000E+00
  0.00000000E+00  0.00000000E+00  0.00000000E+00
  0.00000000E+00  0.00000000E+00  0.00000000E+00
  0.00000000E+00  0.00000000E+00  0.00000000E+00
  0.00000000E+00  0.00000000E+00  0.00000000E+00
  0.00000000E+00  0.00000000E+00  0.00000000E+00
  0.00000000E+00  0.00000000E+00  0.00000000E+00
  0.00000000E+00  0.00000000E+00  0.00000000E+00
  0.00000000E+00  0.00000000E+00  0.00000000E+00
  0.00000000E+00  0.00000000E+00  0.00000000E+00
  0.00000000E+00  0.00000000E+00  0.00000000E+00
  0.00000000E+00  0.00000000E+00  0.00000000E+00
  0.00000000E+00  0.00000000E+00  0.00000000E+00
  0.00000000E+00  0.00000000E+00  0.00000000E+00
  0.00000000E+00  0.00000000E+00  0.00000000E+00
  0.00000000E+00  0.00000000E+00  0.00000000E+00
  0.00000000E+00  0.00000000E+00  0.00000000E+00
  0.00000000E+00  0.00000000E+00  0.00000000E+00
  0.00000000E+00  0.00000000E+00  0.00000000E+00
  0.00000000E+00  0.00000000E+00  0.00000000E+00
  0.00000000E+00  0.00000000E+00  0.00000000E+00
  0.00000000E+00  0.00000000E+00  0.00000000E+00
  0.00000000E+00  0.00000000E+00  0.00000000E+00
  0.00000000E+00  0.00000000E+00  0.00000000E+00
  0.00000000E+00  0.00000000E+00  0.00000000E+00
  0.00000000E+00  0.00000000E+00  0.00000000E+00
  0.00000000E+00  0.00000000E+00  0.00000000E+00
  0.00000000E+00  0.00000000E+00  0.00000000E+00
  0.00000000E+00  0.00000000E+00  0.00000000E+00
  0.00000000E+00  0.00000000E+00  0.00000000E+00
  0.00000000E+00  0.00000000E+00  0.00000000E+00
  0.00000000E+00  0.00000000E+00  0.00000000E+00
  0.00000000E+00  0.00000000E+00  0.00000000E+00
  0.00000000E+00  0.00000000E+00  0.00000000E+00
  0.00000000E+00  0.00000000E+00  0.00000000E+00
  0.00000000E+00  0.00000000E+00  0.00000000E+00
  0.00000000E+00  0.00000000E+00  0.00000000E+00
  0.00000000E+00  0.00000000E+00  0.00000000E+00
  0.00000000E+00  0.00000000E+00  0.00000000E+00
  0.00000000E+00  0.00000000E+00  0.00000000E+00
  0.00000000E+00  0.00000000E+00  0.00000000E+00
  0.00000000E+00  0.00000000E+00  0.00000000E+00
  0.00000000E+00  0.00000000E+00  0.00000000E+00
  0.00000000E+00  0.00000000E+00  0.00000000E+00
  0.00000000E+00  0.00000000E+00  0.00000000E+00
  0.00000000E+00  0.00000000E+00  0.00000000E+00
  0.00000000E+00  0.00000000E+00  0.00000000E+00
  0.00000000E+00  0.00000000E+00  0.00000000E+00
  0.00000000E+00  0.00000000E+00  0.00000000E+00
  0.00000000E+00  0.00000000E+00  0.00000000E+00
  0.00000000E+00  0.00000000E+00  0.00000000E+00
  0.00000000E+00  0.00000000E+00  0.00000000E+00
  0.00000000E+00  0.00000000E+00  0.00000000E+00
  0.00000000E+00  0.00000000E+00  0.00000000E+00
  0.00000000E+00  0.00000000E+00  0.00000000E+00
  0.00000000E+00  0.00000000E+00  0.00000000E+00
  0.00000000E+00  0.00000000E+00  0.00000000E+00
  0.00000000E+00  0.00000000E+00  0.00000000E+00
  0.00000000E+00  0.00000000E+00  0.00000000E+00
  0.00000000E+00  0.00000000E+00  0.00000000E+00
  0.00000000E+00  0.00000000E+00  0.00000000E+00
  0.00000000E+00  0.00000000E+00  0.00000000E+00
  0.00000000E+00  0.00000000E+00  0.00000000E+00
  0.00000000E+00  0.00000000E+00  0.00000000E+00
  0.00000000E+00  0.00000000E+00  0.00000000E+00
  0.00000000E+00  0.00000000E+00  0.00000000E+00
  0.00000000E+00  0.00000000E+00  0.00000000E+00
  0.00000000E+00  0.00000000E+00  0.00000000E+00
  0.00000000E+00  0.00000000E+00  0.00000000E+00
  0.00000000E+00  0.00000000E+00  0.00000000E+00
  0.00000000E+00  0.00000000E+00  0.00000000E+00
  0.00000000E+00  0.00000000E+00  0.00000000E+00
  0.00000000E+00  0.00000000E+00  0.00000000E+00
  0.00000000E+00  0.00000000E+00  0.00000000E+00
  0.00000000E+00  0.00000000E+00  0.00000000E+00
  0.00000000E+00  0.00000000E+00  0.00000000E+00
  0.00000000E+00  0.00000000E+00  0.00000000E+00
  0.00000000E+00  0.00000000E+00  0.00000000E+00
  0.00000000E+00  0.00000000E+00  0.00000000E+00
  0.00000000E+00  0.00000000E+00  0.00000000E+00
  0.00000000E+00  0.00000000E+00  0.00000000E+00
  0.00000000E+00  0.00000000E+00  0.00000000E+00
  0.00000000E+00  0.00000000E+00  0.00000000E+00
  0.00000000E+00  0.00000000E+00  0.00000000E+00
  0.00000000E+00  0.00000000E+00  0.00000000E+00
  0.00000000E+00  0.00000000E+00  0.00000000E+00
  0.00000000E+00  0.00000000E+00  0.00000000E+00
  0.00000000E+00  0.00000000E+00  0.00000000E+00
  0.00000000E+00  0.00000000E+00  0.00000000E+00
  0.00000000E+00  0.00000000E+00  0.00000000E+00
  0.00000000E+00  0.00000000E+00  0.00000000E+00
  0.00000000E+00  0.00000000E+00  0.00000000E+00
  0.00000000E+00  0.00000000E+00  0.00000000E+00
