Generated by VASPKIT code               
   1.00000000000000     
    12.9484498597960282    0.0319527920117891    0.0000000000000000
    -6.4488316841670201   11.7022666635483521    0.0000000000000000
     0.0000000000000012    0.0000000000000022   20.2231021192601226
  C             
   108
Direct
  0.0391370441351313  0.9778184345349814  0.6511960268624790
  0.0480722280714829  0.0870264604871878  0.6436797033587780
  0.1369501183675794  0.1473058903541826  0.5915005214303690
  0.1226570674954246  0.9702315703222482  0.6042116790878893
  0.1832891739246634  0.0751019714684560  0.5683590359321968
  0.0620663189549546  0.8674879030370235  0.5667569682299103
  0.9280864185090181  0.8794236703538019  0.6427314463294778
  0.9425180248405738  0.8111156150382612  0.5893323768640286
  0.8283919725596718  0.8916615611109293  0.6264518305468201
  0.9465385449211752  0.0964330179347215  0.6274222574016264
  0.8347639493204611  0.9997796492316766  0.6204258276975239
  0.0929031421051079  0.1973873269014277  0.5453744942900158
  0.9733955582236575  0.1627391245965484  0.5653091525318672
  0.1167396223438928  0.1951942980934689  0.4763815543998362
  0.2067723706351785  0.0730947063210792  0.4992630284084569
  0.1838320638906481  0.1405724408706703  0.4558376404352060
  0.0846599848716991  0.8652734029048403  0.4976213643026739
  0.1884282327387083  0.9622951916419709  0.4639054172602002
  0.9924637753903838  0.8140519111145039  0.4531737379624801
  0.8509623789204497  0.7784490863009097  0.5424457556331248
  0.7820195514307144  0.8305602258255362  0.5633649179811329
  0.8752546737724032  0.7804840553163785  0.4733724535805095
  0.7781747281328322  0.0061595144225706  0.5541230302555249
  0.8810492061418032  0.1094778733955053  0.5208506290604618
  0.7625694149512725  0.8991937509064982  0.5191851168250921
  0.0251572549445882  0.1637674653735104  0.4292808057376973
  0.9052855922021550  0.1081812055513751  0.4518764541821767
  0.1379224095863734  0.0805658700998535  0.3927181986881507
  0.1323507687073402  0.9726265327654744  0.3974526719449685
  0.0194493219417495  0.8773101631223668  0.3904374598221452
  0.0388986863172889  0.0943770579240706  0.3762345487578997
  0.8289162743539649  0.8266298759740991  0.4262077216258930
  0.7847715304745151  0.8997558769525043  0.4502066899337152
  0.8446186468356132  0.0048155582055074  0.4145820458440141
  0.9179205819890939  0.8867906340042850  0.3740491158217267
  0.9276599632309939  0.9966106144588878  0.3675625755994574
  0.5832581046857968  0.2293567275136468  0.5103362856445770
  0.8245868902612088  0.4170569532151518  0.5339109434649600
  0.6715591801011769  0.4359264867853128  0.4614405551914587
  0.6469085882405210  0.1829014355811580  0.5529978216960103
  0.8837565755002359  0.5170151431584884  0.5721935922416606
  0.5848532997052089  0.3445284535049637  0.5110740793737065
  0.5952493737906366  0.1903643268483535  0.4408633106540591
  0.7975142865037483  0.4430961980881563  0.4631158867925649
  0.5880100655057987  0.4300951214170112  0.4044216217737713
  0.6771985042946582  0.1142433901315627  0.5137720183004646
  0.9386075817893840  0.6082462577558232  0.5233213717767953
  0.4618823828614538  0.3187808380034767  0.4856909494543231
  0.6468280120847396  0.1160001170708469  0.4458815493978392
  0.8975826898428139  0.5695997523308947  0.4587852116634537
  0.4662220927517211  0.3596866389988804  0.4214464055674156
  0.4803779606191441  0.1171693472664685  0.4149368445891710
  0.8570658324177671  0.3865532748709981  0.4211264407400748
  0.5975406106278882  0.5385663627164163  0.3869040381457864
  0.4703520408152855  0.0140733884240660  0.3878010828426923
  0.9499734924689491  0.4717313487469426  0.3824258175249824
  0.4815643201726800  0.5322626204026264  0.3806847978487440
  0.5748008660623753  0.0101844448827890  0.4107261591699256
  0.9780986692159104  0.5831663229282711  0.4073645010052900
  0.3989923393628132  0.4207223486140919  0.4074813622062834
  0.3985945343520427  0.0821080511554868  0.4692577362769157
  0.9234840934975423  0.3516788875642547  0.4666778411964358
  0.6478016045546866  0.6085762276436881  0.4444574483171166
  0.4566599975486909  0.1358098627252318  0.5272960066219525
  0.9012089672838215  0.3660349796519924  0.5330859034870556
  0.6824488640878101  0.5480930526290138  0.4914439570058278
  0.4496313580377844  0.0760948131799850  0.5865953904912828
  0.9989814831540471  0.4285339508239900  0.5789480015809900
  0.6441061992667798  0.5328815972536844  0.5565369907810194
  0.3060094708217207  0.9564918968576848  0.4666245513296374
  0.0461950518922762  0.3998876958615369  0.4461399191145574
  0.5708901275231497  0.6552403115514096  0.4642351229113046
  0.3216114458440629  0.8924299907650166  0.5279919620029006
  0.1420615012756059  0.4640932956167703  0.4909958527435521
  0.5329378973457679  0.6412915793809404  0.5311584164855745
  0.3851045664764641  0.9516964619726167  0.5831507554315678
  0.1226791411761567  0.4796043750135794  0.5565830562319150
  0.5691031600930714  0.5822652876109800  0.5782056636380020
  0.3674247257157930  0.9166836941285084  0.4142711161015953
  0.0625605906244360  0.4697192607162108  0.3893555514925779
  0.4716649607446897  0.6164814580470193  0.4191707341974080
  0.5836002001020901  0.0062132335523373  0.6098856869175862
  0.0946897004380034  0.6238154047484272  0.5922401433932123
  0.4748767031346617  0.3872089518878497  0.5931507494381592
  0.5705756918615563  0.1059760227155806  0.6029374156483911
  0.9841687704314594  0.5184103945618403  0.6052060209056478
  0.5890929026111209  0.4120911090873136  0.5734251753178157
  0.4702495896756531  0.9118318375540611  0.6010668354390205
  0.1852982657726301  0.6017840948660620  0.5711684850486520
  0.4653840084107586  0.4904319388806115  0.6048874369146802
  0.4630616626488049  0.8326868473141502  0.5511641058815755
  0.2450397823660992  0.6706330448279658  0.5077374996288953
  0.3658789628408030  0.4874839742021351  0.5703294596943778
  0.3515002644630982  0.7935379879876123  0.5092128037401622
  0.2406486387974596  0.5752923871287905  0.4583920907056651
  0.4063798503569629  0.5872297635459418  0.5308506048098636
  0.4042171177310294  0.8435747939711931  0.4426407127272327
  0.1643481020565147  0.5788414488341758  0.3990508300168258
  0.3557120683673674  0.5620136461973928  0.4602504152710196
  0.6589084676287769  0.0062113384900755  0.5499595200489438
  0.0635682990704964  0.6699924570965408  0.5352535055249206
  0.3967262572103039  0.3347279240957732  0.5366260621131644
  0.5644816417571761  0.8992232417421704  0.5122396545858194
  0.1427362899133584  0.6866120198097789  0.4826566257518294
  0.3321455773729838  0.3955766352109222  0.5225462959036520
  0.5325396335569650  0.9033394581009659  0.4455718177041206
  0.1057644088578442  0.6444703274087615  0.4194604944147926
  0.3298170463351369  0.4340161798582471  0.4568923662770104
 
  0.00000000E+00  0.00000000E+00  0.00000000E+00
  0.00000000E+00  0.00000000E+00  0.00000000E+00
  0.00000000E+00  0.00000000E+00  0.00000000E+00
  0.00000000E+00  0.00000000E+00  0.00000000E+00
  0.00000000E+00  0.00000000E+00  0.00000000E+00
  0.00000000E+00  0.00000000E+00  0.00000000E+00
  0.00000000E+00  0.00000000E+00  0.00000000E+00
  0.00000000E+00  0.00000000E+00  0.00000000E+00
  0.00000000E+00  0.00000000E+00  0.00000000E+00
  0.00000000E+00  0.00000000E+00  0.00000000E+00
  0.00000000E+00  0.00000000E+00  0.00000000E+00
  0.00000000E+00  0.00000000E+00  0.00000000E+00
  0.00000000E+00  0.00000000E+00  0.00000000E+00
  0.00000000E+00  0.00000000E+00  0.00000000E+00
  0.00000000E+00  0.00000000E+00  0.00000000E+00
  0.00000000E+00  0.00000000E+00  0.00000000E+00
  0.00000000E+00  0.00000000E+00  0.00000000E+00
  0.00000000E+00  0.00000000E+00  0.00000000E+00
  0.00000000E+00  0.00000000E+00  0.00000000E+00
  0.00000000E+00  0.00000000E+00  0.00000000E+00
  0.00000000E+00  0.00000000E+00  0.00000000E+00
  0.00000000E+00  0.00000000E+00  0.00000000E+00
  0.00000000E+00  0.00000000E+00  0.00000000E+00
  0.00000000E+00  0.00000000E+00  0.00000000E+00
  0.00000000E+00  0.00000000E+00  0.00000000E+00
  0.00000000E+00  0.00000000E+00  0.00000000E+00
  0.00000000E+00  0.00000000E+00  0.00000000E+00
  0.00000000E+00  0.00000000E+00  0.00000000E+00
  0.00000000E+00  0.00000000E+00  0.00000000E+00
  0.00000000E+00  0.00000000E+00  0.00000000E+00
  0.00000000E+00  0.00000000E+00  0.00000000E+00
  0.00000000E+00  0.00000000E+00  0.00000000E+00
  0.00000000E+00  0.00000000E+00  0.00000000E+00
  0.00000000E+00  0.00000000E+00  0.00000000E+00
  0.00000000E+00  0.00000000E+00  0.00000000E+00
  0.00000000E+00  0.00000000E+00  0.00000000E+00
  0.00000000E+00  0.00000000E+00  0.00000000E+00
  0.00000000E+00  0.00000000E+00  0.00000000E+00
  0.00000000E+00  0.00000000E+00  0.00000000E+00
  0.00000000E+00  0.00000000E+00  0.00000000E+00
  0.00000000E+00  0.00000000E+00  0.00000000E+00
  0.00000000E+00  0.00000000E+00  0.00000000E+00
  0.00000000E+00  0.00000000E+00  0.00000000E+00
  0.00000000E+00  0.00000000E+00  0.00000000E+00
  0.00000000E+00  0.00000000E+00  0.00000000E+00
  0.00000000E+00  0.00000000E+00  0.00000000E+00
  0.00000000E+00  0.00000000E+00  0.00000000E+00
  0.00000000E+00  0.00000000E+00  0.00000000E+00
  0.00000000E+00  0.00000000E+00  0.00000000E+00
  0.00000000E+00  0.00000000E+00  0.00000000E+00
  0.00000000E+00  0.00000000E+00  0.00000000E+00
  0.00000000E+00  0.00000000E+00  0.00000000E+00
  0.00000000E+00  0.00000000E+00  0.00000000E+00
  0.00000000E+00  0.00000000E+00  0.00000000E+00
  0.00000000E+00  0.00000000E+00  0.00000000E+00
  0.00000000E+00  0.00000000E+00  0.00000000E+00
  0.00000000E+00  0.00000000E+00  0.00000000E+00
  0.00000000E+00  0.00000000E+00  0.00000000E+00
  0.00000000E+00  0.00000000E+00  0.00000000E+00
  0.00000000E+00  0.00000000E+00  0.00000000E+00
  0.00000000E+00  0.00000000E+00  0.00000000E+00
  0.00000000E+00  0.00000000E+00  0.00000000E+00
  0.00000000E+00  0.00000000E+00  0.00000000E+00
  0.00000000E+00  0.00000000E+00  0.00000000E+00
  0.00000000E+00  0.00000000E+00  0.00000000E+00
  0.00000000E+00  0.00000000E+00  0.00000000E+00
  0.00000000E+00  0.00000000E+00  0.00000000E+00
  0.00000000E+00  0.00000000E+00  0.00000000E+00
  0.00000000E+00  0.00000000E+00  0.00000000E+00
  0.00000000E+00  0.00000000E+00  0.00000000E+00
  0.00000000E+00  0.00000000E+00  0.00000000E+00
  0.00000000E+00  0.00000000E+00  0.00000000E+00
  0.00000000E+00  0.00000000E+00  0.00000000E+00
  0.00000000E+00  0.00000000E+00  0.00000000E+00
  0.00000000E+00  0.00000000E+00  0.00000000E+00
  0.00000000E+00  0.00000000E+00  0.00000000E+00
  0.00000000E+00  0.00000000E+00  0.00000000E+00
  0.00000000E+00  0.00000000E+00  0.00000000E+00
  0.00000000E+00  0.00000000E+00  0.00000000E+00
  0.00000000E+00  0.00000000E+00  0.00000000E+00
  0.00000000E+00  0.00000000E+00  0.00000000E+00
  0.00000000E+00  0.00000000E+00  0.00000000E+00
  0.00000000E+00  0.00000000E+00  0.00000000E+00
  0.00000000E+00  0.00000000E+00  0.00000000E+00
  0.00000000E+00  0.00000000E+00  0.00000000E+00
  0.00000000E+00  0.00000000E+00  0.00000000E+00
  0.00000000E+00  0.00000000E+00  0.00000000E+00
  0.00000000E+00  0.00000000E+00  0.00000000E+00
  0.00000000E+00  0.00000000E+00  0.00000000E+00
  0.00000000E+00  0.00000000E+00  0.00000000E+00
  0.00000000E+00  0.00000000E+00  0.00000000E+00
  0.00000000E+00  0.00000000E+00  0.00000000E+00
  0.00000000E+00  0.00000000E+00  0.00000000E+00
  0.00000000E+00  0.00000000E+00  0.00000000E+00
  0.00000000E+00  0.00000000E+00  0.00000000E+00
  0.00000000E+00  0.00000000E+00  0.00000000E+00
  0.00000000E+00  0.00000000E+00  0.00000000E+00
  0.00000000E+00  0.00000000E+00  0.00000000E+00
  0.00000000E+00  0.00000000E+00  0.00000000E+00
  0.00000000E+00  0.00000000E+00  0.00000000E+00
  0.00000000E+00  0.00000000E+00  0.00000000E+00
  0.00000000E+00  0.00000000E+00  0.00000000E+00
  0.00000000E+00  0.00000000E+00  0.00000000E+00
  0.00000000E+00  0.00000000E+00  0.00000000E+00
  0.00000000E+00  0.00000000E+00  0.00000000E+00
  0.00000000E+00  0.00000000E+00  0.00000000E+00
  0.00000000E+00  0.00000000E+00  0.00000000E+00
  0.00000000E+00  0.00000000E+00  0.00000000E+00
