Generated by VASPKIT code               
   1.00000000000000     
    18.4753385908518943   -0.0236179768920308    0.0000000000000000
    -0.0229193905606327   19.3832406140204974    0.0000000000000000
     0.0000000000000012    0.0000000000000013   20.2204102496214517
  C             
   216
Direct
  0.4634686681333662  0.8718183437865932  0.5521685633626632
  0.1378739046042412  0.4741470959321603  0.6072271911015577
  0.4202443758623957  0.8627861230184379  0.4905666497170813
  0.1493130983873812  0.4317129622650882  0.5460937155373173
  0.3622247454286125  0.9234439542377118  0.4906010368333682
  0.0823749426759406  0.3795372510819774  0.5424176663954938
  0.4342459818120901  0.9300396361688072  0.5901022557654372
  0.0722149720202836  0.4485238985159867  0.6411427030423837
  0.3801054778915756  0.9639132147352143  0.5537710731736780
  0.0371715033313080  0.3967454924900622  0.6041932567291752
  0.4930432978601189  0.9663644357973382  0.6210754677817647
  0.0334503962398927  0.5058389986939815  0.6689509233758457
  0.5371503713402461  0.8728985825331605  0.5550350208980248
  0.1383602724589821  0.5450069887155564  0.6095912131116350
  0.5570227250460960  0.9341766428644576  0.5947723498966866
  0.0714504696948026  0.5657458536166899  0.6452044939776442
  0.5840132588591089  0.8683143461561045  0.4941991821792797
  0.1463455537172962  0.5893077070484480  0.5485259401055416
  0.4663987369039972  0.8756287100242091  0.4315450787809141
  0.1386008390892712  0.4761230429135779  0.4866333071849098
  0.5395723997717994  0.8792087269082671  0.4344444208721612
  0.1355266737880640  0.5453553500537112  0.4896472961593972
  0.3836825901192071  0.9679424876484717  0.4309335247131969
  0.0390547923340705  0.4024314638858044  0.4820752943734448
  0.4405853128279915  0.9365257794431514  0.3959087645646591
  0.0764185082104660  0.4535758186075327  0.4473674275808861
  0.3805135901524892  0.0413678537452640  0.4330416063305833
  0.9627454621872005  0.4011513953257904  0.4800468472984747
  0.3774585212290802  0.0371774938716314  0.5564090649217306
  0.9597129780864435  0.3972214191220615  0.6024567077652065
  0.3568292789314782  0.0808561172594722  0.4964182354452547
  0.9176863385742919  0.3785284525123558  0.5403144619122529
  0.4905078588009388  0.0389354416371859  0.6232450122803499
  0.9569930638221038  0.5056001265087815  0.6669139974333476
  0.4285284519450627  0.0728057031066243  0.5947743750607017
  0.9209477571804712  0.4476132482591453  0.6372643197450572
  0.5517604233476305  0.0774450413717673  0.5989670053816809
  0.9196789453962637  0.5646829024421720  0.6408554498927117
  0.6101461012416962  0.9729286785464595  0.5622377756965946
  0.0344567691855531  0.6181112896580530  0.6116020372042783
  0.6359223417400202  0.9333487499040629  0.5020834526480087
  0.0787334992743354  0.6394550990985621  0.5520099706582187
  0.6087677529373821  0.0462471010658945  0.5641216874411512
  0.9573804573858951  0.6181314042433286  0.6089992981985546
  0.5648229855326505  0.9409090483558700  0.4003700626518309
  0.0745908048858794  0.5702487537611844  0.4512399414515116
  0.5025755814037893  0.9742475249982618  0.3714929156820546
  0.0400612902828144  0.5126613010463004  0.4199243321801021
  0.6170585707123166  0.9755643084957342  0.4390780385767101
  0.0374363907851034  0.6194771522862084  0.4885983295812011
  0.4353280514512363  0.0780034656519106  0.3997137894881675
  0.9272441911583229  0.4523532754554012  0.4435135812247069
  0.4996942042745331  0.0462195408183916  0.3732556173430268
  0.9642713449039988  0.5120246393504431  0.4179051800995381
  0.4108199906462815  0.1447047997835540  0.4972649263711375
  0.8499788651230560  0.4292173805894848  0.5370826396644830
  0.4519662539474680  0.1359525236997143  0.5604043934376577
  0.8564751969444586  0.4710861321308997  0.5997601006400757
  0.5253916858860919  0.1378875253444747  0.5627447186808752
  0.8561596576829729  0.5419901337715132  0.6018130975807665
  0.4579520084880073  0.1372550782315543  0.4390091048300988
  0.8635224410172739  0.4751517252205488  0.4798628537438034
  0.6301703195066111  0.0903756230831405  0.5036693421096601
  0.9168786462105345  0.6394039438947843  0.5461809207594044
  0.6132165501951192  0.0487363831602892  0.4409772911774468
  0.9618366547104600  0.6191702554504062  0.4860848613990640
  0.5594292310235431  0.0821560307171936  0.4038811020070270
  0.9269701218811761  0.5695666140494851  0.4469415502989023
  0.5716735824558370  0.1502753937776902  0.5039794043987698
  0.8498917959562959  0.5876517187944472  0.5419246294082640
  0.5307896164520258  0.1402921974752616  0.4414334460088796
  0.8631114713563122  0.5449196640853415  0.4817277230141457
  0.1114613828092530  0.9986736811326580  0.3340450148414220
  0.5286264439305342  0.5741168677808872  0.6266104542736315
  0.2594930132943105  0.3394853723957922  0.5764746607940197
  0.7391203064165381  0.6763707289065337  0.5629427427586364
  0.6484471344880305  0.2542891897172552  0.5574436726271585
  0.3428854689396985  0.7641033873884595  0.5451850313218642
  0.1439452150764993  0.9651326227918986  0.3888691870353895
  0.5683135203051251  0.5593667069896640  0.5683449534819474
  0.2039271329740586  0.3735177447743609  0.5340016667189218
  0.8004798604736294  0.6480314597693990  0.5253396485378587
  0.6288026864771368  0.2058709381208530  0.5035825155779676
  0.3616374815817167  0.8087282719608808  0.4883264661969307
  0.0618154506582016  0.9527457899490983  0.3036160655026521
  0.4544952837975131  0.5776268982135662  0.6098041708736517
  0.2313449669965095  0.2759035610261549  0.5963569262474877
  0.7596320441556728  0.7341517952200363  0.5999838511285773
  0.7097229001918990  0.2304755156068410  0.5885696942404763
  0.2917094709956487  0.7914643038667180  0.5878048503119615
  0.1148831078736734  0.8913859854936845  0.3970523730298794
  0.5187137076577244  0.5445431887940657  0.5130330511463796
  0.1372533834765548  0.3176228190344048  0.5245830326170875
  0.8659820744203159  0.7058285794389860  0.5312829196253261
  0.6930644751161665  0.1488964867365112  0.4986294792143440
  0.2971502961150065  0.8668771297800149  0.4867158382192756
  0.0532195306862562  0.8909068954092163  0.3453999070117391
  0.4471964908890484  0.5532502620135631  0.5384467741111081
  0.1646571079884893  0.2567786562603942  0.5647893042668315
  0.8298215983324866  0.7588115887634075  0.5773330984633773
  0.7436199664484846  0.1740296559906582  0.5535173995237841
  0.2532849735714890  0.8434748448871048  0.5465538043149252
  0.9938838288228524  0.9847238632941000  0.2903146408408404
  0.4172045353182270  0.5269824949379398  0.6476839933463481
  0.2834994455425672  0.2205632844756380  0.5858528286538416
  0.7050286584045651  0.7875931341163991  0.5890650658266523
  0.7621999158235226  0.2862159282831769  0.5966600097443973
  0.2409052114337911  0.7364202774757231  0.6026689074031211
  0.9414701507000984  0.9399648934852536  0.3180537398825649
  0.3714801787163893  0.4839944968055576  0.6080219367292727
  0.2477983258859311  0.1627059219911118  0.5561433133045739
  0.7385318691045768  0.8487582276057282  0.5704418884024349
  0.8326196100244587  0.2620962238754743  0.5797662513391373
  0.1717439759045405  0.7583769869357369  0.5823632102703868
  0.9784910684862851  0.8824365508377880  0.3559675784225362
  0.3975561396673442  0.4964551153363175  0.5375657987253604
  0.1778563641794975  0.1890828083943532  0.5366544276188918
  0.8149625377002465  0.8282959975294020  0.5555812050059572
  0.8161638250181795  0.1965525485237976  0.5437012590085359
  0.1808439102920048  0.8221921589067733  0.5444324705660009
  0.9954151131084359  0.0484729572537290  0.3326348032099560
  0.4692407119062167  0.4838519401562209  0.6845627016376454
  0.3368028830126235  0.2466050779968114  0.5443815962462892
  0.6593508853015351  0.7643597550612569  0.5344340254741908
  0.7382679723039089  0.3432656534123026  0.5602492976461164
  0.2587506692505315  0.6785830040915570  0.5592522191488172
  0.0682425762398466  0.0577386613627695  0.3582766973220544
  0.5391659806601794  0.5108639791911074  0.6706520875659621
  0.3336502118911966  0.3259526328527471  0.5392982702370688
  0.6813926509600989  0.6982255359310869  0.5167065695917117
  0.6595515212745369  0.3307961723773829  0.5353324932151651
  0.3221008301689352  0.6942427424830839  0.5237743934163390
  0.0807964438843953  0.0607746475641591  0.4279941322537937
  0.5924830677298374  0.4674587159763348  0.6405487187916563
  0.3084943087727368  0.3407032811346724  0.4684095668024639
  0.7069192896932464  0.6847667750236823  0.4499824180053764
  0.6637291420769884  0.3170096758500023  0.4603883803615005
  0.3220519099555830  0.6968916549735411  0.4521970362641241
  0.9363328996955005  0.0450704520375922  0.3774945800558953
  0.4517303416725014  0.4134391009387599  0.6668253354030895
  0.3496275062253389  0.1960691182191781  0.4890650403729850
  0.6503560860005564  0.8215023762093949  0.4853766150731289
  0.8004710029290862  0.3672230278923934  0.5180418595873704
  0.1923861627525767  0.6520313436354357  0.5254615085500660
  0.9494939050006082  0.0468593748212314  0.4474333097052892
  0.5050735628517629  0.3714920059793485  0.6366569633232118
  0.3286158241368469  0.2232631154330065  0.4212102401643421
  0.6846348595851879  0.8058997593177466  0.4170829124777242
  0.7892098429033112  0.3545625329859305  0.4431765250573179
  0.1952916667055007  0.6624443761883683  0.4499825486574878
  0.0214999048693230  0.0550945323086509  0.4737620244208500
  0.5767498591683449  0.3978295641711327  0.6252817858700723
  0.3108531765342590  0.2932574141213351  0.4132773888592283
  0.7084149722749444  0.7396509345864857  0.4005530292456569
  0.7211465186054227  0.3331469644300000  0.4172510411426842
  0.2577587201964420  0.6792929809569443  0.4148459769204820
  0.8993558294551249  0.9767193645710250  0.3643849490831670
  0.3881150511312157  0.4153152015146659  0.6224914859321302
  0.2905902386645778  0.1337633316604823  0.4991242130610161
  0.7031882215515068  0.8825054430546260  0.5105323154364498
  0.8670609543544074  0.3132374016440593  0.5328726933916741
  0.1287965070497208  0.7059227604903029  0.5435405048489059
  0.1007935098691419  0.9620559402074562  0.4969275268986877
  0.6058774336509742  0.4558260541605534  0.5263488053252061
  0.1947229065718545  0.3422037065904959  0.4188563343685345
  0.8258903157333890  0.6993809583753077  0.4197686912407832
  0.6828354250635940  0.2175485446117662  0.3965653726932814
  0.2918753196440775  0.7939438826100513  0.3914761802068867
  0.1322265452701856  0.0037131251944373  0.4458122470308297
  0.6175987240444485  0.5026323282104954  0.5771658541533213
  0.2393890278887696  0.3714302741725319  0.4683987626931909
  0.7769346834252531  0.6554785751581846  0.4552518665937626
  0.6393259191683072  0.2485690720378315  0.4443875472368575
  0.3468410909542996  0.7637890858073533  0.4312688986457403
  0.0377890134139847  0.9954914845964069  0.5168756161670487
  0.5983861312002716  0.3821579308053629  0.5516418795209006
  0.2408351506108914  0.2991826617959532  0.3770509505501209
  0.7849147573551676  0.7448775382617043  0.3767822398361105
  0.7296233718672269  0.2722584176095424  0.3702633673613107
  0.2416654948962105  0.7395937971547468  0.3706254756716234
  0.9773587298129769  0.9480621475068602  0.5087924506002963
  0.5231934893661716  0.3633116603631024  0.5246526841320005
  0.2108618506428002  0.2337509402087790  0.3728635691051991
  0.8108933319747607  0.8111611082827963  0.3817380207686583
  0.7993400777542234  0.2505878677793376  0.3811006244262813
  0.1729255389102136  0.7625962528717949  0.3825791780895997
  0.9191349431313824  0.9825632134173006  0.4748741196470760
  0.4753096787283440  0.3433238739855327  0.5731229637746793
  0.2667636905408841  0.1846546263025246  0.3942486195692325
  0.7480176729550223  0.8505337089028515  0.4036131837823191
  0.8393776502059040  0.3041569087738267  0.4186829800864729
  0.1419262193652173  0.7142361780174156  0.4291535690234198
  0.8939848046931331  0.9398682483526173  0.4239535740168421
  0.3990696727476077  0.3719138111361886  0.5609698867797874
  0.2381692711769219  0.1439341160767071  0.4439849411767938
  0.7646763623992072  0.8812151552145693  0.4637294158063696
  0.8730024181301772  0.2713747242610438  0.4713755321983371
  0.1138453163000221  0.7472837653900299  0.4828227371754181
  0.0814006580615896  0.8876808625123687  0.4704619941544905
  0.5410550028145451  0.4779633084983104  0.4885081874414823
  0.1421108223015963  0.3001689711340845  0.4505098443273212
  0.8731286161200913  0.7361641469447591  0.4602806892105704
  0.7256601350984155  0.1653406430919517  0.4300815886278357
  0.2555858471432515  0.8483724052050334  0.4226610153069927
  0.9973299673147764  0.8882306261941508  0.4761382457964345
  0.4911755963848563  0.4224257303256138  0.4882709086361459
  0.1522655993477571  0.2316181452041519  0.4235664471292111
  0.8736832715067138  0.8139993412107671  0.4368932093137516
  0.7990361255124938  0.1859701654999739  0.4212507469296938
  0.1729547864216414  0.8351235236947119  0.4143778704634471
  0.9377724668124259  0.8695248970483291  0.4225058303003735
  0.4183178202993503  0.4318715571738707  0.5112162864959942
  0.1692321756155835  0.1761511591577190  0.4663797886807046
  0.8289288000418438  0.8505671179894634  0.4904783152701171
  0.8442697640410444  0.2013894364180686  0.4771087752668279
  0.1326102313302471  0.8245265393087351  0.4843905424804689
 
  0.00000000E+00  0.00000000E+00  0.00000000E+00
  0.00000000E+00  0.00000000E+00  0.00000000E+00
  0.00000000E+00  0.00000000E+00  0.00000000E+00
  0.00000000E+00  0.00000000E+00  0.00000000E+00
  0.00000000E+00  0.00000000E+00  0.00000000E+00
  0.00000000E+00  0.00000000E+00  0.00000000E+00
  0.00000000E+00  0.00000000E+00  0.00000000E+00
  0.00000000E+00  0.00000000E+00  0.00000000E+00
  0.00000000E+00  0.00000000E+00  0.00000000E+00
  0.00000000E+00  0.00000000E+00  0.00000000E+00
  0.00000000E+00  0.00000000E+00  0.00000000E+00
  0.00000000E+00  0.00000000E+00  0.00000000E+00
  0.00000000E+00  0.00000000E+00  0.00000000E+00
  0.00000000E+00  0.00000000E+00  0.00000000E+00
  0.00000000E+00  0.00000000E+00  0.00000000E+00
  0.00000000E+00  0.00000000E+00  0.00000000E+00
  0.00000000E+00  0.00000000E+00  0.00000000E+00
  0.00000000E+00  0.00000000E+00  0.00000000E+00
  0.00000000E+00  0.00000000E+00  0.00000000E+00
  0.00000000E+00  0.00000000E+00  0.00000000E+00
  0.00000000E+00  0.00000000E+00  0.00000000E+00
  0.00000000E+00  0.00000000E+00  0.00000000E+00
  0.00000000E+00  0.00000000E+00  0.00000000E+00
  0.00000000E+00  0.00000000E+00  0.00000000E+00
  0.00000000E+00  0.00000000E+00  0.00000000E+00
  0.00000000E+00  0.00000000E+00  0.00000000E+00
  0.00000000E+00  0.00000000E+00  0.00000000E+00
  0.00000000E+00  0.00000000E+00  0.00000000E+00
  0.00000000E+00  0.00000000E+00  0.00000000E+00
  0.00000000E+00  0.00000000E+00  0.00000000E+00
  0.00000000E+00  0.00000000E+00  0.00000000E+00
  0.00000000E+00  0.00000000E+00  0.00000000E+00
  0.00000000E+00  0.00000000E+00  0.00000000E+00
  0.00000000E+00  0.00000000E+00  0.00000000E+00
  0.00000000E+00  0.00000000E+00  0.00000000E+00
  0.00000000E+00  0.00000000E+00  0.00000000E+00
  0.00000000E+00  0.00000000E+00  0.00000000E+00
  0.00000000E+00  0.00000000E+00  0.00000000E+00
  0.00000000E+00  0.00000000E+00  0.00000000E+00
  0.00000000E+00  0.00000000E+00  0.00000000E+00
  0.00000000E+00  0.00000000E+00  0.00000000E+00
  0.00000000E+00  0.00000000E+00  0.00000000E+00
  0.00000000E+00  0.00000000E+00  0.00000000E+00
  0.00000000E+00  0.00000000E+00  0.00000000E+00
  0.00000000E+00  0.00000000E+00  0.00000000E+00
  0.00000000E+00  0.00000000E+00  0.00000000E+00
  0.00000000E+00  0.00000000E+00  0.00000000E+00
  0.00000000E+00  0.00000000E+00  0.00000000E+00
  0.00000000E+00  0.00000000E+00  0.00000000E+00
  0.00000000E+00  0.00000000E+00  0.00000000E+00
  0.00000000E+00  0.00000000E+00  0.00000000E+00
  0.00000000E+00  0.00000000E+00  0.00000000E+00
  0.00000000E+00  0.00000000E+00  0.00000000E+00
  0.00000000E+00  0.00000000E+00  0.00000000E+00
  0.00000000E+00  0.00000000E+00  0.00000000E+00
  0.00000000E+00  0.00000000E+00  0.00000000E+00
  0.00000000E+00  0.00000000E+00  0.00000000E+00
  0.00000000E+00  0.00000000E+00  0.00000000E+00
  0.00000000E+00  0.00000000E+00  0.00000000E+00
  0.00000000E+00  0.00000000E+00  0.00000000E+00
  0.00000000E+00  0.00000000E+00  0.00000000E+00
  0.00000000E+00  0.00000000E+00  0.00000000E+00
  0.00000000E+00  0.00000000E+00  0.00000000E+00
  0.00000000E+00  0.00000000E+00  0.00000000E+00
  0.00000000E+00  0.00000000E+00  0.00000000E+00
  0.00000000E+00  0.00000000E+00  0.00000000E+00
  0.00000000E+00  0.00000000E+00  0.00000000E+00
  0.00000000E+00  0.00000000E+00  0.00000000E+00
  0.00000000E+00  0.00000000E+00  0.00000000E+00
  0.00000000E+00  0.00000000E+00  0.00000000E+00
  0.00000000E+00  0.00000000E+00  0.00000000E+00
  0.00000000E+00  0.00000000E+00  0.00000000E+00
  0.00000000E+00  0.00000000E+00  0.00000000E+00
  0.00000000E+00  0.00000000E+00  0.00000000E+00
  0.00000000E+00  0.00000000E+00  0.00000000E+00
  0.00000000E+00  0.00000000E+00  0.00000000E+00
  0.00000000E+00  0.00000000E+00  0.00000000E+00
  0.00000000E+00  0.00000000E+00  0.00000000E+00
  0.00000000E+00  0.00000000E+00  0.00000000E+00
  0.00000000E+00  0.00000000E+00  0.00000000E+00
  0.00000000E+00  0.00000000E+00  0.00000000E+00
  0.00000000E+00  0.00000000E+00  0.00000000E+00
  0.00000000E+00  0.00000000E+00  0.00000000E+00
  0.00000000E+00  0.00000000E+00  0.00000000E+00
  0.00000000E+00  0.00000000E+00  0.00000000E+00
  0.00000000E+00  0.00000000E+00  0.00000000E+00
  0.00000000E+00  0.00000000E+00  0.00000000E+00
  0.00000000E+00  0.00000000E+00  0.00000000E+00
  0.00000000E+00  0.00000000E+00  0.00000000E+00
  0.00000000E+00  0.00000000E+00  0.00000000E+00
  0.00000000E+00  0.00000000E+00  0.00000000E+00
  0.00000000E+00  0.00000000E+00  0.00000000E+00
  0.00000000E+00  0.00000000E+00  0.00000000E+00
  0.00000000E+00  0.00000000E+00  0.00000000E+00
  0.00000000E+00  0.00000000E+00  0.00000000E+00
  0.00000000E+00  0.00000000E+00  0.00000000E+00
  0.00000000E+00  0.00000000E+00  0.00000000E+00
  0.00000000E+00  0.00000000E+00  0.00000000E+00
  0.00000000E+00  0.00000000E+00  0.00000000E+00
  0.00000000E+00  0.00000000E+00  0.00000000E+00
  0.00000000E+00  0.00000000E+00  0.00000000E+00
  0.00000000E+00  0.00000000E+00  0.00000000E+00
  0.00000000E+00  0.00000000E+00  0.00000000E+00
  0.00000000E+00  0.00000000E+00  0.00000000E+00
  0.00000000E+00  0.00000000E+00  0.00000000E+00
  0.00000000E+00  0.00000000E+00  0.00000000E+00
  0.00000000E+00  0.00000000E+00  0.00000000E+00
  0.00000000E+00  0.00000000E+00  0.00000000E+00
  0.00000000E+00  0.00000000E+00  0.00000000E+00
  0.00000000E+00  0.00000000E+00  0.00000000E+00
  0.00000000E+00  0.00000000E+00  0.00000000E+00
  0.00000000E+00  0.00000000E+00  0.00000000E+00
  0.00000000E+00  0.00000000E+00  0.00000000E+00
  0.00000000E+00  0.00000000E+00  0.00000000E+00
  0.00000000E+00  0.00000000E+00  0.00000000E+00
  0.00000000E+00  0.00000000E+00  0.00000000E+00
  0.00000000E+00  0.00000000E+00  0.00000000E+00
  0.00000000E+00  0.00000000E+00  0.00000000E+00
  0.00000000E+00  0.00000000E+00  0.00000000E+00
  0.00000000E+00  0.00000000E+00  0.00000000E+00
  0.00000000E+00  0.00000000E+00  0.00000000E+00
  0.00000000E+00  0.00000000E+00  0.00000000E+00
  0.00000000E+00  0.00000000E+00  0.00000000E+00
  0.00000000E+00  0.00000000E+00  0.00000000E+00
  0.00000000E+00  0.00000000E+00  0.00000000E+00
  0.00000000E+00  0.00000000E+00  0.00000000E+00
  0.00000000E+00  0.00000000E+00  0.00000000E+00
  0.00000000E+00  0.00000000E+00  0.00000000E+00
  0.00000000E+00  0.00000000E+00  0.00000000E+00
  0.00000000E+00  0.00000000E+00  0.00000000E+00
  0.00000000E+00  0.00000000E+00  0.00000000E+00
  0.00000000E+00  0.00000000E+00  0.00000000E+00
  0.00000000E+00  0.00000000E+00  0.00000000E+00
  0.00000000E+00  0.00000000E+00  0.00000000E+00
  0.00000000E+00  0.00000000E+00  0.00000000E+00
  0.00000000E+00  0.00000000E+00  0.00000000E+00
  0.00000000E+00  0.00000000E+00  0.00000000E+00
  0.00000000E+00  0.00000000E+00  0.00000000E+00
  0.00000000E+00  0.00000000E+00  0.00000000E+00
  0.00000000E+00  0.00000000E+00  0.00000000E+00
  0.00000000E+00  0.00000000E+00  0.00000000E+00
  0.00000000E+00  0.00000000E+00  0.00000000E+00
  0.00000000E+00  0.00000000E+00  0.00000000E+00
  0.00000000E+00  0.00000000E+00  0.00000000E+00
  0.00000000E+00  0.00000000E+00  0.00000000E+00
  0.00000000E+00  0.00000000E+00  0.00000000E+00
  0.00000000E+00  0.00000000E+00  0.00000000E+00
  0.00000000E+00  0.00000000E+00  0.00000000E+00
  0.00000000E+00  0.00000000E+00  0.00000000E+00
  0.00000000E+00  0.00000000E+00  0.00000000E+00
  0.00000000E+00  0.00000000E+00  0.00000000E+00
  0.00000000E+00  0.00000000E+00  0.00000000E+00
  0.00000000E+00  0.00000000E+00  0.00000000E+00
  0.00000000E+00  0.00000000E+00  0.00000000E+00
  0.00000000E+00  0.00000000E+00  0.00000000E+00
  0.00000000E+00  0.00000000E+00  0.00000000E+00
  0.00000000E+00  0.00000000E+00  0.00000000E+00
  0.00000000E+00  0.00000000E+00  0.00000000E+00
  0.00000000E+00  0.00000000E+00  0.00000000E+00
  0.00000000E+00  0.00000000E+00  0.00000000E+00
  0.00000000E+00  0.00000000E+00  0.00000000E+00
  0.00000000E+00  0.00000000E+00  0.00000000E+00
  0.00000000E+00  0.00000000E+00  0.00000000E+00
  0.00000000E+00  0.00000000E+00  0.00000000E+00
  0.00000000E+00  0.00000000E+00  0.00000000E+00
  0.00000000E+00  0.00000000E+00  0.00000000E+00
  0.00000000E+00  0.00000000E+00  0.00000000E+00
  0.00000000E+00  0.00000000E+00  0.00000000E+00
  0.00000000E+00  0.00000000E+00  0.00000000E+00
  0.00000000E+00  0.00000000E+00  0.00000000E+00
  0.00000000E+00  0.00000000E+00  0.00000000E+00
  0.00000000E+00  0.00000000E+00  0.00000000E+00
  0.00000000E+00  0.00000000E+00  0.00000000E+00
  0.00000000E+00  0.00000000E+00  0.00000000E+00
  0.00000000E+00  0.00000000E+00  0.00000000E+00
  0.00000000E+00  0.00000000E+00  0.00000000E+00
  0.00000000E+00  0.00000000E+00  0.00000000E+00
  0.00000000E+00  0.00000000E+00  0.00000000E+00
  0.00000000E+00  0.00000000E+00  0.00000000E+00
  0.00000000E+00  0.00000000E+00  0.00000000E+00
  0.00000000E+00  0.00000000E+00  0.00000000E+00
  0.00000000E+00  0.00000000E+00  0.00000000E+00
  0.00000000E+00  0.00000000E+00  0.00000000E+00
  0.00000000E+00  0.00000000E+00  0.00000000E+00
  0.00000000E+00  0.00000000E+00  0.00000000E+00
  0.00000000E+00  0.00000000E+00  0.00000000E+00
  0.00000000E+00  0.00000000E+00  0.00000000E+00
  0.00000000E+00  0.00000000E+00  0.00000000E+00
  0.00000000E+00  0.00000000E+00  0.00000000E+00
  0.00000000E+00  0.00000000E+00  0.00000000E+00
  0.00000000E+00  0.00000000E+00  0.00000000E+00
  0.00000000E+00  0.00000000E+00  0.00000000E+00
  0.00000000E+00  0.00000000E+00  0.00000000E+00
  0.00000000E+00  0.00000000E+00  0.00000000E+00
  0.00000000E+00  0.00000000E+00  0.00000000E+00
  0.00000000E+00  0.00000000E+00  0.00000000E+00
  0.00000000E+00  0.00000000E+00  0.00000000E+00
  0.00000000E+00  0.00000000E+00  0.00000000E+00
  0.00000000E+00  0.00000000E+00  0.00000000E+00
  0.00000000E+00  0.00000000E+00  0.00000000E+00
  0.00000000E+00  0.00000000E+00  0.00000000E+00
  0.00000000E+00  0.00000000E+00  0.00000000E+00
  0.00000000E+00  0.00000000E+00  0.00000000E+00
  0.00000000E+00  0.00000000E+00  0.00000000E+00
  0.00000000E+00  0.00000000E+00  0.00000000E+00
  0.00000000E+00  0.00000000E+00  0.00000000E+00
  0.00000000E+00  0.00000000E+00  0.00000000E+00
  0.00000000E+00  0.00000000E+00  0.00000000E+00
  0.00000000E+00  0.00000000E+00  0.00000000E+00
  0.00000000E+00  0.00000000E+00  0.00000000E+00
  0.00000000E+00  0.00000000E+00  0.00000000E+00
  0.00000000E+00  0.00000000E+00  0.00000000E+00
  0.00000000E+00  0.00000000E+00  0.00000000E+00
  0.00000000E+00  0.00000000E+00  0.00000000E+00
  0.00000000E+00  0.00000000E+00  0.00000000E+00
  0.00000000E+00  0.00000000E+00  0.00000000E+00
