Generated by VASPKIT code               
   1.00000000000000     
    12.5339489685949950   -0.0329154382394289    0.0000000000000000
    -0.0232943176747364   12.2617797979854330    0.0000000000000000
     0.0000000000000012    0.0000000000000012   20.2235698033707045
  C             
   108
Direct
  0.3091629884525631  0.4089260985773535  0.5197084237331637
  0.4109387884298528  0.4218944287937703  0.4782247479347461
  0.4461127279711761  0.5375627533837601  0.4759109465610933
  0.2957795353471511  0.5295056548472559  0.5465731566923040
  0.3858482848472491  0.5993205389374623  0.5195510566191146
  0.3076896980595265  0.5186100985818101  0.6217621004690272
  0.3416931272088988  0.3440244022820949  0.5797224868465278
  0.3287845381351744  0.4109521034072259  0.6390756057320317
  0.4303985398123729  0.2800101260774497  0.5878310707766445
  0.5023143923443243  0.3612164348722473  0.4865788365739547
  0.5194861707174283  0.2675414055824064  0.5363139601407880
  0.5613051419207409  0.5468352612860059  0.4787739556138533
  0.5937698103650888  0.4372869574337059  0.4890624400095049
  0.6094197070141973  0.6341946439349329  0.5163782512575921
  0.4308451471366439  0.6860550157566436  0.5572580738531911
  0.5447945229644731  0.7334057036860244  0.5433179356813582
  0.3546702689273360  0.6044557659644738  0.6597080072015231
  0.4077898300727725  0.6932619029083043  0.6248278524839961
  0.4199515023982769  0.5794449479307247  0.7149004199834224
  0.4099146365312052  0.3829945344736814  0.6871754438692861
  0.4758874065120011  0.3073165216676230  0.6532353285588428
  0.4574967940235695  0.4698019072916040  0.7244174877281537
  0.6113910609664401  0.3188706478783629  0.5770642756498532
  0.6594389081755168  0.4090319725340521  0.5444135085887751
  0.5877613608903971  0.3284543520166423  0.6461394179621891
  0.6872773742284508  0.6073185774059837  0.5626144848944463
  0.7065239744414242  0.4954331511651731  0.5820637981915908
  0.5876883896980658  0.7402603770132004  0.6153734569169131
  0.5032738126250749  0.7268788798284049  0.6614738411574166
  0.5119183552659550  0.6561435230863566  0.7168822914519737
  0.6769142827906975  0.6732848039736083  0.6232072819043140
  0.5713853546913157  0.4773344905317813  0.7289096439323473
  0.6356166119819875  0.4147232771907596  0.6845185503048015
  0.7052230168669809  0.4916685852633762  0.6519568277506238
  0.6046892455286113  0.5931334014662184  0.7256628711959863
  0.6879614006982848  0.6013518908019790  0.6782591381408736
  0.8540583753280231  0.1128802320125502  0.4833777869637501
  0.4183763854593892  0.9962739073349454  0.5382989151885766
  0.0377851283769886  0.4599598189197138  0.5772361566876185
  0.9367231842439452  0.1078032811487120  0.5327954831462449
  0.3542685914031338  0.9227511864486999  0.5046913411130092
  0.0875767653733632  0.3729328076639575  0.5416555761300330
  0.8953709902252172  0.1530979186861217  0.4255508824233587
  0.5274178098223956  0.9587755774296909  0.5428368506435035
  0.0926214036127107  0.5568770587139511  0.5677296668534950
  0.0374953702026204  0.1292895532922955  0.4994302020624133
  0.4242068969932049  0.8478054467405727  0.4714794625110770
  0.1834263160503653  0.4096303105187289  0.4973434999652326
  0.0179451226223719  0.1781865352174989  0.4307158064098005
  0.5365985408431655  0.8471122535315132  0.5036101436005609
  0.1825752322021685  0.5394875766435590  0.5170658405006279
  0.8785890660242615  0.0738563311516103  0.3741082005327243
  0.5964263076522585  0.0418939317360412  0.5269456165764339
  0.0198450049833454  0.6374865212890271  0.5451656455259979
  0.9670188738006615  0.0557565156880742  0.3331522895006103
  0.6759913851062649  0.0000989200290249  0.4758196109480011
  0.0542789745709555  0.6691002862774056  0.4829183885544026
  0.0548941950943842  0.1010127400349177  0.3765866016203887
  0.6185968257008696  0.8909663931733292  0.4522759632180353
  0.1436687935849648  0.6088024091810880  0.4598796123931734
  0.8371507858981460  0.9743140223132301  0.4038377128085102
  0.5298998837504811  0.1505192839398077  0.5026456227317908
  0.9144594500693231  0.5841968860885913  0.5306891847575343
  0.7991777281007160  0.9995759630557544  0.4758470488170872
  0.4182555841444398  0.1007847776668100  0.5040733044286867
  0.9260443095438973  0.4750589181819933  0.5520998718745105
  0.8734258851702705  0.9373852002235523  0.5232828026125418
  0.3497899506480948  0.0941981419709634  0.4506035860568289
  0.9077114616851887  0.3898918943410763  0.5050646031176456
  0.8993407431635205  0.8898556965143740  0.3805104085374893
  0.5656139027955476  0.1482525291315966  0.4299830894982009
  0.8830304386200822  0.6074713510131033  0.4639071581701870
  0.9518269028755171  0.8104325827125223  0.4295395360715801
  0.4947054681605820  0.1372372872565393  0.3733200510157317
  0.8641862290625895  0.5229090830318199  0.4178639623942928
  0.9387649430855163  0.8558113154153517  0.5002989472747643
  0.3860474677257599  0.1108369319920257  0.3830075105365438
  0.8761777951240575  0.4128088945369939  0.4385089074070478
  0.9789941658719172  0.9393733109389686  0.3317231917258567
  0.6440863617392552  0.0715472482376214  0.4188618130123132
  0.9649800479576882  0.6868463615299163  0.4334353012582568
  0.0486903126799945  0.9737187421213989  0.5646288896441760
  0.3253693835123102  0.9342542831824261  0.3915721879735017
  0.0374278890937418  0.3006385627054371  0.4334915471940874
  0.9394771056056186  0.0099142281336526  0.5684693292063656
  0.2880277462544782  0.9850537232531451  0.4553937062748190
  0.0070168916748159  0.3315438234468786  0.5019493778278772
  0.0444753563127307  0.8786229696854662  0.5263183892326353
  0.3601059272060283  0.0099109652633160  0.3446741548740491
  0.9549728559667230  0.3607926934304615  0.3940473759353864
  0.1198724380811029  0.8763133155309291  0.4719667470505797
  0.4608277075122515  0.9702353873431449  0.3208140738570933
  0.0014881954317687  0.4366065024035635  0.3534110072714824
  0.0668569803122381  0.8457502665012271  0.4164806993452785
  0.5418661437820518  0.0544137598609709  0.3274402709401798
  0.9425926761570693  0.5370767883383678  0.3605667752300903
  0.0770329374568774  0.9201315962245715  0.3630056886197082
  0.6303719168237976  0.0099733776270625  0.3591623646132192
  0.0109080834835780  0.6200614307679473  0.3771492878375255
  0.1064441909302190  0.0473429231639955  0.5164375875428533
  0.4066003535215472  0.8519187411887614  0.4027660367714603
  0.1380537808681339  0.3777096706984935  0.4289779879908124
  0.1692057293152445  0.9891431108411837  0.4614964962699233
  0.4922166658494120  0.8745856595363861  0.3570156194098502
  0.1130565556141221  0.4555831251843117  0.3816906588438158
  0.1225688219962606  0.0176252726152057  0.3926716668181527
  0.5972510155431294  0.8995251323174855  0.3851447390503253
  0.1166805865038825  0.5719036178460897  0.3963133397906233
 
  0.00000000E+00  0.00000000E+00  0.00000000E+00
  0.00000000E+00  0.00000000E+00  0.00000000E+00
  0.00000000E+00  0.00000000E+00  0.00000000E+00
  0.00000000E+00  0.00000000E+00  0.00000000E+00
  0.00000000E+00  0.00000000E+00  0.00000000E+00
  0.00000000E+00  0.00000000E+00  0.00000000E+00
  0.00000000E+00  0.00000000E+00  0.00000000E+00
  0.00000000E+00  0.00000000E+00  0.00000000E+00
  0.00000000E+00  0.00000000E+00  0.00000000E+00
  0.00000000E+00  0.00000000E+00  0.00000000E+00
  0.00000000E+00  0.00000000E+00  0.00000000E+00
  0.00000000E+00  0.00000000E+00  0.00000000E+00
  0.00000000E+00  0.00000000E+00  0.00000000E+00
  0.00000000E+00  0.00000000E+00  0.00000000E+00
  0.00000000E+00  0.00000000E+00  0.00000000E+00
  0.00000000E+00  0.00000000E+00  0.00000000E+00
  0.00000000E+00  0.00000000E+00  0.00000000E+00
  0.00000000E+00  0.00000000E+00  0.00000000E+00
  0.00000000E+00  0.00000000E+00  0.00000000E+00
  0.00000000E+00  0.00000000E+00  0.00000000E+00
  0.00000000E+00  0.00000000E+00  0.00000000E+00
  0.00000000E+00  0.00000000E+00  0.00000000E+00
  0.00000000E+00  0.00000000E+00  0.00000000E+00
  0.00000000E+00  0.00000000E+00  0.00000000E+00
  0.00000000E+00  0.00000000E+00  0.00000000E+00
  0.00000000E+00  0.00000000E+00  0.00000000E+00
  0.00000000E+00  0.00000000E+00  0.00000000E+00
  0.00000000E+00  0.00000000E+00  0.00000000E+00
  0.00000000E+00  0.00000000E+00  0.00000000E+00
  0.00000000E+00  0.00000000E+00  0.00000000E+00
  0.00000000E+00  0.00000000E+00  0.00000000E+00
  0.00000000E+00  0.00000000E+00  0.00000000E+00
  0.00000000E+00  0.00000000E+00  0.00000000E+00
  0.00000000E+00  0.00000000E+00  0.00000000E+00
  0.00000000E+00  0.00000000E+00  0.00000000E+00
  0.00000000E+00  0.00000000E+00  0.00000000E+00
  0.00000000E+00  0.00000000E+00  0.00000000E+00
  0.00000000E+00  0.00000000E+00  0.00000000E+00
  0.00000000E+00  0.00000000E+00  0.00000000E+00
  0.00000000E+00  0.00000000E+00  0.00000000E+00
  0.00000000E+00  0.00000000E+00  0.00000000E+00
  0.00000000E+00  0.00000000E+00  0.00000000E+00
  0.00000000E+00  0.00000000E+00  0.00000000E+00
  0.00000000E+00  0.00000000E+00  0.00000000E+00
  0.00000000E+00  0.00000000E+00  0.00000000E+00
  0.00000000E+00  0.00000000E+00  0.00000000E+00
  0.00000000E+00  0.00000000E+00  0.00000000E+00
  0.00000000E+00  0.00000000E+00  0.00000000E+00
  0.00000000E+00  0.00000000E+00  0.00000000E+00
  0.00000000E+00  0.00000000E+00  0.00000000E+00
  0.00000000E+00  0.00000000E+00  0.00000000E+00
  0.00000000E+00  0.00000000E+00  0.00000000E+00
  0.00000000E+00  0.00000000E+00  0.00000000E+00
  0.00000000E+00  0.00000000E+00  0.00000000E+00
  0.00000000E+00  0.00000000E+00  0.00000000E+00
  0.00000000E+00  0.00000000E+00  0.00000000E+00
  0.00000000E+00  0.00000000E+00  0.00000000E+00
  0.00000000E+00  0.00000000E+00  0.00000000E+00
  0.00000000E+00  0.00000000E+00  0.00000000E+00
  0.00000000E+00  0.00000000E+00  0.00000000E+00
  0.00000000E+00  0.00000000E+00  0.00000000E+00
  0.00000000E+00  0.00000000E+00  0.00000000E+00
  0.00000000E+00  0.00000000E+00  0.00000000E+00
  0.00000000E+00  0.00000000E+00  0.00000000E+00
  0.00000000E+00  0.00000000E+00  0.00000000E+00
  0.00000000E+00  0.00000000E+00  0.00000000E+00
  0.00000000E+00  0.00000000E+00  0.00000000E+00
  0.00000000E+00  0.00000000E+00  0.00000000E+00
  0.00000000E+00  0.00000000E+00  0.00000000E+00
  0.00000000E+00  0.00000000E+00  0.00000000E+00
  0.00000000E+00  0.00000000E+00  0.00000000E+00
  0.00000000E+00  0.00000000E+00  0.00000000E+00
  0.00000000E+00  0.00000000E+00  0.00000000E+00
  0.00000000E+00  0.00000000E+00  0.00000000E+00
  0.00000000E+00  0.00000000E+00  0.00000000E+00
  0.00000000E+00  0.00000000E+00  0.00000000E+00
  0.00000000E+00  0.00000000E+00  0.00000000E+00
  0.00000000E+00  0.00000000E+00  0.00000000E+00
  0.00000000E+00  0.00000000E+00  0.00000000E+00
  0.00000000E+00  0.00000000E+00  0.00000000E+00
  0.00000000E+00  0.00000000E+00  0.00000000E+00
  0.00000000E+00  0.00000000E+00  0.00000000E+00
  0.00000000E+00  0.00000000E+00  0.00000000E+00
  0.00000000E+00  0.00000000E+00  0.00000000E+00
  0.00000000E+00  0.00000000E+00  0.00000000E+00
  0.00000000E+00  0.00000000E+00  0.00000000E+00
  0.00000000E+00  0.00000000E+00  0.00000000E+00
  0.00000000E+00  0.00000000E+00  0.00000000E+00
  0.00000000E+00  0.00000000E+00  0.00000000E+00
  0.00000000E+00  0.00000000E+00  0.00000000E+00
  0.00000000E+00  0.00000000E+00  0.00000000E+00
  0.00000000E+00  0.00000000E+00  0.00000000E+00
  0.00000000E+00  0.00000000E+00  0.00000000E+00
  0.00000000E+00  0.00000000E+00  0.00000000E+00
  0.00000000E+00  0.00000000E+00  0.00000000E+00
  0.00000000E+00  0.00000000E+00  0.00000000E+00
  0.00000000E+00  0.00000000E+00  0.00000000E+00
  0.00000000E+00  0.00000000E+00  0.00000000E+00
  0.00000000E+00  0.00000000E+00  0.00000000E+00
  0.00000000E+00  0.00000000E+00  0.00000000E+00
  0.00000000E+00  0.00000000E+00  0.00000000E+00
  0.00000000E+00  0.00000000E+00  0.00000000E+00
  0.00000000E+00  0.00000000E+00  0.00000000E+00
  0.00000000E+00  0.00000000E+00  0.00000000E+00
  0.00000000E+00  0.00000000E+00  0.00000000E+00
  0.00000000E+00  0.00000000E+00  0.00000000E+00
  0.00000000E+00  0.00000000E+00  0.00000000E+00
  0.00000000E+00  0.00000000E+00  0.00000000E+00
