Generated by VASPKIT code               
   1.00000000000000     
    12.4889191791834175    0.3464851309589297    0.0000000000000000
    -5.9442243169315327   10.9823829766572860    0.0000000000000000
     0.0000000000000013    0.0000000000000022   20.2207958530985152
  C             
    96
Direct
  0.3020043330399886  0.5161764275487073  0.6201174044003963
  0.5165969586063071  0.3022807972191046  0.6202427109263837
  0.4276576389431170  0.5743214520097482  0.6126481480482866
  0.5745785020381007  0.4279634487161843  0.6126702346715902
  0.4636424481612025  0.5371305047703885  0.5459217208666232
  0.5372185159647529  0.4637298565006063  0.5459375947787279
  0.2500890629650101  0.4526948706410963  0.5573965715725890
  0.4530747829979589  0.2501385557722458  0.5575701609073676
  0.3405535374568203  0.4701148727144471  0.5124578580069823
  0.4703181054008709  0.3405076017827895  0.5125646295514485
  0.1500388385586220  0.4737680671165805  0.5384703475522201
  0.4742280316130376  0.1500740926635515  0.5387044790159408
  0.2364435551808910  0.5796434791334946  0.6375258096359602
  0.5801818457807641  0.2368719640768191  0.6376723745430866
  0.1445081471416572  0.5552211661069677  0.5855106066961042
  0.5557832738310182  0.1447626998857245  0.5857303007246983
  0.2970313945945833  0.7055247274288448  0.6458252986896866
  0.7060019297598643  0.2976366415763394  0.6459014007417778
  0.4858973653051422  0.7001835734738506  0.6194297283276882
  0.7003730538448494  0.4863890539725446  0.6193804640549345
  0.4227072949608939  0.7660067830880166  0.6368413119790404
  0.7663209752342084  0.4233417060626223  0.6368089740396741
  0.5299826509032499  0.6596884797885139  0.5117543093328720
  0.6596276920627346  0.5301513863617160  0.5116828600081362
  0.5481389725010999  0.7509772640526009  0.5562809609256831
  0.7509775257108871  0.5485375320794148  0.5561797112304134
  0.5124755022358087  0.6745006452878073  0.4431318429838171
  0.6743388480489472  0.5125011648150775  0.4430587331457261
  0.3245268572704774  0.4864198382740028  0.4438195710154176
  0.4865301521557939  0.3243381112370898  0.4439314895694721
  0.4176009052947691  0.5807383091155316  0.4071679686426748
  0.5806290984110234  0.4174230932275691  0.4071774490589490
  0.1347577000528801  0.4908483705415847  0.4699077530522615
  0.4911988490340491  0.1346437278546873  0.4701358356290299
  0.2131919449750654  0.4827572606147825  0.4222735236689488
  0.4829424048507533  0.2129484599146920  0.4224458609432631
  0.1144220644669716  0.5913177367346591  0.4507866679909185
  0.5916851120700457  0.1144010331372414  0.4510063063976233
  0.1483056960512386  0.6664009920495033  0.5636493480958862
  0.6669224458825127  0.1486290533457932  0.5638337635254587
  0.2421398380262971  0.7596107445249203  0.6000014529473816
  0.7600886378174181  0.2426764471268257  0.6001006145669194
  0.1309076579952375  0.6822814876216725  0.4949342343435319
  0.6827090099204653  0.1310973958968518  0.4951172104470700
  0.4461786966910068  0.8570848852535491  0.5843802716996009
  0.8572679296106855  0.4467946779126564  0.5843150267987056
  0.5267435890586682  0.8507232765435475  0.5370567174833099
  0.8507473131310590  0.5272424582906154  0.5369534715232405
  0.3346657572498231  0.8528542675729511  0.5629419164067571
  0.8531602055884946  0.3352440159057366  0.5629480088136134
  0.5157712171289717  0.7855001799785555  0.4211256427743635
  0.7853051783577172  0.5158900148519905  0.4210267522636713
  0.5085628864602825  0.8648583778535794  0.4684870854899899
  0.8647605242867513  0.5089027480444912  0.4683801798591816
  0.3628505059859748  0.6346679856934259  0.3613524293718839
  0.6345420153175922  0.3626328689040506  0.3613883627373866
  0.2370501444349529  0.5743855639158468  0.3699387591772734
  0.5744606167334254  0.2368006659099464  0.3700732245721596
  0.1744652047906285  0.6409397210551901  0.3873283264853953
  0.6411256107789498  0.1743579802412469  0.3874898206770752
  0.4232226406065607  0.7606881171330357  0.3692292473583976
  0.7605074636988434  0.4231705084489974  0.3691997027845133
  0.1946806192403727  0.8047845935982068  0.4604109270267358
  0.8050617415836783  0.1949699934547553  0.4605310780809759
  0.3176591080821964  0.8689996779043696  0.4942150376925625
  0.8691972843361881  0.3180705550343461  0.4942282705867882
  0.4077965726028765  0.8848136427499895  0.4496743308556646
  0.8848136927151486  0.4081180241078712  0.4496288684654246
  0.2309310498386736  0.7672303096204018  0.3932774679820739
  0.7673500546521979  0.2309930545778371  0.3933887884793137
  0.3570519355469486  0.8236360129966798  0.3866366652658826
  0.8235801565914898  0.3571562018960748  0.3866352103908994
  0.0062899937200669  0.8115675055055078  0.5082542323033721
  0.9046451012385504  0.7920828391011057  0.4709798749887213
  0.1216084597905365  0.8780011282869822  0.4683763727471515
  0.9437311885028876  0.8750015028534435  0.4144490448178857
  0.0707311899919745  0.9310304952201491  0.4111586008558064
  0.1868486780540124  0.9920647586347471  0.5094803743723446
  0.2080459045228693  0.0950686990593681  0.4730729040292800
  0.1267937556878707  0.0578013442017493  0.4156489903868987
  0.1122714451068845  0.9918803872827837  0.5656175959789635
  0.0048307887246750  0.8845039757171236  0.5648298956282858
  0.8900977748480443  0.8901556394107359  0.5645872627415685
  0.1068524212799673  0.1066992328278786  0.5661052518408027
  0.9920640290918215  0.1123098939049925  0.5656156163632104
  0.8846148317249458  0.0049387001153391  0.5649410942604334
  0.1739018846785712  0.1736720473224196  0.5109902599733047
  0.7917320996517816  0.9047135593016193  0.4710338735027548
  0.8247659589562915  0.8249621116191292  0.5086005337339330
  0.8117978038438594  0.0064849817399519  0.5083274369829951
  0.8782592175869084  0.1218925219630194  0.4685091998045650
  0.9923158489367410  0.1870620009951622  0.5095846536489077
  0.0951194009048919  0.2077046645321730  0.4731399951000270
  0.8748401008203075  0.9439298828870122  0.4144490905478904
  0.9310873872251832  0.0708575913686076  0.4112279695136465
  0.0578958628928135  0.1267332808357935  0.4157221775934161
 
  0.00000000E+00  0.00000000E+00  0.00000000E+00
  0.00000000E+00  0.00000000E+00  0.00000000E+00
  0.00000000E+00  0.00000000E+00  0.00000000E+00
  0.00000000E+00  0.00000000E+00  0.00000000E+00
  0.00000000E+00  0.00000000E+00  0.00000000E+00
  0.00000000E+00  0.00000000E+00  0.00000000E+00
  0.00000000E+00  0.00000000E+00  0.00000000E+00
  0.00000000E+00  0.00000000E+00  0.00000000E+00
  0.00000000E+00  0.00000000E+00  0.00000000E+00
  0.00000000E+00  0.00000000E+00  0.00000000E+00
  0.00000000E+00  0.00000000E+00  0.00000000E+00
  0.00000000E+00  0.00000000E+00  0.00000000E+00
  0.00000000E+00  0.00000000E+00  0.00000000E+00
  0.00000000E+00  0.00000000E+00  0.00000000E+00
  0.00000000E+00  0.00000000E+00  0.00000000E+00
  0.00000000E+00  0.00000000E+00  0.00000000E+00
  0.00000000E+00  0.00000000E+00  0.00000000E+00
  0.00000000E+00  0.00000000E+00  0.00000000E+00
  0.00000000E+00  0.00000000E+00  0.00000000E+00
  0.00000000E+00  0.00000000E+00  0.00000000E+00
  0.00000000E+00  0.00000000E+00  0.00000000E+00
  0.00000000E+00  0.00000000E+00  0.00000000E+00
  0.00000000E+00  0.00000000E+00  0.00000000E+00
  0.00000000E+00  0.00000000E+00  0.00000000E+00
  0.00000000E+00  0.00000000E+00  0.00000000E+00
  0.00000000E+00  0.00000000E+00  0.00000000E+00
  0.00000000E+00  0.00000000E+00  0.00000000E+00
  0.00000000E+00  0.00000000E+00  0.00000000E+00
  0.00000000E+00  0.00000000E+00  0.00000000E+00
  0.00000000E+00  0.00000000E+00  0.00000000E+00
  0.00000000E+00  0.00000000E+00  0.00000000E+00
  0.00000000E+00  0.00000000E+00  0.00000000E+00
  0.00000000E+00  0.00000000E+00  0.00000000E+00
  0.00000000E+00  0.00000000E+00  0.00000000E+00
  0.00000000E+00  0.00000000E+00  0.00000000E+00
  0.00000000E+00  0.00000000E+00  0.00000000E+00
  0.00000000E+00  0.00000000E+00  0.00000000E+00
  0.00000000E+00  0.00000000E+00  0.00000000E+00
  0.00000000E+00  0.00000000E+00  0.00000000E+00
  0.00000000E+00  0.00000000E+00  0.00000000E+00
  0.00000000E+00  0.00000000E+00  0.00000000E+00
  0.00000000E+00  0.00000000E+00  0.00000000E+00
  0.00000000E+00  0.00000000E+00  0.00000000E+00
  0.00000000E+00  0.00000000E+00  0.00000000E+00
  0.00000000E+00  0.00000000E+00  0.00000000E+00
  0.00000000E+00  0.00000000E+00  0.00000000E+00
  0.00000000E+00  0.00000000E+00  0.00000000E+00
  0.00000000E+00  0.00000000E+00  0.00000000E+00
  0.00000000E+00  0.00000000E+00  0.00000000E+00
  0.00000000E+00  0.00000000E+00  0.00000000E+00
  0.00000000E+00  0.00000000E+00  0.00000000E+00
  0.00000000E+00  0.00000000E+00  0.00000000E+00
  0.00000000E+00  0.00000000E+00  0.00000000E+00
  0.00000000E+00  0.00000000E+00  0.00000000E+00
  0.00000000E+00  0.00000000E+00  0.00000000E+00
  0.00000000E+00  0.00000000E+00  0.00000000E+00
  0.00000000E+00  0.00000000E+00  0.00000000E+00
  0.00000000E+00  0.00000000E+00  0.00000000E+00
  0.00000000E+00  0.00000000E+00  0.00000000E+00
  0.00000000E+00  0.00000000E+00  0.00000000E+00
  0.00000000E+00  0.00000000E+00  0.00000000E+00
  0.00000000E+00  0.00000000E+00  0.00000000E+00
  0.00000000E+00  0.00000000E+00  0.00000000E+00
  0.00000000E+00  0.00000000E+00  0.00000000E+00
  0.00000000E+00  0.00000000E+00  0.00000000E+00
  0.00000000E+00  0.00000000E+00  0.00000000E+00
  0.00000000E+00  0.00000000E+00  0.00000000E+00
  0.00000000E+00  0.00000000E+00  0.00000000E+00
  0.00000000E+00  0.00000000E+00  0.00000000E+00
  0.00000000E+00  0.00000000E+00  0.00000000E+00
  0.00000000E+00  0.00000000E+00  0.00000000E+00
  0.00000000E+00  0.00000000E+00  0.00000000E+00
  0.00000000E+00  0.00000000E+00  0.00000000E+00
  0.00000000E+00  0.00000000E+00  0.00000000E+00
  0.00000000E+00  0.00000000E+00  0.00000000E+00
  0.00000000E+00  0.00000000E+00  0.00000000E+00
  0.00000000E+00  0.00000000E+00  0.00000000E+00
  0.00000000E+00  0.00000000E+00  0.00000000E+00
  0.00000000E+00  0.00000000E+00  0.00000000E+00
  0.00000000E+00  0.00000000E+00  0.00000000E+00
  0.00000000E+00  0.00000000E+00  0.00000000E+00
  0.00000000E+00  0.00000000E+00  0.00000000E+00
  0.00000000E+00  0.00000000E+00  0.00000000E+00
  0.00000000E+00  0.00000000E+00  0.00000000E+00
  0.00000000E+00  0.00000000E+00  0.00000000E+00
  0.00000000E+00  0.00000000E+00  0.00000000E+00
  0.00000000E+00  0.00000000E+00  0.00000000E+00
  0.00000000E+00  0.00000000E+00  0.00000000E+00
  0.00000000E+00  0.00000000E+00  0.00000000E+00
  0.00000000E+00  0.00000000E+00  0.00000000E+00
  0.00000000E+00  0.00000000E+00  0.00000000E+00
  0.00000000E+00  0.00000000E+00  0.00000000E+00
  0.00000000E+00  0.00000000E+00  0.00000000E+00
  0.00000000E+00  0.00000000E+00  0.00000000E+00
  0.00000000E+00  0.00000000E+00  0.00000000E+00
  0.00000000E+00  0.00000000E+00  0.00000000E+00
