Generated by VASPKIT code               
   1.00000000000000     
    11.8191613487273859   -0.0026929722707052    0.0000000000000000
    -5.9118711829766815   10.7552862671212530    0.0000000000000000
     0.0000000000000012    0.0000000000000023   20.2281905226912571
  C             
    96
Direct
  0.4271327437537309  0.6438194789347023  0.6331901322006104
  0.5739187132639145  0.3549085787260040  0.6330433730701657
  0.4907633839576064  0.7746813262211205  0.6215835711070667
  0.5122027390876269  0.2243171082524853  0.6213760358812195
  0.5645709693911698  0.7964323617785283  0.5600024124046001
  0.4384767679554002  0.2017722467486820  0.5599155147415402
  0.4644152178425998  0.5844748681241470  0.5799907986569011
  0.5354329081350429  0.4132076029808331  0.5798058287547363
  0.5479515819632113  0.6801676348807604  0.5349584641229796
  0.4523719540412188  0.3168534507405241  0.5347559769610584
  0.3474901077251289  0.4877589789435675  0.5502486230396642
  0.6519489516011490  0.5105164683567764  0.5500890078404908
  0.2905834904081104  0.5802758276248667  0.6371671684123683
  0.7105137615173120  0.4197448244338560  0.6371829459753613
  0.2421907672508823  0.4843625437744663  0.5855733741012585
  0.7579727656851531  0.5156574962183313  0.5855903817676307
  0.2188344911860582  0.6450534264010912  0.6329912997697633
  0.7835158509290991  0.3562547408428713  0.6331578953973747
  0.4241011798730696  0.8441132537440197  0.6182578281159152
  0.5801178947599723  0.1559247308355722  0.6182578030911685
  0.2877505746394817  0.7756710372766591  0.6213433402261046
  0.7162632961383792  0.2253903918790101  0.6215595506510212
  0.5448513276685105  0.8776734095063006  0.5189828609259877
  0.4581538640605274  0.1209275494676660  0.5189293356178766
  0.4662132793892511  0.9279146649634384  0.5556165619586579
  0.5383223839478788  0.0721199520929829  0.5556155008764208
  0.5341056948350555  0.8577479560064134  0.4500988947137046
  0.4689948721343029  0.1408652613923422  0.4498265773767613
  0.5398653582479085  0.6616172501872200  0.4659913510248614
  0.4605549885497311  0.3353781366896911  0.4656391060251437
  0.5451126674716846  0.7545268359925146  0.4240686071227913
  0.4570513457386483  0.2432866187273390  0.4236964612153216
  0.3381663344286707  0.4653892600567460  0.4816890085365984
  0.6609336227868923  0.5322714572192240  0.4815535621786253
  0.4573157700175159  0.5330142330369867  0.4357161947302188
  0.5423439989948449  0.4641947864571989  0.4355544706259096
  0.2250849458805604  0.4503894142868035  0.4496974921148222
  0.7747099696638955  0.5496547178258382  0.4497152520474117
  0.1413647399409470  0.4894893595778740  0.5500200680274574
  0.8598180669373363  0.5122903735914832  0.5502124573265661
  0.1220881706178929  0.5867284232675232  0.5797220261134726
  0.8801220278130515  0.4156501704566651  0.5799306555512871
  0.1286474100583632  0.4677499625779049  0.4814946227430212
  0.8728293951201351  0.5346648787637562  0.4816638626329564
  0.2366440992681547  0.7981821895057450  0.5598518185127972
  0.7682630142385705  0.2036607170880416  0.5599471385149783
  0.3372524993693986  0.8790594495649842  0.5188869714650934
  0.6672000484394189  0.1224173132620834  0.5189417558484948
  0.1354777415069748  0.6830955230193752  0.5346581593872983
  0.8678835256507398  0.3199481966834838  0.5348803315632793
  0.4346271707576221  0.8648629993749140  0.4127172884861210
  0.5696107319201218  0.1351853324460706  0.4127210186676393
  0.3282650212930491  0.8591560266583116  0.4497809440757408
  0.6762822879416959  0.1423264096624521  0.4500583056727976
  0.4536206561445226  0.6971800833119346  0.3694562581490928
  0.5489842341761104  0.3016550048637043  0.3693672080485726
  0.3918620327526128  0.5666844912771438  0.3770116610075647
  0.6090398599088687  0.4319489601033197  0.3767778181405745
  0.2548933509844389  0.5087019201169554  0.3848893077551097
  0.7461362783198240  0.4913533338135920  0.3849042487725782
  0.3843451173203292  0.7645866982763181  0.3629639456219351
  0.6195960474200817  0.2354639116288553  0.3629706231771479
  0.0782118551334889  0.5358392538477048  0.4354801231578236
  0.9242910878990713  0.4670516495859829  0.4356622787569080
  0.1252425622831481  0.6646264081364848  0.4655459116104907
  0.8782479647034052  0.3384639315847551  0.4659189313815162
  0.2138856503702868  0.7567324070664441  0.4236097853126353
  0.7905239723222408  0.2455480853323024  0.4239933155273192
  0.1772241451519321  0.5680866345940103  0.3767329934190684
  0.8250838281322288  0.4333798356060115  0.3769985281344077
  0.2474893604243107  0.6983757971943092  0.3693031547505043
  0.7563305437736005  0.3028925529928230  0.3694141971108138
  0.0559721050799382  0.1863769803408175  0.5583326992539170
  0.0798730835448680  0.1097783108976103  0.6028629067631925
  0.1328552534554674  0.2095995123450791  0.4996849143453659
  0.1584709532743460  0.0657592771845970  0.5642794349254387
  0.1886180048947921  0.1287779728249916  0.5009081313068720
  0.0597153366799290  0.1861556539548701  0.4393422275371393
  0.0867977609668955  0.1093430373598494  0.3968114258677318
  0.1631780898770856  0.0660176805493649  0.4380749450912518
  0.9255361843360888  0.1138933507835915  0.4613434253585069
  0.9222405665149793  0.1145350123313094  0.5339394414029357
  0.8637691861075467  0.9997793053142914  0.5694723272551059
  0.8674708390515562  0.9998354507951177  0.4253830243056953
  0.8115562783319632  0.8857266025685675  0.4613159257388588
  0.8076324036034990  0.8850471685368788  0.5339055921896048
  0.9690952416853307  0.9999520813814229  0.3812163311273125
  0.9701173649611832  0.8901126774833870  0.6028280790865139
  0.9609244473054162  0.9998520394711292  0.6162037896570567
  0.8696359340283877  0.8133782093163546  0.5582805578023695
  0.9234193293905477  0.7903543267661561  0.4996269400821589
  0.8736565657783331  0.8137016561634667  0.4392925515330219
  0.9775751015627705  0.8907243917780718  0.3967967115671627
  0.0928231996740649  0.9343493184632834  0.5642649677565643
  0.0600393379687532  0.8713829405188065  0.5008794083507766
  0.0973423989110600  0.9341988764100861  0.4380609797782569
 
  0.00000000E+00  0.00000000E+00  0.00000000E+00
  0.00000000E+00  0.00000000E+00  0.00000000E+00
  0.00000000E+00  0.00000000E+00  0.00000000E+00
  0.00000000E+00  0.00000000E+00  0.00000000E+00
  0.00000000E+00  0.00000000E+00  0.00000000E+00
  0.00000000E+00  0.00000000E+00  0.00000000E+00
  0.00000000E+00  0.00000000E+00  0.00000000E+00
  0.00000000E+00  0.00000000E+00  0.00000000E+00
  0.00000000E+00  0.00000000E+00  0.00000000E+00
  0.00000000E+00  0.00000000E+00  0.00000000E+00
  0.00000000E+00  0.00000000E+00  0.00000000E+00
  0.00000000E+00  0.00000000E+00  0.00000000E+00
  0.00000000E+00  0.00000000E+00  0.00000000E+00
  0.00000000E+00  0.00000000E+00  0.00000000E+00
  0.00000000E+00  0.00000000E+00  0.00000000E+00
  0.00000000E+00  0.00000000E+00  0.00000000E+00
  0.00000000E+00  0.00000000E+00  0.00000000E+00
  0.00000000E+00  0.00000000E+00  0.00000000E+00
  0.00000000E+00  0.00000000E+00  0.00000000E+00
  0.00000000E+00  0.00000000E+00  0.00000000E+00
  0.00000000E+00  0.00000000E+00  0.00000000E+00
  0.00000000E+00  0.00000000E+00  0.00000000E+00
  0.00000000E+00  0.00000000E+00  0.00000000E+00
  0.00000000E+00  0.00000000E+00  0.00000000E+00
  0.00000000E+00  0.00000000E+00  0.00000000E+00
  0.00000000E+00  0.00000000E+00  0.00000000E+00
  0.00000000E+00  0.00000000E+00  0.00000000E+00
  0.00000000E+00  0.00000000E+00  0.00000000E+00
  0.00000000E+00  0.00000000E+00  0.00000000E+00
  0.00000000E+00  0.00000000E+00  0.00000000E+00
  0.00000000E+00  0.00000000E+00  0.00000000E+00
  0.00000000E+00  0.00000000E+00  0.00000000E+00
  0.00000000E+00  0.00000000E+00  0.00000000E+00
  0.00000000E+00  0.00000000E+00  0.00000000E+00
  0.00000000E+00  0.00000000E+00  0.00000000E+00
  0.00000000E+00  0.00000000E+00  0.00000000E+00
  0.00000000E+00  0.00000000E+00  0.00000000E+00
  0.00000000E+00  0.00000000E+00  0.00000000E+00
  0.00000000E+00  0.00000000E+00  0.00000000E+00
  0.00000000E+00  0.00000000E+00  0.00000000E+00
  0.00000000E+00  0.00000000E+00  0.00000000E+00
  0.00000000E+00  0.00000000E+00  0.00000000E+00
  0.00000000E+00  0.00000000E+00  0.00000000E+00
  0.00000000E+00  0.00000000E+00  0.00000000E+00
  0.00000000E+00  0.00000000E+00  0.00000000E+00
  0.00000000E+00  0.00000000E+00  0.00000000E+00
  0.00000000E+00  0.00000000E+00  0.00000000E+00
  0.00000000E+00  0.00000000E+00  0.00000000E+00
  0.00000000E+00  0.00000000E+00  0.00000000E+00
  0.00000000E+00  0.00000000E+00  0.00000000E+00
  0.00000000E+00  0.00000000E+00  0.00000000E+00
  0.00000000E+00  0.00000000E+00  0.00000000E+00
  0.00000000E+00  0.00000000E+00  0.00000000E+00
  0.00000000E+00  0.00000000E+00  0.00000000E+00
  0.00000000E+00  0.00000000E+00  0.00000000E+00
  0.00000000E+00  0.00000000E+00  0.00000000E+00
  0.00000000E+00  0.00000000E+00  0.00000000E+00
  0.00000000E+00  0.00000000E+00  0.00000000E+00
  0.00000000E+00  0.00000000E+00  0.00000000E+00
  0.00000000E+00  0.00000000E+00  0.00000000E+00
  0.00000000E+00  0.00000000E+00  0.00000000E+00
  0.00000000E+00  0.00000000E+00  0.00000000E+00
  0.00000000E+00  0.00000000E+00  0.00000000E+00
  0.00000000E+00  0.00000000E+00  0.00000000E+00
  0.00000000E+00  0.00000000E+00  0.00000000E+00
  0.00000000E+00  0.00000000E+00  0.00000000E+00
  0.00000000E+00  0.00000000E+00  0.00000000E+00
  0.00000000E+00  0.00000000E+00  0.00000000E+00
  0.00000000E+00  0.00000000E+00  0.00000000E+00
  0.00000000E+00  0.00000000E+00  0.00000000E+00
  0.00000000E+00  0.00000000E+00  0.00000000E+00
  0.00000000E+00  0.00000000E+00  0.00000000E+00
  0.00000000E+00  0.00000000E+00  0.00000000E+00
  0.00000000E+00  0.00000000E+00  0.00000000E+00
  0.00000000E+00  0.00000000E+00  0.00000000E+00
  0.00000000E+00  0.00000000E+00  0.00000000E+00
  0.00000000E+00  0.00000000E+00  0.00000000E+00
  0.00000000E+00  0.00000000E+00  0.00000000E+00
  0.00000000E+00  0.00000000E+00  0.00000000E+00
  0.00000000E+00  0.00000000E+00  0.00000000E+00
  0.00000000E+00  0.00000000E+00  0.00000000E+00
  0.00000000E+00  0.00000000E+00  0.00000000E+00
  0.00000000E+00  0.00000000E+00  0.00000000E+00
  0.00000000E+00  0.00000000E+00  0.00000000E+00
  0.00000000E+00  0.00000000E+00  0.00000000E+00
  0.00000000E+00  0.00000000E+00  0.00000000E+00
  0.00000000E+00  0.00000000E+00  0.00000000E+00
  0.00000000E+00  0.00000000E+00  0.00000000E+00
  0.00000000E+00  0.00000000E+00  0.00000000E+00
  0.00000000E+00  0.00000000E+00  0.00000000E+00
  0.00000000E+00  0.00000000E+00  0.00000000E+00
  0.00000000E+00  0.00000000E+00  0.00000000E+00
  0.00000000E+00  0.00000000E+00  0.00000000E+00
  0.00000000E+00  0.00000000E+00  0.00000000E+00
  0.00000000E+00  0.00000000E+00  0.00000000E+00
  0.00000000E+00  0.00000000E+00  0.00000000E+00
