Generated by VASPKIT code               
   1.00000000000000     
    11.7709831520617882   -0.3290584517581932    0.0000000000000000
    -0.3436878616992347   12.6404524933028206    0.0000000000000000
     0.0000000000000012    0.0000000000000013   20.2234290488026076
  C             
    84
Direct
  0.6238725402923464  0.5016940034835855  0.6374879825717841
  0.5656639190031072  0.5965952298289494  0.6353249260217453
  0.6050746344097959  0.6611091784561722  0.5773599134151368
  0.7040698986799043  0.5017905669387375  0.5770919310922764
  0.6800926996187684  0.6053381993966909  0.5414064341072802
  0.6478891361721111  0.4153858925810283  0.5375128540914247
  0.5548321822393518  0.4062636465939278  0.6357784099402224
  0.5843623713175248  0.3484107923508191  0.5750237564754812
  0.4343445031050166  0.4034130356614298  0.6353281785917986
  0.4451795330678792  0.5937470433858394  0.6357719699066067
  0.3761377722815382  0.4983176751375353  0.6374896470984623
  0.5083659349938898  0.7174478709863408  0.5447187623995973
  0.4156468790256795  0.6515934904778575  0.5750145854211723
  0.5055880848610812  0.7103447318168392  0.4660272703554966
  0.6799626371775673  0.6077644752933296  0.4699443251293971
  0.5980776596248845  0.6555543504041879  0.4355922579596978
  0.6898088613241811  0.4100797302411223  0.4698065379465746
  0.7153104655497771  0.5161099850149853  0.4285726252898172
  0.5998478301832719  0.3450747673394119  0.4314685363128277
  0.4916435640232422  0.2825536597461991  0.5447290327596406
  0.3949339879018581  0.3389000244956364  0.5773651236319495
  0.4944160613683408  0.2896551920102155  0.4660382447807621
  0.2959379542819462  0.4982156870027410  0.5770937378172434
  0.3521244271464710  0.5846108780054777  0.5375086361177210
  0.3199133557580751  0.3946607296246469  0.5414133453719998
  0.4001587848437609  0.6549131704321169  0.4314585591308671
  0.3101985530328903  0.5899146637421993  0.4698013354416588
  0.5604849623966288  0.5945522073908833  0.3780414414497884
  0.6268635505848721  0.5075931880057212  0.3726534318077057
  0.5630382674516525  0.4070165202044933  0.3787340371714834
  0.4369623566645160  0.5929670403789373  0.3787277222357375
  0.4019263190403635  0.3444419578021112  0.4356026181517336
  0.3200363903593342  0.3922276330012409  0.4699491293069542
  0.2846917149299699  0.4838822716448021  0.4285728292939481
  0.4395144539069662  0.4054280648560820  0.3780452698014400
  0.3731366914836158  0.4923812450675555  0.3726522329160176
  0.6055300439677112  0.9106934112201444  0.5663849039601985
  0.0883116411467171  0.6146638946752248  0.5924922765902920
  0.6789202900171603  0.9408624004547832  0.5134524703064969
  0.0454598747413328  0.6797981983098822  0.5405269223487323
  0.5610724533657319  0.0031877268264324  0.5933690477131321
  0.9937769519417543  0.5560656746251027  0.6208497202713446
  0.6671412837071387  0.0555836955483571  0.5020268694878993
  0.9243787152241296  0.6467739071675354  0.5279615983449872
  0.5948741514773701  0.0936316958507035  0.5526418382186336
  0.9003179310436380  0.5686253703360649  0.5755302196805019
  0.4389333430260081  0.9968048992902112  0.5933752222591835
  0.0062319052891624  0.4439412798362383  0.6208472017098217
  0.3944700648625670  0.0893059477052631  0.5663987353486846
  0.9116975729462595  0.3853406238124819  0.5924943740282131
  0.4933952088963167  0.1607092065183693  0.5404721017044736
  0.8302861255568601  0.4672580656638701  0.5638520141860397
  0.4051217516495029  0.9063653650800276  0.5526467796127932
  0.0996925097948349  0.4313800377147388  0.5755332701300517
  0.5066037858141996  0.8392891334728816  0.5404642107497821
  0.1697225451289768  0.5327462482237237  0.5638507662976409
  0.5296096785573638  0.8296841219535054  0.4620322269211030
  0.1785187247823146  0.5769206010151393  0.4878772210100522
  0.3328491292297429  0.9444240589307782  0.5020356822130552
  0.0756303575792003  0.3532290206065554  0.5279640915498192
  0.3576156910856199  0.9338551904161250  0.4321566165479638
  0.0860303399087528  0.3860239586090017  0.4596635941069422
  0.4596553210753314  0.8850364045481669  0.4130038470110051
  0.1490723822854818  0.4873268798659609  0.4340623922835150
  0.3210728610806584  0.0591459335952891  0.5134679089778658
  0.9545475975607971  0.3202015740757673  0.5405312459451395
  0.6401791145604676  0.9621620565738169  0.4009374944165103
  0.0214023790861120  0.6321275417792478  0.4281834969635554
  0.6473475631651056  0.8883454040309715  0.4538150176669902
  0.0991172903270723  0.6617380115340410  0.4803701519063281
  0.5280978926710063  0.9503013656326544  0.3705292138412375
  0.0484243584608777  0.5350213354273237  0.3954866338886092
  0.4718548081154239  0.0496998822871433  0.3705377288547140
  0.9515792218496344  0.4649754855574599  0.3954878230229184
  0.3597819213684303  0.0378461113548738  0.4009534908848451
  0.9786028919338321  0.3678707504238403  0.4281867627517499
  0.3526333951595575  0.1116671985330413  0.4538345169401765
  0.9008920886140999  0.3382636045244141  0.4803743909067819
  0.6423545360427028  0.0661517028894423  0.4321469648990259
  0.9139776725409092  0.6139775107632772  0.4596618931890148
  0.5403106871505585  0.1149650010091321  0.4130055092096327
  0.8509324232439184  0.5126699647658910  0.4340642402628490
  0.4703754374660321  0.1703165210609967  0.4620420398079403
  0.8214871473994094  0.4230772271042369  0.4878778595748514
 
  0.00000000E+00  0.00000000E+00  0.00000000E+00
  0.00000000E+00  0.00000000E+00  0.00000000E+00
  0.00000000E+00  0.00000000E+00  0.00000000E+00
  0.00000000E+00  0.00000000E+00  0.00000000E+00
  0.00000000E+00  0.00000000E+00  0.00000000E+00
  0.00000000E+00  0.00000000E+00  0.00000000E+00
  0.00000000E+00  0.00000000E+00  0.00000000E+00
  0.00000000E+00  0.00000000E+00  0.00000000E+00
  0.00000000E+00  0.00000000E+00  0.00000000E+00
  0.00000000E+00  0.00000000E+00  0.00000000E+00
  0.00000000E+00  0.00000000E+00  0.00000000E+00
  0.00000000E+00  0.00000000E+00  0.00000000E+00
  0.00000000E+00  0.00000000E+00  0.00000000E+00
  0.00000000E+00  0.00000000E+00  0.00000000E+00
  0.00000000E+00  0.00000000E+00  0.00000000E+00
  0.00000000E+00  0.00000000E+00  0.00000000E+00
  0.00000000E+00  0.00000000E+00  0.00000000E+00
  0.00000000E+00  0.00000000E+00  0.00000000E+00
  0.00000000E+00  0.00000000E+00  0.00000000E+00
  0.00000000E+00  0.00000000E+00  0.00000000E+00
  0.00000000E+00  0.00000000E+00  0.00000000E+00
  0.00000000E+00  0.00000000E+00  0.00000000E+00
  0.00000000E+00  0.00000000E+00  0.00000000E+00
  0.00000000E+00  0.00000000E+00  0.00000000E+00
  0.00000000E+00  0.00000000E+00  0.00000000E+00
  0.00000000E+00  0.00000000E+00  0.00000000E+00
  0.00000000E+00  0.00000000E+00  0.00000000E+00
  0.00000000E+00  0.00000000E+00  0.00000000E+00
  0.00000000E+00  0.00000000E+00  0.00000000E+00
  0.00000000E+00  0.00000000E+00  0.00000000E+00
  0.00000000E+00  0.00000000E+00  0.00000000E+00
  0.00000000E+00  0.00000000E+00  0.00000000E+00
  0.00000000E+00  0.00000000E+00  0.00000000E+00
  0.00000000E+00  0.00000000E+00  0.00000000E+00
  0.00000000E+00  0.00000000E+00  0.00000000E+00
  0.00000000E+00  0.00000000E+00  0.00000000E+00
  0.00000000E+00  0.00000000E+00  0.00000000E+00
  0.00000000E+00  0.00000000E+00  0.00000000E+00
  0.00000000E+00  0.00000000E+00  0.00000000E+00
  0.00000000E+00  0.00000000E+00  0.00000000E+00
  0.00000000E+00  0.00000000E+00  0.00000000E+00
  0.00000000E+00  0.00000000E+00  0.00000000E+00
  0.00000000E+00  0.00000000E+00  0.00000000E+00
  0.00000000E+00  0.00000000E+00  0.00000000E+00
  0.00000000E+00  0.00000000E+00  0.00000000E+00
  0.00000000E+00  0.00000000E+00  0.00000000E+00
  0.00000000E+00  0.00000000E+00  0.00000000E+00
  0.00000000E+00  0.00000000E+00  0.00000000E+00
  0.00000000E+00  0.00000000E+00  0.00000000E+00
  0.00000000E+00  0.00000000E+00  0.00000000E+00
  0.00000000E+00  0.00000000E+00  0.00000000E+00
  0.00000000E+00  0.00000000E+00  0.00000000E+00
  0.00000000E+00  0.00000000E+00  0.00000000E+00
  0.00000000E+00  0.00000000E+00  0.00000000E+00
  0.00000000E+00  0.00000000E+00  0.00000000E+00
  0.00000000E+00  0.00000000E+00  0.00000000E+00
  0.00000000E+00  0.00000000E+00  0.00000000E+00
  0.00000000E+00  0.00000000E+00  0.00000000E+00
  0.00000000E+00  0.00000000E+00  0.00000000E+00
  0.00000000E+00  0.00000000E+00  0.00000000E+00
  0.00000000E+00  0.00000000E+00  0.00000000E+00
  0.00000000E+00  0.00000000E+00  0.00000000E+00
  0.00000000E+00  0.00000000E+00  0.00000000E+00
  0.00000000E+00  0.00000000E+00  0.00000000E+00
  0.00000000E+00  0.00000000E+00  0.00000000E+00
  0.00000000E+00  0.00000000E+00  0.00000000E+00
  0.00000000E+00  0.00000000E+00  0.00000000E+00
  0.00000000E+00  0.00000000E+00  0.00000000E+00
  0.00000000E+00  0.00000000E+00  0.00000000E+00
  0.00000000E+00  0.00000000E+00  0.00000000E+00
  0.00000000E+00  0.00000000E+00  0.00000000E+00
  0.00000000E+00  0.00000000E+00  0.00000000E+00
  0.00000000E+00  0.00000000E+00  0.00000000E+00
  0.00000000E+00  0.00000000E+00  0.00000000E+00
  0.00000000E+00  0.00000000E+00  0.00000000E+00
  0.00000000E+00  0.00000000E+00  0.00000000E+00
  0.00000000E+00  0.00000000E+00  0.00000000E+00
  0.00000000E+00  0.00000000E+00  0.00000000E+00
  0.00000000E+00  0.00000000E+00  0.00000000E+00
  0.00000000E+00  0.00000000E+00  0.00000000E+00
  0.00000000E+00  0.00000000E+00  0.00000000E+00
  0.00000000E+00  0.00000000E+00  0.00000000E+00
  0.00000000E+00  0.00000000E+00  0.00000000E+00
  0.00000000E+00  0.00000000E+00  0.00000000E+00
