Generated by VASPKIT code               
   1.00000000000000     
    20.3201964600047909   -0.0745579029536953    0.0000000000000000
   -10.2253660584065234   17.9378875779050269    0.0000000000000000
     0.0000000000000012    0.0000000000000022   20.2251685458617523
  C             
   240
Direct
  0.4703302414486288  0.8082295414373561  0.5589026136027542
  0.5291855539740169  0.1890376406641181  0.5700973657772792
  0.4085580983771919  0.8202903284803114  0.5556359501806156
  0.5912175984185879  0.1774136111507900  0.5677077180333470
  0.3849745418008084  0.8106699443730179  0.4859248258929156
  0.6143014864811747  0.1851304550291673  0.4979098019615265
  0.4968490641976047  0.8023059051279731  0.4889828214262337
  0.5039487905508580  0.1941501104096162  0.4992445916007711
  0.4348027477956862  0.8011512069067166  0.4435558668228765
  0.5645139149261311  0.1931004415011941  0.4545198329199920
  0.4793703000138763  0.7216602758689632  0.4930735624116664
  0.5218928374373135  0.2746399098815928  0.5020569463926776
  0.4666647840069373  0.7509777854321982  0.5995572211318461
  0.5333918991617068  0.2478085162752066  0.6091423274822176
  0.4902076759634681  0.7000917581237545  0.5622856664602125
  0.5098168572597643  0.2973604413781743  0.5700355646342388
  0.4015455201655769  0.7081466986773748  0.6375628467564312
  0.5988725484936666  0.2923020383215302  0.6461549905052451
  0.3428036236521450  0.7801501659948897  0.5954893659923854
  0.6574288977542224  0.2192986103371766  0.6067881294806980
  0.3398979553559727  0.7227427609602231  0.6344956731549587
  0.6607490396918223  0.2779982575180497  0.6439692499712493
  0.3057024547402349  0.7642015811127223  0.4836755879821197
  0.6929658841108406  0.2326441176219305  0.4949733125570788
  0.2695371591295270  0.7501859081657329  0.5530333758956658
  0.7299824616094313  0.2482933095001059  0.5637908693638423
  0.2709923503211442  0.7133553369561199  0.4319078131256546
  0.7270954335381248  0.2807958887659510  0.4414967940603631
  0.3996627461712947  0.7467396643008541  0.3926629292800001
  0.5984696053963248  0.2452331016870701  0.4019164343750958
  0.3185385762252793  0.7087049407567889  0.3832445061190697
  0.6793971544522677  0.2831883449843957  0.3917384103724260
  0.4525906513472435  0.6735598113438712  0.4412173234923102
  0.5463557430555994  0.3200263149057108  0.4484033653674615
  0.4171112974595843  0.6875730660784853  0.3858485483645069
  0.5805809429671740  0.3038263475335228  0.3933582758896321
  0.4096768902982433  0.5936675859976361  0.4559147666029588
  0.5882326235248598  0.4001274528553935  0.4606412702713811
  0.4222148465175550  0.6214378847153483  0.5755254945308224
  0.5772945487717465  0.3766551936432236  0.5813344888083094
  0.3728016700416177  0.6293937655151751  0.6210725363345375
  0.6272201074807811  0.3704991097489554  0.6274415480730582
  0.3888081671263990  0.5709000821703256  0.5225327725242579
  0.6097729482798755  0.4251501197896204  0.5267474741366769
  0.2724414804179673  0.6526896835170675  0.6151104552143281
  0.7279215708749049  0.3475524659926279  0.6229684981065802
  0.2313512057697835  0.6660955217146594  0.5660138045019067
  0.7686149371632851  0.3326217964070395  0.5746247569260774
  0.2927336964612692  0.5958096873389778  0.6091875563570284
  0.7072134724848098  0.4039210475621076  0.6150299449221066
  0.2091694199774707  0.6377802842226430  0.4447353458366194
  0.7890251482100084  0.3565435150141170  0.4523243500763527
  0.2005140369142495  0.6148515019628178  0.5129699004118322
  0.7984547171273917  0.3817380370251087  0.5200092079512260
  0.2868044855033958  0.6289590593617476  0.3659548942752195
  0.7106355102457087  0.3621025532059861  0.3722169099524919
  0.3497220600852344  0.6170845143204247  0.3690401198834081
  0.6474852302713288  0.3737596884961505  0.3745870310003454
  0.3476044118539150  0.5606253301613648  0.4117790450484762
  0.6497319770503225  0.4312809337247572  0.4158326941243757
  0.2199161632058448  0.5864693241274566  0.4042828825236811
  0.7777851073649558  0.4059524638261038  0.4099906320221436
  0.3047910222386108  0.5139345138615568  0.5205959183210567
  0.6934898992897303  0.4819409000496719  0.5233774779687224
  0.2610888683461496  0.5459561107528685  0.5554852391077532
  0.7379120893074074  0.4516889030815108  0.5598619771248039
  0.2101932454817330  0.5507817230721272  0.5135302889720279
  0.7882658595672538  0.4453030010713448  0.5183641428809977
  0.2781177542727633  0.5073792136104913  0.4470908739910371
  0.7191308327821275  0.4850872367190675  0.4500457474105701
  0.2076186641594475  0.5196279372666268  0.4452105747005319
  0.7898944009907538  0.4735692654972325  0.4489991009870380
  0.0769598743169695  0.0481903072921952  0.3631196372237824
  0.8436360901232334  0.2111583685818559  0.6054130196638354
  0.7943369647512597  0.6534885866091997  0.6196212350901718
  0.3455958582267016  0.1336260967148135  0.5955511369737323
  0.1546829122243665  0.7860072921083514  0.5965178860464491
  0.2055062100994647  0.3451115966670031  0.6225822125611984
  0.6540040010785120  0.8622221339126455  0.5906287164260888
  0.0386663153264095  0.0900070094089003  0.3634298759617209
  0.8195479254916407  0.1349902720149601  0.6130242423574259
  0.8774765429634712  0.7006906068709284  0.6287362459153272
  0.3042305943873913  0.1716548059442857  0.6193285554061561
  0.1777455839931150  0.8600588428692504  0.6056815304715499
  0.1225461730146122  0.2977118950687583  0.6322354551647820
  0.6948925398958892  0.8238903746959281  0.6129986783463437
  0.1360775919889079  0.0746060731886473  0.4165067129616276
  0.9228085672396631  0.2471315624290753  0.5687059207151535
  0.7590472485072368  0.6882106932072105  0.5783291309670346
  0.2984487986967537  0.0659162304532259  0.5536398179228925
  0.0757736290411017  0.7501236719351567  0.5613518941844120
  0.2411018173601249  0.3097581472671607  0.5829305389520769
  0.7029394476945754  0.9308789909073383  0.5515150778153100
  0.0584854805750652  0.1376913954173702  0.4269235395101134
  0.8672729923755114  0.1142544343166634  0.5774025275351136
  0.9035320438450825  0.7612651669756545  0.5868801478790999
  0.2348592600067008  0.1395520659654466  0.5825989582144331
  0.1300767247326675  0.8830949300462620  0.5688737781767799
  0.0960981572593198  0.2359928925079231  0.5915502894632994
  0.7651776946827198  0.8581789698653637  0.5736991054196281
  0.1003012103872862  0.1044938824954968  0.4632857707594340
  0.9345202231678869  0.1780583181325355  0.5475703316530982
  0.8344255885893332  0.7605487755376927  0.5534411866620417
  0.2429721823633813  0.0921723921090774  0.5358892420124164
  0.0621731088522353  0.8180369915948731  0.5410875661200336
  0.1663826354526705  0.2364576563577927  0.5587576694651801
  0.7628125903059697  0.9101660531965976  0.5331379752798995
  0.1216545795491442  0.0013983842367509  0.4515508870754275
  0.8993058384842385  0.2628073011227556  0.5041132594994977
  0.7186031543826559  0.6348107271164096  0.5196398503207575
  0.3438124687522759  0.0744907630075176  0.4880456421752299
  0.0988630668140971  0.7347075485648205  0.4959243845142538
  0.2808678112978811  0.3622342717301024  0.5232093577880761
  0.6588357728543812  0.9237006415494591  0.4858762392032361
  0.0970341199837677  0.0097060498085497  0.5176094412651437
  0.9330871013777653  0.2489634689961449  0.4441827155343532
  0.7586780432878015  0.6777657547938318  0.4564551133049406
  0.2914585350069387  0.0751110249578062  0.4325311234055889
  0.0633895961794693  0.7488800856144593  0.4378585876985142
  0.2396167969087131  0.3168357731841880  0.4612670592843955
  0.7169409906795678  0.9310389432718935  0.4303521508736949
  0.0889173773802767  0.0740528052060014  0.5257081648003989
  0.9419156046484218  0.1807268770755215  0.4677706563189332
  0.8336853863939524  0.7532531458901914  0.4756062753734653
  0.2452616069169480  0.1012565344150929  0.4692158657538386
  0.0529620064111782  0.8153518881771689  0.4630686648058173
  0.1672330950371261  0.2421424988817122  0.4823222179919924
  0.7827536908413890  0.9213528124187036  0.4606845974283331
  0.0496767090705177  0.9331400775607790  0.4197716565937455
  0.8238029386793997  0.2356285168557548  0.4966382141493071
  0.7361949145718185  0.5693807935375759  0.5269100284384010
  0.4159612212254160  0.1580111399914301  0.4898380485601450
  0.1738578729881723  0.7629905728378077  0.4866171474858518
  0.2623959952311878  0.4270198464667629  0.5279311984679751
  0.5869550539724173  0.8410182374660238  0.4837477667260899
  0.0223373973228007  0.9697049968090923  0.3696618276423251
  0.7777294604172127  0.2087634347985556  0.5591808372016089
  0.7886356535131398  0.5937686029073603  0.5849490700729447
  0.3969692126188988  0.1847317009684488  0.5539143054672309
  0.2206916533874832  0.7888108219041925  0.5492878032450577
  0.2108010972067973  0.4041039395156432  0.5866035903039091
  0.6026554931818211  0.8124192976286650  0.5483522788985198
  0.9476533019696376  0.9629150399843311  0.3690631693722253
  0.7225855003677921  0.1242481776554456  0.5488099721887068
  0.8615921356049938  0.5964070496582892  0.5827088856852285
  0.4166037538032441  0.2650688201171505  0.5664380099166237
  0.2740406741550743  0.8734328762752810  0.5400330200800312
  0.1380223071327507  0.4012343887451308  0.5843339270736934
  0.5828794167588214  0.7319621960815539  0.5599145460883435
  0.9947117526956077  0.9081547564296955  0.4788074399385494
  0.8005602032519192  0.2041678363744310  0.4318932636170274
  0.7715200248661276  0.5697308579895193  0.4557483661471409
  0.3965717868923946  0.1953856387445043  0.4336896324015456
  0.1944382925531585  0.7974627955091904  0.4213461429429586
  0.2250079037279136  0.4227327429157057  0.4559983053545906
  0.6117921821544954  0.8083291402471033  0.4285537513326432
  0.9239323551656611  0.9035784034063354  0.4779478028439712
  0.7356983763572913  0.1275613114458949  0.4260443670571874
  0.8464260472800191  0.5656805974770691  0.4531406017877089
  0.3937824538034604  0.2645786670435584  0.4435064528164290
  0.2562595672307921  0.8753989955387098  0.4179353546114442
  0.1504644977365146  0.4263009534692728  0.4529985345597254
  0.6124732608632542  0.7382590268783886  0.4370754556945968
  0.8856240661885906  0.9186259508026353  0.4193649127530179
  0.6975909993645573  0.0887678544662194  0.4841059569545720
  0.8897181854541358  0.5902149246308070  0.5173866231316211
  0.3973603302037532  0.2953658075515122  0.5056215768988466
  0.2955612635774116  0.9106618837436571  0.4758760335874399
  0.1088528738538912  0.4054997116502861  0.5185952354070338
  0.6050266161679261  0.7046332248994105  0.4986836238514627
  0.0327496152995508  0.9466783115823034  0.5400758935168355
  0.8649939872830359  0.2120671279017401  0.3969757804303669
  0.7823794751346824  0.6342467744146347  0.4165883376358011
  0.3345767091063649  0.1480520428190175  0.3959834419924562
  0.1293285510932449  0.7901071415634391  0.3897878463772599
  0.2108689509496884  0.3547005106482359  0.4206204154040307
  0.6768587005977054  0.8574739047044204  0.3945953150266845
  0.9181328040869587  0.0554438672631008  0.4147446500046712
  0.7349258376732948  0.0171647117698370  0.5524958591966467
  0.9845656482415421  0.6998955125516915  0.5709332657944088
  0.2921060098406656  0.2716845254391629  0.5778446322380049
  0.2592237854926367  0.9792761397946990  0.5495350449422318
  0.0146237061927295  0.2972356148911643  0.5754232832575568
  0.7092931209440323  0.7268053009432407  0.5718726099570972
  0.9592599345151385  0.0371725484738974  0.3628349754700366
  0.7403481892772135  0.0827563602297445  0.5911417288365399
  0.9170597069102868  0.6580314741068563  0.6182022426307654
  0.3457375613226645  0.2499736235824983  0.6129299913129032
  0.2561616487600418  0.9131986231158891  0.5840227862721576
  0.0830333400062315  0.3402595110614541  0.6210379571352291
  0.6549718868759413  0.7475612092054291  0.6063656987245594
  0.8679690513478064  0.9787364663900036  0.4500073457579035
  0.6937707474617554  0.0131998878275184  0.4861210226861417
  0.9594291643803814  0.6512815560554017  0.5110230647401508
  0.3350766091324076  0.3131958136286173  0.5149358021806734
  0.2983136178877643  0.9844209837888798  0.4823355957145026
  0.0390783435303987  0.3446388535551321  0.5144480038582913
  0.6661485194493650  0.6858951044224852  0.5088535842848074
  0.9016419213142655  0.9929991185845068  0.5164387692176717
  0.7485571020318957  0.0196143090433623  0.4297736859805141
  0.9749092291977419  0.6908406050491323  0.4468917726003809
  0.2858117544708563  0.2779213681136596  0.4542921171595111
  0.2442068301444564  0.9853232552058770  0.4274394419365350
  0.0229820922369726  0.3025146945222659  0.4516089147181432
  0.7166064129083267  0.7206315372985728  0.4488967293366528
  0.9167428427755411  0.9379804388967514  0.5376009507388062
  0.7628403873888985  0.0861448186131426  0.3872012734915913
  0.9021159679784461  0.6376570903486396  0.4098034905679597
  0.3284889717326465  0.2579176560811973  0.4063879465513693
  0.2260010643021744  0.9182822239955684  0.3844522867233238
  0.0947752704330611  0.3505685733344492  0.4130763569558695
  0.6783300144465869  0.7452645098823396  0.4009804040550833
  0.9875523445894459  0.9732045993792937  0.5722305984953806
  0.8424496402890966  0.1364825846486184  0.3804022955339832
  0.8616495527771590  0.6775253231107214  0.4045190940670054
  0.2887270897783338  0.1849296853809008  0.3848948600144695
  0.1477308930146748  0.8674718060276518  0.3778643360248637
  0.1334208430535426  0.3097223142605259  0.4054646082857687
  0.7219472778742855  0.8199492812617777  0.3833899609338047
  0.9831933359909542  0.0946841102397116  0.4626887909432540
  0.8174618573959975  0.0579339006265513  0.5332776693411958
  0.9724726390095526  0.7672825755555408  0.5488396900609445
  0.2199911204969993  0.1973728468132379  0.5540719685965598
  0.1763098050161602  0.9437666848981792  0.5310853407341156
  0.0252967963095330  0.2288506779784143  0.5536833406433246
  0.7822036784338025  0.8005957244144426  0.5477968471347694
  0.9682773806305036  0.0642056508441087  0.5251902407271132
  0.8224397985428737  0.0606831077126770  0.4659941598575941
  0.9654220977119294  0.7614877444399042  0.4698710415866927
  0.2167356942215548  0.2023754884005768  0.4753681136443220
  0.1641966934514230  0.9575574623378174  0.4596402183636243
  0.0304830416433148  0.2325601463221147  0.4758170328985969
  0.7865015041449794  0.7949091000848014  0.4702988903207199
  0.0215877711744952  0.0527746356497403  0.5642697979272882
  0.8875039061086767  0.1111197454949746  0.4237526714133963
  0.8944327920296828  0.7477140290337729  0.4385134562703570
  0.2181692585449539  0.1425739790535161  0.4281272365287592
  0.0983952220462001  0.8868621549010172  0.4219214230415105
  0.0965012527811453  0.2288806877401228  0.4407725837296752
  0.7945900970996860  0.8579523160634892  0.4248885983180628
 
  0.00000000E+00  0.00000000E+00  0.00000000E+00
  0.00000000E+00  0.00000000E+00  0.00000000E+00
  0.00000000E+00  0.00000000E+00  0.00000000E+00
  0.00000000E+00  0.00000000E+00  0.00000000E+00
  0.00000000E+00  0.00000000E+00  0.00000000E+00
  0.00000000E+00  0.00000000E+00  0.00000000E+00
  0.00000000E+00  0.00000000E+00  0.00000000E+00
  0.00000000E+00  0.00000000E+00  0.00000000E+00
  0.00000000E+00  0.00000000E+00  0.00000000E+00
  0.00000000E+00  0.00000000E+00  0.00000000E+00
  0.00000000E+00  0.00000000E+00  0.00000000E+00
  0.00000000E+00  0.00000000E+00  0.00000000E+00
  0.00000000E+00  0.00000000E+00  0.00000000E+00
  0.00000000E+00  0.00000000E+00  0.00000000E+00
  0.00000000E+00  0.00000000E+00  0.00000000E+00
  0.00000000E+00  0.00000000E+00  0.00000000E+00
  0.00000000E+00  0.00000000E+00  0.00000000E+00
  0.00000000E+00  0.00000000E+00  0.00000000E+00
  0.00000000E+00  0.00000000E+00  0.00000000E+00
  0.00000000E+00  0.00000000E+00  0.00000000E+00
  0.00000000E+00  0.00000000E+00  0.00000000E+00
  0.00000000E+00  0.00000000E+00  0.00000000E+00
  0.00000000E+00  0.00000000E+00  0.00000000E+00
  0.00000000E+00  0.00000000E+00  0.00000000E+00
  0.00000000E+00  0.00000000E+00  0.00000000E+00
  0.00000000E+00  0.00000000E+00  0.00000000E+00
  0.00000000E+00  0.00000000E+00  0.00000000E+00
  0.00000000E+00  0.00000000E+00  0.00000000E+00
  0.00000000E+00  0.00000000E+00  0.00000000E+00
  0.00000000E+00  0.00000000E+00  0.00000000E+00
  0.00000000E+00  0.00000000E+00  0.00000000E+00
  0.00000000E+00  0.00000000E+00  0.00000000E+00
  0.00000000E+00  0.00000000E+00  0.00000000E+00
  0.00000000E+00  0.00000000E+00  0.00000000E+00
  0.00000000E+00  0.00000000E+00  0.00000000E+00
  0.00000000E+00  0.00000000E+00  0.00000000E+00
  0.00000000E+00  0.00000000E+00  0.00000000E+00
  0.00000000E+00  0.00000000E+00  0.00000000E+00
  0.00000000E+00  0.00000000E+00  0.00000000E+00
  0.00000000E+00  0.00000000E+00  0.00000000E+00
  0.00000000E+00  0.00000000E+00  0.00000000E+00
  0.00000000E+00  0.00000000E+00  0.00000000E+00
  0.00000000E+00  0.00000000E+00  0.00000000E+00
  0.00000000E+00  0.00000000E+00  0.00000000E+00
  0.00000000E+00  0.00000000E+00  0.00000000E+00
  0.00000000E+00  0.00000000E+00  0.00000000E+00
  0.00000000E+00  0.00000000E+00  0.00000000E+00
  0.00000000E+00  0.00000000E+00  0.00000000E+00
  0.00000000E+00  0.00000000E+00  0.00000000E+00
  0.00000000E+00  0.00000000E+00  0.00000000E+00
  0.00000000E+00  0.00000000E+00  0.00000000E+00
  0.00000000E+00  0.00000000E+00  0.00000000E+00
  0.00000000E+00  0.00000000E+00  0.00000000E+00
  0.00000000E+00  0.00000000E+00  0.00000000E+00
  0.00000000E+00  0.00000000E+00  0.00000000E+00
  0.00000000E+00  0.00000000E+00  0.00000000E+00
  0.00000000E+00  0.00000000E+00  0.00000000E+00
  0.00000000E+00  0.00000000E+00  0.00000000E+00
  0.00000000E+00  0.00000000E+00  0.00000000E+00
  0.00000000E+00  0.00000000E+00  0.00000000E+00
  0.00000000E+00  0.00000000E+00  0.00000000E+00
  0.00000000E+00  0.00000000E+00  0.00000000E+00
  0.00000000E+00  0.00000000E+00  0.00000000E+00
  0.00000000E+00  0.00000000E+00  0.00000000E+00
  0.00000000E+00  0.00000000E+00  0.00000000E+00
  0.00000000E+00  0.00000000E+00  0.00000000E+00
  0.00000000E+00  0.00000000E+00  0.00000000E+00
  0.00000000E+00  0.00000000E+00  0.00000000E+00
  0.00000000E+00  0.00000000E+00  0.00000000E+00
  0.00000000E+00  0.00000000E+00  0.00000000E+00
  0.00000000E+00  0.00000000E+00  0.00000000E+00
  0.00000000E+00  0.00000000E+00  0.00000000E+00
  0.00000000E+00  0.00000000E+00  0.00000000E+00
  0.00000000E+00  0.00000000E+00  0.00000000E+00
  0.00000000E+00  0.00000000E+00  0.00000000E+00
  0.00000000E+00  0.00000000E+00  0.00000000E+00
  0.00000000E+00  0.00000000E+00  0.00000000E+00
  0.00000000E+00  0.00000000E+00  0.00000000E+00
  0.00000000E+00  0.00000000E+00  0.00000000E+00
  0.00000000E+00  0.00000000E+00  0.00000000E+00
  0.00000000E+00  0.00000000E+00  0.00000000E+00
  0.00000000E+00  0.00000000E+00  0.00000000E+00
  0.00000000E+00  0.00000000E+00  0.00000000E+00
  0.00000000E+00  0.00000000E+00  0.00000000E+00
  0.00000000E+00  0.00000000E+00  0.00000000E+00
  0.00000000E+00  0.00000000E+00  0.00000000E+00
  0.00000000E+00  0.00000000E+00  0.00000000E+00
  0.00000000E+00  0.00000000E+00  0.00000000E+00
  0.00000000E+00  0.00000000E+00  0.00000000E+00
  0.00000000E+00  0.00000000E+00  0.00000000E+00
  0.00000000E+00  0.00000000E+00  0.00000000E+00
  0.00000000E+00  0.00000000E+00  0.00000000E+00
  0.00000000E+00  0.00000000E+00  0.00000000E+00
  0.00000000E+00  0.00000000E+00  0.00000000E+00
  0.00000000E+00  0.00000000E+00  0.00000000E+00
  0.00000000E+00  0.00000000E+00  0.00000000E+00
  0.00000000E+00  0.00000000E+00  0.00000000E+00
  0.00000000E+00  0.00000000E+00  0.00000000E+00
  0.00000000E+00  0.00000000E+00  0.00000000E+00
  0.00000000E+00  0.00000000E+00  0.00000000E+00
  0.00000000E+00  0.00000000E+00  0.00000000E+00
  0.00000000E+00  0.00000000E+00  0.00000000E+00
  0.00000000E+00  0.00000000E+00  0.00000000E+00
  0.00000000E+00  0.00000000E+00  0.00000000E+00
  0.00000000E+00  0.00000000E+00  0.00000000E+00
  0.00000000E+00  0.00000000E+00  0.00000000E+00
  0.00000000E+00  0.00000000E+00  0.00000000E+00
  0.00000000E+00  0.00000000E+00  0.00000000E+00
  0.00000000E+00  0.00000000E+00  0.00000000E+00
  0.00000000E+00  0.00000000E+00  0.00000000E+00
  0.00000000E+00  0.00000000E+00  0.00000000E+00
  0.00000000E+00  0.00000000E+00  0.00000000E+00
  0.00000000E+00  0.00000000E+00  0.00000000E+00
  0.00000000E+00  0.00000000E+00  0.00000000E+00
  0.00000000E+00  0.00000000E+00  0.00000000E+00
  0.00000000E+00  0.00000000E+00  0.00000000E+00
  0.00000000E+00  0.00000000E+00  0.00000000E+00
  0.00000000E+00  0.00000000E+00  0.00000000E+00
  0.00000000E+00  0.00000000E+00  0.00000000E+00
  0.00000000E+00  0.00000000E+00  0.00000000E+00
  0.00000000E+00  0.00000000E+00  0.00000000E+00
  0.00000000E+00  0.00000000E+00  0.00000000E+00
  0.00000000E+00  0.00000000E+00  0.00000000E+00
  0.00000000E+00  0.00000000E+00  0.00000000E+00
  0.00000000E+00  0.00000000E+00  0.00000000E+00
  0.00000000E+00  0.00000000E+00  0.00000000E+00
  0.00000000E+00  0.00000000E+00  0.00000000E+00
  0.00000000E+00  0.00000000E+00  0.00000000E+00
  0.00000000E+00  0.00000000E+00  0.00000000E+00
  0.00000000E+00  0.00000000E+00  0.00000000E+00
  0.00000000E+00  0.00000000E+00  0.00000000E+00
  0.00000000E+00  0.00000000E+00  0.00000000E+00
  0.00000000E+00  0.00000000E+00  0.00000000E+00
  0.00000000E+00  0.00000000E+00  0.00000000E+00
  0.00000000E+00  0.00000000E+00  0.00000000E+00
  0.00000000E+00  0.00000000E+00  0.00000000E+00
  0.00000000E+00  0.00000000E+00  0.00000000E+00
  0.00000000E+00  0.00000000E+00  0.00000000E+00
  0.00000000E+00  0.00000000E+00  0.00000000E+00
  0.00000000E+00  0.00000000E+00  0.00000000E+00
  0.00000000E+00  0.00000000E+00  0.00000000E+00
  0.00000000E+00  0.00000000E+00  0.00000000E+00
  0.00000000E+00  0.00000000E+00  0.00000000E+00
  0.00000000E+00  0.00000000E+00  0.00000000E+00
  0.00000000E+00  0.00000000E+00  0.00000000E+00
  0.00000000E+00  0.00000000E+00  0.00000000E+00
  0.00000000E+00  0.00000000E+00  0.00000000E+00
  0.00000000E+00  0.00000000E+00  0.00000000E+00
  0.00000000E+00  0.00000000E+00  0.00000000E+00
  0.00000000E+00  0.00000000E+00  0.00000000E+00
  0.00000000E+00  0.00000000E+00  0.00000000E+00
  0.00000000E+00  0.00000000E+00  0.00000000E+00
  0.00000000E+00  0.00000000E+00  0.00000000E+00
  0.00000000E+00  0.00000000E+00  0.00000000E+00
  0.00000000E+00  0.00000000E+00  0.00000000E+00
  0.00000000E+00  0.00000000E+00  0.00000000E+00
  0.00000000E+00  0.00000000E+00  0.00000000E+00
  0.00000000E+00  0.00000000E+00  0.00000000E+00
  0.00000000E+00  0.00000000E+00  0.00000000E+00
  0.00000000E+00  0.00000000E+00  0.00000000E+00
  0.00000000E+00  0.00000000E+00  0.00000000E+00
  0.00000000E+00  0.00000000E+00  0.00000000E+00
  0.00000000E+00  0.00000000E+00  0.00000000E+00
  0.00000000E+00  0.00000000E+00  0.00000000E+00
  0.00000000E+00  0.00000000E+00  0.00000000E+00
  0.00000000E+00  0.00000000E+00  0.00000000E+00
  0.00000000E+00  0.00000000E+00  0.00000000E+00
  0.00000000E+00  0.00000000E+00  0.00000000E+00
  0.00000000E+00  0.00000000E+00  0.00000000E+00
  0.00000000E+00  0.00000000E+00  0.00000000E+00
  0.00000000E+00  0.00000000E+00  0.00000000E+00
  0.00000000E+00  0.00000000E+00  0.00000000E+00
  0.00000000E+00  0.00000000E+00  0.00000000E+00
  0.00000000E+00  0.00000000E+00  0.00000000E+00
  0.00000000E+00  0.00000000E+00  0.00000000E+00
  0.00000000E+00  0.00000000E+00  0.00000000E+00
  0.00000000E+00  0.00000000E+00  0.00000000E+00
  0.00000000E+00  0.00000000E+00  0.00000000E+00
  0.00000000E+00  0.00000000E+00  0.00000000E+00
  0.00000000E+00  0.00000000E+00  0.00000000E+00
  0.00000000E+00  0.00000000E+00  0.00000000E+00
  0.00000000E+00  0.00000000E+00  0.00000000E+00
  0.00000000E+00  0.00000000E+00  0.00000000E+00
  0.00000000E+00  0.00000000E+00  0.00000000E+00
  0.00000000E+00  0.00000000E+00  0.00000000E+00
  0.00000000E+00  0.00000000E+00  0.00000000E+00
  0.00000000E+00  0.00000000E+00  0.00000000E+00
  0.00000000E+00  0.00000000E+00  0.00000000E+00
  0.00000000E+00  0.00000000E+00  0.00000000E+00
  0.00000000E+00  0.00000000E+00  0.00000000E+00
  0.00000000E+00  0.00000000E+00  0.00000000E+00
  0.00000000E+00  0.00000000E+00  0.00000000E+00
  0.00000000E+00  0.00000000E+00  0.00000000E+00
  0.00000000E+00  0.00000000E+00  0.00000000E+00
  0.00000000E+00  0.00000000E+00  0.00000000E+00
  0.00000000E+00  0.00000000E+00  0.00000000E+00
  0.00000000E+00  0.00000000E+00  0.00000000E+00
  0.00000000E+00  0.00000000E+00  0.00000000E+00
  0.00000000E+00  0.00000000E+00  0.00000000E+00
  0.00000000E+00  0.00000000E+00  0.00000000E+00
  0.00000000E+00  0.00000000E+00  0.00000000E+00
  0.00000000E+00  0.00000000E+00  0.00000000E+00
  0.00000000E+00  0.00000000E+00  0.00000000E+00
  0.00000000E+00  0.00000000E+00  0.00000000E+00
  0.00000000E+00  0.00000000E+00  0.00000000E+00
  0.00000000E+00  0.00000000E+00  0.00000000E+00
  0.00000000E+00  0.00000000E+00  0.00000000E+00
  0.00000000E+00  0.00000000E+00  0.00000000E+00
  0.00000000E+00  0.00000000E+00  0.00000000E+00
  0.00000000E+00  0.00000000E+00  0.00000000E+00
  0.00000000E+00  0.00000000E+00  0.00000000E+00
  0.00000000E+00  0.00000000E+00  0.00000000E+00
  0.00000000E+00  0.00000000E+00  0.00000000E+00
  0.00000000E+00  0.00000000E+00  0.00000000E+00
  0.00000000E+00  0.00000000E+00  0.00000000E+00
  0.00000000E+00  0.00000000E+00  0.00000000E+00
  0.00000000E+00  0.00000000E+00  0.00000000E+00
  0.00000000E+00  0.00000000E+00  0.00000000E+00
  0.00000000E+00  0.00000000E+00  0.00000000E+00
  0.00000000E+00  0.00000000E+00  0.00000000E+00
  0.00000000E+00  0.00000000E+00  0.00000000E+00
  0.00000000E+00  0.00000000E+00  0.00000000E+00
  0.00000000E+00  0.00000000E+00  0.00000000E+00
  0.00000000E+00  0.00000000E+00  0.00000000E+00
  0.00000000E+00  0.00000000E+00  0.00000000E+00
  0.00000000E+00  0.00000000E+00  0.00000000E+00
  0.00000000E+00  0.00000000E+00  0.00000000E+00
  0.00000000E+00  0.00000000E+00  0.00000000E+00
  0.00000000E+00  0.00000000E+00  0.00000000E+00
  0.00000000E+00  0.00000000E+00  0.00000000E+00
  0.00000000E+00  0.00000000E+00  0.00000000E+00
  0.00000000E+00  0.00000000E+00  0.00000000E+00
  0.00000000E+00  0.00000000E+00  0.00000000E+00
  0.00000000E+00  0.00000000E+00  0.00000000E+00
  0.00000000E+00  0.00000000E+00  0.00000000E+00
  0.00000000E+00  0.00000000E+00  0.00000000E+00
  0.00000000E+00  0.00000000E+00  0.00000000E+00
  0.00000000E+00  0.00000000E+00  0.00000000E+00
  0.00000000E+00  0.00000000E+00  0.00000000E+00
  0.00000000E+00  0.00000000E+00  0.00000000E+00
