Generated by VASPKIT code               
   1.00000000000000     
    20.6599282124251253   -0.0111896607376296    0.0000000000000000
   -10.3396520671993386   17.8892375170238580    0.0000000000000000
     0.0000000000000013    0.0000000000000022   20.2225651375936408
  C             
   144
Direct
  0.3695029827267362  0.6208557753083142  0.6399267275719751
  0.6304996383424637  0.3791505151696626  0.6399107050711876
  0.4101505075762475  0.7005017952200916  0.6358994163941958
  0.5898493998914631  0.2995046142881748  0.6358845295181084
  0.4574391852845281  0.7210099559439556  0.5772678334747781
  0.5425598855375711  0.2789972661395552  0.5772522666643241
  0.3967421969919513  0.5871483844137657  0.5818288306912862
  0.6032637857129401  0.4128581673170970  0.5818139631628227
  0.4426086344591482  0.6564283368368535  0.5420333149998839
  0.5573914422348167  0.3435782560457383  0.5420184934947230
  0.3222084099285638  0.5421121551950918  0.5431644945348708
  0.6777983521395257  0.4578925948947727  0.5431512009208532
  0.2903897596729337  0.5898221874175462  0.6358735887398126
  0.7096133102325552  0.4101823087735497  0.6358588383128136
  0.2636217290863172  0.5425591268737904  0.5772283921852477
  0.7363835700578889  0.4574441173543065  0.5772131130667333
  0.2513763829279725  0.6303918964097193  0.6398750889863933
  0.7486234953461945  0.3696094041023414  0.6398590535227484
  0.3791812581083889  0.7485770923083166  0.6399024067812249
  0.6208162714439140  0.2514266114695261  0.6398881348238206
  0.2995251569829520  0.7095071934195190  0.6358537121885419
  0.7004716048342701  0.2904937222610400  0.6358389614440441
  0.4580230029576740  0.7800912060728891  0.5431737578011351
  0.5419748331569778  0.2199145645534557  0.5431596415180380
  0.4129711755190328  0.8095439636946509  0.5817907997174672
  0.5870226971364261  0.1904582789059148  0.5817781948638796
  0.4574566400708804  0.7752946707788979  0.4742951496175749
  0.5425432645669801  0.2247099590658266  0.4742792626282366
  0.4415257958668874  0.6525884354502551  0.4739681266946363
  0.5584783611064452  0.3474187709911476  0.4739509625076579
  0.4569915786218246  0.7168371489088017  0.4393665211141311
  0.5430106275443407  0.2831676294045309  0.4393515325342534
  0.3180402585773265  0.5427050895978454  0.4742886913786606
  0.6819653502142344  0.4572976725417490  0.4742730136162123
  0.3878394246332064  0.5823287997934870  0.4344951567916553
  0.6121659391293974  0.4176774941461829  0.4344794067479540
  0.2600147129870933  0.5430601697446136  0.4393145731692698
  0.7399920522730739  0.4569420355184306  0.4392999781394167
  0.2138618941525579  0.5573146428479987  0.5419567420504663
  0.7861450581214982  0.4426875292579808  0.5419435918626121
  0.1904354351938196  0.6031336440337896  0.5817370117057408
  0.8095638192272361  0.3968628277903861  0.5817231828448826
  0.2111693910340051  0.5584195491977084  0.4738938563254322
  0.7888364384711153  0.4415826802720773  0.4738781265591001
  0.2790848588511139  0.7362544643152589  0.5771955458005777
  0.7209086184528246  0.2637424418344381  0.5771814988999751
  0.3437072414831803  0.7860288779753972  0.5419578757786283
  0.6562875099147050  0.2139668120621110  0.5419463029234635
  0.2200107651207333  0.6776725849011882  0.5430917915037199
  0.7799843958083059  0.3223237202733102  0.5430798066621705
  0.4178562418456977  0.8054091524185267  0.4344670085045053
  0.5821392486904244  0.1945903385776049  0.4344531326258121
  0.3475802475036787  0.7887452406421431  0.4738991857013275
  0.6524152093098152  0.2112531061207719  0.4738846272056207
  0.4099917287454105  0.6975664379430881  0.3803265953004740
  0.5900115743782450  0.3024386650955577  0.3803128033788781
  0.3659265163135643  0.6183173857814310  0.3768212291515027
  0.6340771677093642  0.3816850046647531  0.3768035811193613
  0.2878391470670039  0.5900841919912239  0.3802950714750040
  0.7121631076926889  0.4099159240195007  0.3802818988191277
  0.3818462940211873  0.7474338201717146  0.3767960823149465
  0.6181540713608058  0.2525669308947442  0.3767800138781965
  0.1946422329542514  0.6120707812819859  0.4344363141502896
  0.8053591863976592  0.3879264118941066  0.4344228445703990
  0.2248465215842401  0.6818590257079080  0.4742231201317395
  0.7751475720616412  0.3181386911699633  0.4742098414463953
  0.2833303625587433  0.7399081077478371  0.4392815924374105
  0.7166649962480989  0.2600902130603302  0.4392692454042475
  0.2526470061841195  0.6340756360196664  0.3767718664660435
  0.7473574058227115  0.3659248873292853  0.3767586403967726
  0.3025792071790079  0.7121594336910846  0.3802755927655141
  0.6974189939516435  0.2878410055497724  0.3802619381265586
  0.5808716740964783  0.9997230104781210  0.5737829916349000
  0.0006913880016768  0.5813722363048228  0.5737416967906483
  0.4187127107511657  0.4192552212655656  0.5737790481228160
  0.5087557706261663  0.9721166698780479  0.6078114700675030
  0.0280087565278677  0.5366317562801584  0.6077359854190334
  0.4633281464863970  0.4912806469580318  0.6078612815746993
  0.5690915933266680  0.9473760164679064  0.5200659759222646
  0.0530914997373415  0.6217538425219260  0.5199967432677610
  0.3781164743170535  0.4310141596067396  0.5200842557268430
  0.4474707338610884  0.9009049063041417  0.5701583710014404
  0.0990845671947937  0.5463026118459382  0.5701122768941218
  0.4535442593414558  0.5525963540172896  0.5701833174787367
  0.4941068651341141  0.9065445631371603  0.5099566522341732
  0.0935557199614649  0.5872947515097380  0.5098681769354840
  0.4124366770848127  0.5059945110577431  0.5099860958085785
  0.5980456113582377  0.9833874196951555  0.4579117435340905
  0.0171719769216097  0.6149155400502835  0.4578567387182630
  0.3850973064874523  0.4020256449449207  0.4579396970315699
  0.5474988588495791  0.9479512231746625  0.4040265020013933
  0.0524414290750812  0.5996086442162252  0.4039799433579176
  0.4003835298815730  0.4526078615390929  0.4040734580852003
  0.4694619408817218  0.8905539695222444  0.4356425972829925
  0.1095213233949366  0.5786396508778537  0.4355935633780632
  0.4212239842217542  0.5306661831994646  0.4356701377610008
  0.6158032154755944  0.0605561045492706  0.4725932744778660
  0.9398654070752031  0.5556659010832590  0.4725355953979644
  0.4444720785470011  0.3842397980206087  0.4726160872974674
  0.6055770211996361  0.0692598335955310  0.5452217273149245
  0.9310782519673779  0.5367139901269553  0.5452047275713312
  0.4634582486078997  0.3944675415185159  0.5452162551951787
  0.5525167166563136  0.0990969572011764  0.5701527906859241
  0.9009138580847633  0.4536835035487812  0.5701045509404707
  0.5464627142366965  0.4474095815984640  0.5701752536718558
  0.5765098525080461  0.0734076453682633  0.4235599371006273
  0.9268163992539442  0.5034161859119735  0.4235158812021638
  0.4966813302509578  0.4234331809417711  0.4235398636346019
  0.5305299423706771  0.1094439432163625  0.4356350049688089
  0.8904800540686253  0.4213471186605062  0.4355855299379030
  0.5787839836553772  0.4693440813643264  0.4356614338263967
  0.5058814923954671  0.0934561197378301  0.5099503008428670
  0.9064422962155234  0.4126909203853515  0.5098617520596775
  0.5875709128035140  0.4940118384364354  0.5099798554426940
  0.5367187472370745  0.0066182271541209  0.3806764372497042
  0.9935712725337495  0.5302076648349043  0.3806196027143969
  0.4698131800992158  0.4632937382211040  0.3806918580769363
  0.4191161151771965  0.0002807240869274  0.5737782366788764
  0.9993044794002870  0.4186125055745080  0.5737406039318245
  0.5812976603346698  0.5807496408203860  0.5737807763031029
  0.4912302379494520  0.0278875117531925  0.6078093308195704
  0.9719861166108785  0.4633522885313681  0.6077338394289669
  0.5366785686055806  0.5087229934508528  0.6078574315393723
  0.4308963344443910  0.0526235240981521  0.5200579109583074
  0.9469077824723087  0.3782310377643441  0.5199930341726855
  0.6218929219093994  0.5689944012952424  0.5200839782414164
  0.4019429238554935  0.0166085560466769  0.4579040374874381
  0.9828320490738136  0.3850725204193637  0.4578549642100853
  0.6149108941454884  0.5979849771791805  0.4579401881330014
  0.4524914391308599  0.0520408722196279  0.4040192787118926
  0.9475667648805697  0.4003790141158987  0.4039750992706388
  0.5996236594620896  0.5474069931028822  0.4040705525183412
  0.4632724045657923  0.9933709810667253  0.3806771180397845
  0.0064373884774938  0.4697837438206705  0.3806219458816003
  0.5301909009643353  0.5367196419170668  0.3806936784467396
  0.3944094809947956  0.9307409432251177  0.5452226523377846
  0.0689222281190567  0.4632713143632543  0.5452091301405630
  0.5365504382941992  0.6055395095968166  0.5452219699686651
  0.3841857085591656  0.9394402252961385  0.4725915093674544
  0.0601394477840103  0.4443202377211932  0.4725393888446447
  0.5555366773790595  0.6157705715287634  0.4726222183830444
  0.4234816853312111  0.9265882392614415  0.4235630370900054
  0.0731880450623450  0.4965704950558489  0.4235224465266967
  0.5033257349606828  0.5765777334935436  0.4235479591218336
 
  0.00000000E+00  0.00000000E+00  0.00000000E+00
  0.00000000E+00  0.00000000E+00  0.00000000E+00
  0.00000000E+00  0.00000000E+00  0.00000000E+00
  0.00000000E+00  0.00000000E+00  0.00000000E+00
  0.00000000E+00  0.00000000E+00  0.00000000E+00
  0.00000000E+00  0.00000000E+00  0.00000000E+00
  0.00000000E+00  0.00000000E+00  0.00000000E+00
  0.00000000E+00  0.00000000E+00  0.00000000E+00
  0.00000000E+00  0.00000000E+00  0.00000000E+00
  0.00000000E+00  0.00000000E+00  0.00000000E+00
  0.00000000E+00  0.00000000E+00  0.00000000E+00
  0.00000000E+00  0.00000000E+00  0.00000000E+00
  0.00000000E+00  0.00000000E+00  0.00000000E+00
  0.00000000E+00  0.00000000E+00  0.00000000E+00
  0.00000000E+00  0.00000000E+00  0.00000000E+00
  0.00000000E+00  0.00000000E+00  0.00000000E+00
  0.00000000E+00  0.00000000E+00  0.00000000E+00
  0.00000000E+00  0.00000000E+00  0.00000000E+00
  0.00000000E+00  0.00000000E+00  0.00000000E+00
  0.00000000E+00  0.00000000E+00  0.00000000E+00
  0.00000000E+00  0.00000000E+00  0.00000000E+00
  0.00000000E+00  0.00000000E+00  0.00000000E+00
  0.00000000E+00  0.00000000E+00  0.00000000E+00
  0.00000000E+00  0.00000000E+00  0.00000000E+00
  0.00000000E+00  0.00000000E+00  0.00000000E+00
  0.00000000E+00  0.00000000E+00  0.00000000E+00
  0.00000000E+00  0.00000000E+00  0.00000000E+00
  0.00000000E+00  0.00000000E+00  0.00000000E+00
  0.00000000E+00  0.00000000E+00  0.00000000E+00
  0.00000000E+00  0.00000000E+00  0.00000000E+00
  0.00000000E+00  0.00000000E+00  0.00000000E+00
  0.00000000E+00  0.00000000E+00  0.00000000E+00
  0.00000000E+00  0.00000000E+00  0.00000000E+00
  0.00000000E+00  0.00000000E+00  0.00000000E+00
  0.00000000E+00  0.00000000E+00  0.00000000E+00
  0.00000000E+00  0.00000000E+00  0.00000000E+00
  0.00000000E+00  0.00000000E+00  0.00000000E+00
  0.00000000E+00  0.00000000E+00  0.00000000E+00
  0.00000000E+00  0.00000000E+00  0.00000000E+00
  0.00000000E+00  0.00000000E+00  0.00000000E+00
  0.00000000E+00  0.00000000E+00  0.00000000E+00
  0.00000000E+00  0.00000000E+00  0.00000000E+00
  0.00000000E+00  0.00000000E+00  0.00000000E+00
  0.00000000E+00  0.00000000E+00  0.00000000E+00
  0.00000000E+00  0.00000000E+00  0.00000000E+00
  0.00000000E+00  0.00000000E+00  0.00000000E+00
  0.00000000E+00  0.00000000E+00  0.00000000E+00
  0.00000000E+00  0.00000000E+00  0.00000000E+00
  0.00000000E+00  0.00000000E+00  0.00000000E+00
  0.00000000E+00  0.00000000E+00  0.00000000E+00
  0.00000000E+00  0.00000000E+00  0.00000000E+00
  0.00000000E+00  0.00000000E+00  0.00000000E+00
  0.00000000E+00  0.00000000E+00  0.00000000E+00
  0.00000000E+00  0.00000000E+00  0.00000000E+00
  0.00000000E+00  0.00000000E+00  0.00000000E+00
  0.00000000E+00  0.00000000E+00  0.00000000E+00
  0.00000000E+00  0.00000000E+00  0.00000000E+00
  0.00000000E+00  0.00000000E+00  0.00000000E+00
  0.00000000E+00  0.00000000E+00  0.00000000E+00
  0.00000000E+00  0.00000000E+00  0.00000000E+00
  0.00000000E+00  0.00000000E+00  0.00000000E+00
  0.00000000E+00  0.00000000E+00  0.00000000E+00
  0.00000000E+00  0.00000000E+00  0.00000000E+00
  0.00000000E+00  0.00000000E+00  0.00000000E+00
  0.00000000E+00  0.00000000E+00  0.00000000E+00
  0.00000000E+00  0.00000000E+00  0.00000000E+00
  0.00000000E+00  0.00000000E+00  0.00000000E+00
  0.00000000E+00  0.00000000E+00  0.00000000E+00
  0.00000000E+00  0.00000000E+00  0.00000000E+00
  0.00000000E+00  0.00000000E+00  0.00000000E+00
  0.00000000E+00  0.00000000E+00  0.00000000E+00
  0.00000000E+00  0.00000000E+00  0.00000000E+00
  0.00000000E+00  0.00000000E+00  0.00000000E+00
  0.00000000E+00  0.00000000E+00  0.00000000E+00
  0.00000000E+00  0.00000000E+00  0.00000000E+00
  0.00000000E+00  0.00000000E+00  0.00000000E+00
  0.00000000E+00  0.00000000E+00  0.00000000E+00
  0.00000000E+00  0.00000000E+00  0.00000000E+00
  0.00000000E+00  0.00000000E+00  0.00000000E+00
  0.00000000E+00  0.00000000E+00  0.00000000E+00
  0.00000000E+00  0.00000000E+00  0.00000000E+00
  0.00000000E+00  0.00000000E+00  0.00000000E+00
  0.00000000E+00  0.00000000E+00  0.00000000E+00
  0.00000000E+00  0.00000000E+00  0.00000000E+00
  0.00000000E+00  0.00000000E+00  0.00000000E+00
  0.00000000E+00  0.00000000E+00  0.00000000E+00
  0.00000000E+00  0.00000000E+00  0.00000000E+00
  0.00000000E+00  0.00000000E+00  0.00000000E+00
  0.00000000E+00  0.00000000E+00  0.00000000E+00
  0.00000000E+00  0.00000000E+00  0.00000000E+00
  0.00000000E+00  0.00000000E+00  0.00000000E+00
  0.00000000E+00  0.00000000E+00  0.00000000E+00
  0.00000000E+00  0.00000000E+00  0.00000000E+00
  0.00000000E+00  0.00000000E+00  0.00000000E+00
  0.00000000E+00  0.00000000E+00  0.00000000E+00
  0.00000000E+00  0.00000000E+00  0.00000000E+00
  0.00000000E+00  0.00000000E+00  0.00000000E+00
  0.00000000E+00  0.00000000E+00  0.00000000E+00
  0.00000000E+00  0.00000000E+00  0.00000000E+00
  0.00000000E+00  0.00000000E+00  0.00000000E+00
  0.00000000E+00  0.00000000E+00  0.00000000E+00
  0.00000000E+00  0.00000000E+00  0.00000000E+00
  0.00000000E+00  0.00000000E+00  0.00000000E+00
  0.00000000E+00  0.00000000E+00  0.00000000E+00
  0.00000000E+00  0.00000000E+00  0.00000000E+00
  0.00000000E+00  0.00000000E+00  0.00000000E+00
  0.00000000E+00  0.00000000E+00  0.00000000E+00
  0.00000000E+00  0.00000000E+00  0.00000000E+00
  0.00000000E+00  0.00000000E+00  0.00000000E+00
  0.00000000E+00  0.00000000E+00  0.00000000E+00
  0.00000000E+00  0.00000000E+00  0.00000000E+00
  0.00000000E+00  0.00000000E+00  0.00000000E+00
  0.00000000E+00  0.00000000E+00  0.00000000E+00
  0.00000000E+00  0.00000000E+00  0.00000000E+00
  0.00000000E+00  0.00000000E+00  0.00000000E+00
  0.00000000E+00  0.00000000E+00  0.00000000E+00
  0.00000000E+00  0.00000000E+00  0.00000000E+00
  0.00000000E+00  0.00000000E+00  0.00000000E+00
  0.00000000E+00  0.00000000E+00  0.00000000E+00
  0.00000000E+00  0.00000000E+00  0.00000000E+00
  0.00000000E+00  0.00000000E+00  0.00000000E+00
  0.00000000E+00  0.00000000E+00  0.00000000E+00
  0.00000000E+00  0.00000000E+00  0.00000000E+00
  0.00000000E+00  0.00000000E+00  0.00000000E+00
  0.00000000E+00  0.00000000E+00  0.00000000E+00
  0.00000000E+00  0.00000000E+00  0.00000000E+00
  0.00000000E+00  0.00000000E+00  0.00000000E+00
  0.00000000E+00  0.00000000E+00  0.00000000E+00
  0.00000000E+00  0.00000000E+00  0.00000000E+00
  0.00000000E+00  0.00000000E+00  0.00000000E+00
  0.00000000E+00  0.00000000E+00  0.00000000E+00
  0.00000000E+00  0.00000000E+00  0.00000000E+00
  0.00000000E+00  0.00000000E+00  0.00000000E+00
  0.00000000E+00  0.00000000E+00  0.00000000E+00
  0.00000000E+00  0.00000000E+00  0.00000000E+00
  0.00000000E+00  0.00000000E+00  0.00000000E+00
  0.00000000E+00  0.00000000E+00  0.00000000E+00
  0.00000000E+00  0.00000000E+00  0.00000000E+00
  0.00000000E+00  0.00000000E+00  0.00000000E+00
  0.00000000E+00  0.00000000E+00  0.00000000E+00
  0.00000000E+00  0.00000000E+00  0.00000000E+00
  0.00000000E+00  0.00000000E+00  0.00000000E+00
  0.00000000E+00  0.00000000E+00  0.00000000E+00
  0.00000000E+00  0.00000000E+00  0.00000000E+00
