Generated by VASPKIT code               
   1.00000000000000     
    10.9117486121214444   -0.4217020259777463    0.0000000000000000
    -5.8119723378003725    9.4357141162107911    0.0000000000000000
     0.0000000000000012    0.0000000000000022   20.2230231315583175
  C             
    60
Direct
  0.4272719474456750  0.7115633132114851  0.6631416186048895
  0.3384447443139607  0.7685510501777699  0.6594217619041203
  0.4023068872840341  0.8823600202179378  0.6076129612608128
  0.5458386124634060  0.7876349352607903  0.6138331905310963
  0.5308253471942166  0.8916883698907867  0.5802649434860712
  0.5582502547369756  0.6852124321564190  0.5761507816488560
  0.3612125565337507  0.5611441274000413  0.6551771832198696
  0.4398855468567433  0.5427794877248076  0.6003941645771036
  0.2067026798122953  0.4674763005972622  0.6420622170580828
  0.1851311197460674  0.6705803527924772  0.6469376151729662
  0.1120363033996910  0.5162975505962422  0.6400662790963452
  0.2926007845056162  0.8594195846881547  0.5627711708152887
  0.1610046845097415  0.7271287718021284  0.5863422901104656
  0.3134204753587895  0.8704594005639876  0.4918845899003941
  0.5567684142410556  0.9096146082274998  0.5115266348732987
  0.4687731171688583  0.9409420630222982  0.4641899757856720
  0.5886550290879100  0.7097494567759810  0.5079466186194423
  0.5991987447854541  0.8295419013980592  0.4775525264288945
  0.5187689178576349  0.5899833300971196  0.4588296790029105
  0.3375608807564348  0.4374020520826463  0.5564697246725032
  0.1947839715305406  0.3932542652502065  0.5796627121431683
  0.3696409669728027  0.4395455666746670  0.4844968673686054
  0.0290100414635575  0.4680256895365602  0.5707931317514152
  0.1021428082886970  0.6156441759996483  0.5431001475029831
  0.0986883258626037  0.3974645813334092  0.5364894834910174
  0.2119527254313240  0.7663585400482233  0.4477879020116973
  0.0909864439989576  0.6203754736985516  0.4720388061084435
  0.4436587390487361  0.8471581846592287  0.4037501147326807
  0.5288035113263945  0.7896994901040415  0.4115840016143295
  0.4707160489456186  0.6415874198143854  0.4018714433107888
  0.2901088756951538  0.7459507430188310  0.3940535856444072
  0.2552092090977425  0.4322270740341878  0.4413751200314522
  0.1300881666223361  0.4169761076980336  0.4666160266124493
  0.0911497695306807  0.5042868818975066  0.4250659825200529
  0.3192644667750884  0.5459240619051045  0.3903563407634110
  0.2259240228449428  0.5969299045821188  0.3814071879035765
  0.9187575696973482  0.4226874148591193  0.4116091853957968
  0.8183609515620276  0.2708152862008646  0.4361380886732249
  0.8184884566924850  0.4299069278198857  0.3607391814630532
  0.6718661004585158  0.1930300904291542  0.4063109020759157
  0.6683360282771318  0.2896714943481200  0.3643362314053746
  0.7850897629508182  0.5276745760615427  0.3824165429173263
  0.6286906499318974  0.4720015712233234  0.3812193975932772
  0.5540987454602373  0.3206130261155735  0.3769249115387510
  0.8328880578271267  0.5703440798273363  0.4509620279552067
  0.9212812145653757  0.5162886619666125  0.4707683129245055
  0.8737198219630571  0.4071073342269713  0.5382604392833130
  0.7191107233656382  0.5472655289448625  0.4896114252555037
  0.6700457432578730  0.4557350475653266  0.5479266688498754
  0.7361110825101633  0.3833078339639826  0.5695969768489704
  0.5910234499937985  0.5105607876217348  0.4460773241781411
  0.6578530767196042  0.1670585611080639  0.5213379558360245
  0.8091167851590981  0.2607644455028719  0.5040363436497088
  0.6141666751292547  0.2276084006922687  0.5675621823095867
  0.4817791128613962  0.2110869368562973  0.5435692472641662
  0.5126753026674251  0.3501143473161719  0.5384503508262100
  0.4575054344798346  0.3691501103476966  0.4735711126800055
  0.5557681583211433  0.1056113203613549  0.4603706420613989
  0.4595821495136363  0.1608045444670907  0.4733153308209239
  0.4468958051416010  0.2498584032351872  0.4306853184690596
 
  0.00000000E+00  0.00000000E+00  0.00000000E+00
  0.00000000E+00  0.00000000E+00  0.00000000E+00
  0.00000000E+00  0.00000000E+00  0.00000000E+00
  0.00000000E+00  0.00000000E+00  0.00000000E+00
  0.00000000E+00  0.00000000E+00  0.00000000E+00
  0.00000000E+00  0.00000000E+00  0.00000000E+00
  0.00000000E+00  0.00000000E+00  0.00000000E+00
  0.00000000E+00  0.00000000E+00  0.00000000E+00
  0.00000000E+00  0.00000000E+00  0.00000000E+00
  0.00000000E+00  0.00000000E+00  0.00000000E+00
  0.00000000E+00  0.00000000E+00  0.00000000E+00
  0.00000000E+00  0.00000000E+00  0.00000000E+00
  0.00000000E+00  0.00000000E+00  0.00000000E+00
  0.00000000E+00  0.00000000E+00  0.00000000E+00
  0.00000000E+00  0.00000000E+00  0.00000000E+00
  0.00000000E+00  0.00000000E+00  0.00000000E+00
  0.00000000E+00  0.00000000E+00  0.00000000E+00
  0.00000000E+00  0.00000000E+00  0.00000000E+00
  0.00000000E+00  0.00000000E+00  0.00000000E+00
  0.00000000E+00  0.00000000E+00  0.00000000E+00
  0.00000000E+00  0.00000000E+00  0.00000000E+00
  0.00000000E+00  0.00000000E+00  0.00000000E+00
  0.00000000E+00  0.00000000E+00  0.00000000E+00
  0.00000000E+00  0.00000000E+00  0.00000000E+00
  0.00000000E+00  0.00000000E+00  0.00000000E+00
  0.00000000E+00  0.00000000E+00  0.00000000E+00
  0.00000000E+00  0.00000000E+00  0.00000000E+00
  0.00000000E+00  0.00000000E+00  0.00000000E+00
  0.00000000E+00  0.00000000E+00  0.00000000E+00
  0.00000000E+00  0.00000000E+00  0.00000000E+00
  0.00000000E+00  0.00000000E+00  0.00000000E+00
  0.00000000E+00  0.00000000E+00  0.00000000E+00
  0.00000000E+00  0.00000000E+00  0.00000000E+00
  0.00000000E+00  0.00000000E+00  0.00000000E+00
  0.00000000E+00  0.00000000E+00  0.00000000E+00
  0.00000000E+00  0.00000000E+00  0.00000000E+00
  0.00000000E+00  0.00000000E+00  0.00000000E+00
  0.00000000E+00  0.00000000E+00  0.00000000E+00
  0.00000000E+00  0.00000000E+00  0.00000000E+00
  0.00000000E+00  0.00000000E+00  0.00000000E+00
  0.00000000E+00  0.00000000E+00  0.00000000E+00
  0.00000000E+00  0.00000000E+00  0.00000000E+00
  0.00000000E+00  0.00000000E+00  0.00000000E+00
  0.00000000E+00  0.00000000E+00  0.00000000E+00
  0.00000000E+00  0.00000000E+00  0.00000000E+00
  0.00000000E+00  0.00000000E+00  0.00000000E+00
  0.00000000E+00  0.00000000E+00  0.00000000E+00
  0.00000000E+00  0.00000000E+00  0.00000000E+00
  0.00000000E+00  0.00000000E+00  0.00000000E+00
  0.00000000E+00  0.00000000E+00  0.00000000E+00
  0.00000000E+00  0.00000000E+00  0.00000000E+00
  0.00000000E+00  0.00000000E+00  0.00000000E+00
  0.00000000E+00  0.00000000E+00  0.00000000E+00
  0.00000000E+00  0.00000000E+00  0.00000000E+00
  0.00000000E+00  0.00000000E+00  0.00000000E+00
  0.00000000E+00  0.00000000E+00  0.00000000E+00
  0.00000000E+00  0.00000000E+00  0.00000000E+00
  0.00000000E+00  0.00000000E+00  0.00000000E+00
  0.00000000E+00  0.00000000E+00  0.00000000E+00
  0.00000000E+00  0.00000000E+00  0.00000000E+00
