Generated by VASPKIT code               
   1.00000000000000     
    11.7108118054216863    0.0802481737822931    0.0000000000000000
    -5.7735432664366249    9.6173688269377742    0.0000000000000000
     0.0000000000000013    0.0000000000000022   20.2206317356696772
  C             
    84
Direct
  0.0259862908853492  0.1086004613663576  0.6267215631879139
  0.9544543587675065  0.9647610382735294  0.6397058657734931
  0.8284917993957492  0.9011741849542361  0.6022343286239504
  0.9450138616088992  0.1365045960592042  0.5809391699627682
  0.8222141136715422  0.0071486066878421  0.5672627537688086
  0.0210486168087201  0.2230726504306020  0.5312143115510253
  0.1574872409461037  0.1791799629788215  0.6028609700866383
  0.1673919977435716  0.2718407485577359  0.5441417695779478
  0.2158979300153234  0.0994204416894178  0.5861171746336140
  0.0163761472061026  0.8884967816352258  0.6241774963661655
  0.1466155864028664  0.9556155973427067  0.5979089486018978
  0.8098348169863243  0.7824130228941044  0.5662254332402625
  0.9269155305902004  0.7759505332361982  0.5795388890678908
  0.7623668186502357  0.7584279835257206  0.4998323088667433
  0.7718854841601726  0.9819518215679750  0.5028002384644807
  0.7385991783036232  0.8560173100309143  0.4714092286935312
  0.9654055290861123  0.2258773498201521  0.4649299067523032
  0.8191893147706537  0.0929118586443920  0.4521808292423586
  0.0463855331253384  0.2068546794133184  0.4113459537269009
  0.2109417493840553  0.2095934097119851  0.4901831998555579
  0.2814585081802434  0.1385249485185867  0.5169493252280191
  0.1565770008671237  0.1873202993704837  0.4280124541060175
  0.1422001174474232  0.8762568268742328  0.5367569273921475
  0.0012266031408927  0.7837268316284351  0.5240855443291395
  0.2373392824569578  0.9908661841706845  0.4856285390143142
  0.8119336000505513  0.7003101689982927  0.4447567969174031
  0.9585125640663037  0.7550211886751725  0.4586259002904711
  0.7702600107782942  0.8788220407010243  0.4014615807437067
  0.8302999766630066  0.0228436519996791  0.3898424651745671
  0.9636134698259156  0.0934743575388026  0.3680953254983024
  0.8265287377176804  0.7959448598836047  0.3852539678188833
  0.1478553013291233  0.0725425940300823  0.3896623222762514
  0.1646950519487973  0.9684252665051574  0.4209736600583796
  0.0425397763233022  0.8432769180881436  0.4079739254484451
  0.0271532534754613  0.0152955157232952  0.3517884738181181
  0.9585127668146214  0.8699381806836186  0.3632009754407193
  0.3786399493353940  0.5377651052599646  0.5757271423900434
  0.5149106850100793  0.2992321917831191  0.5733806914705326
  0.3567131587591561  0.6266352908294692  0.6196872904685193
  0.5647557816876230  0.2172309344691570  0.5971967539825158
  0.2516976522718082  0.4339523549404944  0.5394676434612720
  0.4342750906556958  0.2395821988988516  0.5112502279303328
  0.2332647898421243  0.6151976254284151  0.5986350730797056
  0.5480542769450949  0.1083798773065112  0.5439569972550657
  0.1710224715188318  0.5092585429599623  0.5495134473243297
  0.5024941567089982  0.1637321141063168  0.4874620733724910
  0.2943232639721458  0.4768618484708824  0.4678734895363945
  0.5046572365900417  0.3636876291286555  0.4632334992099061
  0.2070039256450968  0.5058857171248192  0.4326805551673019
  0.5575365461914501  0.3296595475698041  0.4070274054305187
  0.1472262486712310  0.5473268455774090  0.4861669056188234
  0.5569975659045099  0.2010234535517910  0.4248864634394849
  0.4253517149193087  0.5949127835207833  0.4626416278731540
  0.6206259552428008  0.4707877051472167  0.4944354683841823
  0.4720902700368725  0.6331915831165276  0.5290467324555195
  0.6280347850716765  0.4363998372231990  0.5608423726066718
  0.5151036836027032  0.7734212920234285  0.5518324098234686
  0.7462931691927466  0.4397522269062861  0.5865465104083256
  0.4203135241841593  0.6913920021521065  0.4172838022181722
  0.7424001279651975  0.5386743145796871  0.4466087784033235
  0.4601121621951876  0.8299365233464471  0.4427765176447593
  0.8508690489649595  0.5092641954522747  0.4733191917071835
  0.5106667142665842  0.8707432030749231  0.5072887005113884
  0.8527866063823524  0.4711088551250668  0.5411156047373353
  0.2845506387292716  0.6314639919017679  0.3955076853052546
  0.6869208121362789  0.4303456944545445  0.3888319076886546
  0.3891067844607221  0.8475304390145766  0.5978560013307828
  0.7753374559886623  0.2543473539955841  0.5752998800420386
  0.4570312027092953  0.7706389918075658  0.6148568878848621
  0.7017762337412563  0.3032282045469756  0.6131189214876471
  0.4502819704331884  0.9510071496263919  0.5415272551884414
  0.8865951481353846  0.3645245528581000  0.5412240194537787
  0.3309969767020249  0.9195513436807445  0.4932538402262949
  0.8937218790041754  0.3196206516296485  0.4715617697239622
  0.3585300238228939  0.8629555090553538  0.4321133827214325
  0.8756612899275993  0.4235203723475252  0.4315145206110031
  0.2469395572462361  0.7310282741170013  0.4165461060160496
  0.7613260168617302  0.3587096945677146  0.3899519555705098
  0.2564952058444661  0.7524816980568687  0.5867779324622120
  0.6916779624493046  0.1555757118264012  0.5303648906308993
  0.2095688796583417  0.7914275722935713  0.5271825688880298
  0.7547958564403672  0.1812242300487839  0.4616884335436353
  0.1641379195916244  0.6797815145116246  0.4736478404775113
  0.6831197047892346  0.2176383783759306  0.4103472089260833
 
  0.00000000E+00  0.00000000E+00  0.00000000E+00
  0.00000000E+00  0.00000000E+00  0.00000000E+00
  0.00000000E+00  0.00000000E+00  0.00000000E+00
  0.00000000E+00  0.00000000E+00  0.00000000E+00
  0.00000000E+00  0.00000000E+00  0.00000000E+00
  0.00000000E+00  0.00000000E+00  0.00000000E+00
  0.00000000E+00  0.00000000E+00  0.00000000E+00
  0.00000000E+00  0.00000000E+00  0.00000000E+00
  0.00000000E+00  0.00000000E+00  0.00000000E+00
  0.00000000E+00  0.00000000E+00  0.00000000E+00
  0.00000000E+00  0.00000000E+00  0.00000000E+00
  0.00000000E+00  0.00000000E+00  0.00000000E+00
  0.00000000E+00  0.00000000E+00  0.00000000E+00
  0.00000000E+00  0.00000000E+00  0.00000000E+00
  0.00000000E+00  0.00000000E+00  0.00000000E+00
  0.00000000E+00  0.00000000E+00  0.00000000E+00
  0.00000000E+00  0.00000000E+00  0.00000000E+00
  0.00000000E+00  0.00000000E+00  0.00000000E+00
  0.00000000E+00  0.00000000E+00  0.00000000E+00
  0.00000000E+00  0.00000000E+00  0.00000000E+00
  0.00000000E+00  0.00000000E+00  0.00000000E+00
  0.00000000E+00  0.00000000E+00  0.00000000E+00
  0.00000000E+00  0.00000000E+00  0.00000000E+00
  0.00000000E+00  0.00000000E+00  0.00000000E+00
  0.00000000E+00  0.00000000E+00  0.00000000E+00
  0.00000000E+00  0.00000000E+00  0.00000000E+00
  0.00000000E+00  0.00000000E+00  0.00000000E+00
  0.00000000E+00  0.00000000E+00  0.00000000E+00
  0.00000000E+00  0.00000000E+00  0.00000000E+00
  0.00000000E+00  0.00000000E+00  0.00000000E+00
  0.00000000E+00  0.00000000E+00  0.00000000E+00
  0.00000000E+00  0.00000000E+00  0.00000000E+00
  0.00000000E+00  0.00000000E+00  0.00000000E+00
  0.00000000E+00  0.00000000E+00  0.00000000E+00
  0.00000000E+00  0.00000000E+00  0.00000000E+00
  0.00000000E+00  0.00000000E+00  0.00000000E+00
  0.00000000E+00  0.00000000E+00  0.00000000E+00
  0.00000000E+00  0.00000000E+00  0.00000000E+00
  0.00000000E+00  0.00000000E+00  0.00000000E+00
  0.00000000E+00  0.00000000E+00  0.00000000E+00
  0.00000000E+00  0.00000000E+00  0.00000000E+00
  0.00000000E+00  0.00000000E+00  0.00000000E+00
  0.00000000E+00  0.00000000E+00  0.00000000E+00
  0.00000000E+00  0.00000000E+00  0.00000000E+00
  0.00000000E+00  0.00000000E+00  0.00000000E+00
  0.00000000E+00  0.00000000E+00  0.00000000E+00
  0.00000000E+00  0.00000000E+00  0.00000000E+00
  0.00000000E+00  0.00000000E+00  0.00000000E+00
  0.00000000E+00  0.00000000E+00  0.00000000E+00
  0.00000000E+00  0.00000000E+00  0.00000000E+00
  0.00000000E+00  0.00000000E+00  0.00000000E+00
  0.00000000E+00  0.00000000E+00  0.00000000E+00
  0.00000000E+00  0.00000000E+00  0.00000000E+00
  0.00000000E+00  0.00000000E+00  0.00000000E+00
  0.00000000E+00  0.00000000E+00  0.00000000E+00
  0.00000000E+00  0.00000000E+00  0.00000000E+00
  0.00000000E+00  0.00000000E+00  0.00000000E+00
  0.00000000E+00  0.00000000E+00  0.00000000E+00
  0.00000000E+00  0.00000000E+00  0.00000000E+00
  0.00000000E+00  0.00000000E+00  0.00000000E+00
  0.00000000E+00  0.00000000E+00  0.00000000E+00
  0.00000000E+00  0.00000000E+00  0.00000000E+00
  0.00000000E+00  0.00000000E+00  0.00000000E+00
  0.00000000E+00  0.00000000E+00  0.00000000E+00
  0.00000000E+00  0.00000000E+00  0.00000000E+00
  0.00000000E+00  0.00000000E+00  0.00000000E+00
  0.00000000E+00  0.00000000E+00  0.00000000E+00
  0.00000000E+00  0.00000000E+00  0.00000000E+00
  0.00000000E+00  0.00000000E+00  0.00000000E+00
  0.00000000E+00  0.00000000E+00  0.00000000E+00
  0.00000000E+00  0.00000000E+00  0.00000000E+00
  0.00000000E+00  0.00000000E+00  0.00000000E+00
  0.00000000E+00  0.00000000E+00  0.00000000E+00
  0.00000000E+00  0.00000000E+00  0.00000000E+00
  0.00000000E+00  0.00000000E+00  0.00000000E+00
  0.00000000E+00  0.00000000E+00  0.00000000E+00
  0.00000000E+00  0.00000000E+00  0.00000000E+00
  0.00000000E+00  0.00000000E+00  0.00000000E+00
  0.00000000E+00  0.00000000E+00  0.00000000E+00
  0.00000000E+00  0.00000000E+00  0.00000000E+00
  0.00000000E+00  0.00000000E+00  0.00000000E+00
  0.00000000E+00  0.00000000E+00  0.00000000E+00
  0.00000000E+00  0.00000000E+00  0.00000000E+00
  0.00000000E+00  0.00000000E+00  0.00000000E+00
