Generated by VASPKIT code               
   1.00000000000000     
    21.7266500666047797   -0.0030525231317543    0.0000000000000000
   -10.8661257266548787   17.3275915698099539    0.0000000000000000
     0.0000000000000013    0.0000000000000021   20.2207931360086519
  C             
   216
Direct
  0.2692915239009324  0.5385349715497583  0.6062421009799408
  0.7306267966932865  0.4612917532455256  0.6066683968609752
  0.3208632920717704  0.5263916608518429  0.5749088285855919
  0.6790796700835884  0.4734838365876683  0.5753563020084016
  0.3902444263456744  0.5956060424084200  0.5797573162231515
  0.6097028677207703  0.4042703233630220  0.5801167854627920
  0.3085311096918630  0.6169566395326953  0.6331900561619008
  0.6913664691785968  0.3828229585808245  0.6335080602661947
  0.3842011825246487  0.6530031024532192  0.6178875157455437
  0.6157062191625613  0.3468063233709344  0.6181626735733730
  0.2689217897046703  0.6530224569647558  0.6179200121783595
  0.7309814088797495  0.3467832109006395  0.6181836255450079
  0.2055659770380842  0.5264078097091485  0.5749283415119137
  0.7943726152413788  0.4734594582732399  0.5753726034667750
  0.2054399115734995  0.5956210361232834  0.5797981993566310
  0.7944967940915149  0.4042553957777173  0.5801502511376100
  0.1808121667794467  0.4896192865287858  0.5068924530158512
  0.8191693557826767  0.5103805123505936  0.5074012238070580
  0.3087736428691059  0.4896093400839874  0.5068626177448579
  0.6912319449382025  0.5103958538126747  0.5073795522831261
  0.2499045823026407  0.4998516576528758  0.4771690508422211
  0.7501193327924938  0.5002197564485371  0.4776880115837798
  0.4220464106984494  0.6145103841802637  0.5148585821486904
  0.5779888530925064  0.3854885582829510  0.5151789117437815
  0.3750394655363891  0.5548717230461477  0.4682263730422065
  0.6250084542153971  0.4452042292835898  0.4686295315201576
  0.4581647807989029  0.6929839261576944  0.4959374805157069
  0.5419206477728125  0.3070831127041629  0.4961200689315248
  0.4237238738949713  0.7314960701955115  0.6003538333199998
  0.5761661409734060  0.2683386228218794  0.6005437430065257
  0.4809153955441658  0.7605685375817899  0.5448622990661036
  0.5190816258460202  0.2394216630132320  0.5449222975187737
  0.3079139595137619  0.7315233881444101  0.6003932980019471
  0.6920367924652879  0.2683147618907071  0.6005662336100244
  0.3848638793363293  0.7695787354684711  0.5957155264433567
  0.6150613874231396  0.2302824553800491  0.5958459958929296
  0.2797828690935589  0.7606308019604739  0.5449099725396280
  0.7202071884495567  0.2393597811561676  0.5449536402016903
  0.1925154068279298  0.6145387524665011  0.5149211778514484
  0.8074436014485968  0.3854625877400935  0.5152205181231579
  0.1798077287802187  0.5548787795282522  0.4682819728026857
  0.8201867341775895  0.4451924303677401  0.4686689305006695
  0.2348917836209949  0.6930170973371190  0.4960020224887174
  0.7650862812050363  0.3070483951196721  0.4961637215578278
  0.2714591674148750  0.5429719344873050  0.4213126642446312
  0.7286066374066920  0.4571855963163003  0.4217588103846168
  0.3500546709876531  0.5799749074481042  0.4148524554833202
  0.6500350058065223  0.4202034303113749  0.4152253136910531
  0.2298921270890304  0.5799841114720081  0.4148947316979488
  0.7701677834125533  0.4201921578331707  0.4152559929214306
  0.4467782837072605  0.7129482371751408  0.4333364202712247
  0.5533177675381182  0.2872250041317628  0.4334895290244489
  0.3869293424069298  0.6579324325619638  0.3932525939414049
  0.6131867195655829  0.3423098910459004  0.3934719742401640
  0.4607901314911658  0.8097992183201441  0.5036090830848465
  0.5392862889880661  0.1903036535696856  0.5036309358594053
  0.4100121931284662  0.8198658867765687  0.5369134280542553
  0.5900104373991155  0.1801822658298846  0.5369360717213283
  0.3491454297026380  0.8098129457352883  0.5036393642287109
  0.6508747397547552  0.1902925943662410  0.5036489558157200
  0.4474563232035607  0.7846605283500026  0.4377597586410928
  0.5526264323765702  0.2155046250185038  0.4377949175236893
  0.2662272890061672  0.7129733469155752  0.4333978975811945
  0.7338365393190216  0.2872093797898430  0.4335243847798367
  0.2709989933681243  0.6579473027215457  0.3932949745447161
  0.7291042481566450  0.3423032041053276  0.3935011928225052
  0.3466891321792431  0.6933849174488316  0.3774174065684122
  0.6534211119964581  0.3068726452682924  0.3775370118935228
  0.3373013643511342  0.7846818110146856  0.4377893773277037
  0.6627692327519057  0.2154818509435970  0.4378122148878631
  0.3867202376204943  0.7733820680842314  0.4022541940834543
  0.6133598964174425  0.2268021509528992  0.4022505426542580
  0.2816637849133414  0.9502478198654387  0.5537548825241032
  0.0329688478923700  0.2726766724329437  0.5640576616626163
  0.7091729002517013  0.7617493073991071  0.5622904593931111
  0.7183951696993134  0.0498193785200058  0.5536842568269051
  0.9670901607533935  0.7273781403886090  0.5647198811686067
  0.2908713391678432  0.2384031148413399  0.5617350128748129
  0.2912424708186165  0.9244078444833121  0.4878936511372203
  0.0439343363295137  0.3249050825016724  0.5019653360550933
  0.6718782558923380  0.7153227771790611  0.4975414719881215
  0.7086544866380038  0.0754795341906416  0.4878008979323454
  0.9561039054036797  0.6751325391814262  0.5026308727059572
  0.3281653271751637  0.2847391091676670  0.4969497354058916
  0.2474022979462305  0.8731420079254164  0.5946470437223113
  0.1024417025352165  0.3167020898662045  0.6037634609119777
  0.6488873820503045  0.7678877873493448  0.5955447990146041
  0.7527802969759421  0.1270196989249044  0.5944280328320204
  0.8975802217548505  0.6833240993855796  0.6044215335855867
  0.3511307721937769  0.2322983423020304  0.5950615711951883
  0.2575833482734211  0.8461552537252857  0.4850426296631198
  0.1281434249509132  0.3973723835525291  0.5021077780217098
  0.6041566843590402  0.7176470805326076  0.4890484948950657
  0.7422449700314999  0.1537284864861874  0.4848166597845562
  0.8718596612092497  0.6026137428476517  0.5027761437173766
  0.3958881775462828  0.2823642169240657  0.4885233018588551
  0.2374258762878441  0.8032403192111488  0.5504328431422749
  0.1539922320203075  0.3737871727967033  0.5622901061848609
  0.5933663527129056  0.7472927688754822  0.5494036779117124
  0.7626009449348032  0.1967606708980725  0.5501778501989705
  0.8460189970851744  0.6262124918427077  0.5629723152898549
  0.4066364828107609  0.2527715642633126  0.5489411166157439
  0.1757748659904053  0.8492457690975215  0.6093256879872087
  0.1363250385788533  0.2727325867276917  0.6207451930982444
  0.6735309037140524  0.8492266159220065  0.6093375273491830
  0.8244403307584065  0.1509744093899883  0.6090097074916230
  0.8636834893542868  0.7272769095065073  0.6214319916605078
  0.3264621854365473  0.1509965507831410  0.6090139265735672
  0.1190893415037309  0.7678870327084439  0.5955191929867638
  0.2141919367554408  0.3166824188825288  0.6037570333460849
  0.6257569398494240  0.8730532339723069  0.5946590928552240
  0.8810739249045838  0.2322954060232405  0.5950443059528467
  0.7858146167298017  0.6833478503786452  0.6044268971579925
  0.3742083063499351  0.1271069687813622  0.5944351496139291
  0.1540477527669779  0.7473648537448767  0.5493652370090203
  0.2197738149211901  0.3737763800970839  0.5622836261736381
  0.5658666611458543  0.8031441728964666  0.5504382928830438
  0.8460070389995664  0.2526952970732026  0.5489132968745665
  0.7802139291454608  0.6262204679146208  0.5629773181401845
  0.4341048096233422  0.1968647288465490  0.5501909100422111
  0.1526315719170341  0.8942229781751365  0.5734833848182248
  0.1051881882522636  0.2104976816041884  0.5758568213052158
  0.7416660957717056  0.8942562020815643  0.5734958561741976
  0.8475214075473119  0.1059248257466479  0.5732266617087660
  0.8948131092137857  0.7894917058919546  0.5765374925985398
  0.2583182024302033  0.1058946879299185  0.5732198148856327
  0.2138948156686382  0.9564414468046820  0.5378674807550112
  0.0490106425998960  0.2117491739348978  0.5384657221483451
  0.7550759860149086  0.8448421138016542  0.5387750526051889
  0.7861566630453183  0.0435944988452093  0.5377763240710962
  0.9510243988725335  0.7882909350720411  0.5391612094772711
  0.2449657624246413  0.1552845135294092  0.5383652718191172
  0.2065258080701184  0.9566611579851667  0.4589613838270310
  0.0505805874944230  0.2121323175030696  0.4706184047463466
  0.7615587643080630  0.8463116868841354  0.4683959038022749
  0.7934205357387683  0.0432257309083539  0.4588952771443005
  0.9494715264511981  0.7879196155286863  0.4713172537258288
  0.2384375152847298  0.1536812679062507  0.4679990706048969
  0.0898241234268582  0.8447693697684429  0.5387354609170671
  0.1626096930679140  0.2117196842933993  0.5384647309241188
  0.7425834442593171  0.9564443448913877  0.5378816886793629
  0.9102581072071487  0.1553435692845540  0.5383528700149043
  0.8374144533989920  0.7883298453233891  0.5391692413300362
  0.2573959455961727  0.0435882166000781  0.5377871229727234
  0.0848071925510894  0.8462455818051637  0.4683646102687078
  0.1614332866794896  0.2121024770985542  0.4706181478897165
  0.7501605419694997  0.9566506847753047  0.4589633131904520
  0.9151940614446801  0.1537229783003511  0.4679977278576573
  0.8385878219000418  0.7879520386497703  0.4713276255274010
  0.2497829761984320  0.0432359611658768  0.4588903277170431
  0.1394904833459449  0.8980059293546745  0.4271839132967443
  0.1046818298862462  0.2094727983168951  0.4325784098600565
  0.7585984754163846  0.8980356419455475  0.4272124475424306
  0.8604058314720291  0.1018301913314659  0.4269632006165835
  0.8953503525765356  0.7905742928064825  0.4332971683247777
  0.2413701401075414  0.1018111580152024  0.4269709906961054
  0.0526420731350399  0.7617053556644962  0.5622596554103794
  0.2396154514052640  0.2726469602819748  0.5640596202138397
  0.6685700254389531  0.9501650494182741  0.5537668769360522
  0.9474642220036316  0.2384419997761285  0.5617174144333390
  0.7603952105872267  0.7274219141960927  0.5647391754040640
  0.3314337702468748  0.0499105624109575  0.5536912687971380
  0.2285797492946102  0.8793838819085806  0.3852514768083068
  0.1025778416372845  0.3157075950205410  0.4009468331238679
  0.6713845104398359  0.7724071267001378  0.3892387862168860
  0.7712256483333846  0.1203118406389265  0.3851186402702567
  0.8974173081651742  0.6843273711435316  0.4016535580165623
  0.3285961158725215  0.2273313623481101  0.3888014378533740
  0.2717549034736990  0.9531658568125252  0.4283055198093280
  0.0363113215094018  0.2714500459532516  0.4425363543762018
  0.7196883212525265  0.7649852508487598  0.4388186139978814
  0.7281145547745780  0.0466176274177670  0.4282642019077088
  0.9636803050788671  0.7285577327032513  0.4432105424841808
  0.2803281833325784  0.2349648475349397  0.4382693085804519
  0.1524515740992030  0.8532099061580070  0.3793599307011561
  0.1354838970700456  0.2710500181662354  0.3866372072664603
  0.7008131944187284  0.8531755427600416  0.3793907795396620
  0.8473376218536401  0.1464919516573602  0.3790873302122222
  0.8645381163245460  0.7289947082741932  0.3873566694864650
  0.2991223004540728  0.1465311567036309  0.3791051699075965
  0.1011226392350864  0.7724207591582868  0.3891978038819346
  0.2130697000756641  0.3156852533984207  0.4009595497070464
  0.6508227545195595  0.8792817234665193  0.3852627854949233
  0.8986535954307939  0.2273074520013978  0.3887802968678571
  0.7869680826955516  0.6843589825654348  0.4016822397644475
  0.3490868344036286  0.1204155506043350  0.3851222219750241
  0.0453645559887192  0.7649319196804640  0.4387822504574785
  0.2350596292162734  0.2714243809172885  0.4425422940180823
  0.6813970883979366  0.9530687488607441  0.4283038229112250
  0.9545775819132700  0.2349956587302060  0.4382580485035348
  0.7649763291803282  0.7286012090774108  0.4432375470388266
  0.3185275524769224  0.0467108234263307  0.4282638273134509
  0.0435155890522125  0.7152926728627023  0.4975013875491641
  0.2809025791852449  0.3248696623326026  0.5019719690976885
  0.6331627594906450  0.9242849692534136  0.4878964494612958
  0.9565002579176323  0.2847521925585070  0.4969264298212721
  0.7191037092774621  0.6751784796914109  0.5026523254977704
  0.3668309563647654  0.0756063525542672  0.4878052684886782
  0.2201558824829632  0.8170659240575162  0.4236677777742770
  0.1542554995681087  0.3747400427166170  0.4409636786627900
  0.6064761747651133  0.7505675216365333  0.4261991438050288
  0.7796534635483710  0.1827037857455736  0.4234070796382952
  0.8457703787082167  0.6253303225729994  0.4416954322061528
  0.3935056666966759  0.2492319154950877  0.4257689229129937
  0.1442172478275907  0.7506459672715877  0.4261656853790186
  0.2204589626490758  0.3747225066865525  0.4409644388358913
  0.5969231896501412  0.8169370268993745  0.4236826161271310
  0.8556072986472856  0.2491352211537574  0.4257543935427890
  0.7795866137446907  0.6253527493996742  0.4417068123570260
  0.4030520639018675  0.1828423656749862  0.4234187623244452
  0.1136007989748222  0.7176945838219879  0.4890100678859284
  0.2692074574091876  0.3973706617502870  0.5021011011044649
  0.5886233348968162  0.8460327098698528  0.4850546669002185
  0.8863586225026054  0.2823002991492132  0.4884961796276457
  0.7307737609302407  0.6026214709764801  0.5027792144606025
  0.4114342626929641  0.1538557366270865  0.4848321584115851
 
  0.00000000E+00  0.00000000E+00  0.00000000E+00
  0.00000000E+00  0.00000000E+00  0.00000000E+00
  0.00000000E+00  0.00000000E+00  0.00000000E+00
  0.00000000E+00  0.00000000E+00  0.00000000E+00
  0.00000000E+00  0.00000000E+00  0.00000000E+00
  0.00000000E+00  0.00000000E+00  0.00000000E+00
  0.00000000E+00  0.00000000E+00  0.00000000E+00
  0.00000000E+00  0.00000000E+00  0.00000000E+00
  0.00000000E+00  0.00000000E+00  0.00000000E+00
  0.00000000E+00  0.00000000E+00  0.00000000E+00
  0.00000000E+00  0.00000000E+00  0.00000000E+00
  0.00000000E+00  0.00000000E+00  0.00000000E+00
  0.00000000E+00  0.00000000E+00  0.00000000E+00
  0.00000000E+00  0.00000000E+00  0.00000000E+00
  0.00000000E+00  0.00000000E+00  0.00000000E+00
  0.00000000E+00  0.00000000E+00  0.00000000E+00
  0.00000000E+00  0.00000000E+00  0.00000000E+00
  0.00000000E+00  0.00000000E+00  0.00000000E+00
  0.00000000E+00  0.00000000E+00  0.00000000E+00
  0.00000000E+00  0.00000000E+00  0.00000000E+00
  0.00000000E+00  0.00000000E+00  0.00000000E+00
  0.00000000E+00  0.00000000E+00  0.00000000E+00
  0.00000000E+00  0.00000000E+00  0.00000000E+00
  0.00000000E+00  0.00000000E+00  0.00000000E+00
  0.00000000E+00  0.00000000E+00  0.00000000E+00
  0.00000000E+00  0.00000000E+00  0.00000000E+00
  0.00000000E+00  0.00000000E+00  0.00000000E+00
  0.00000000E+00  0.00000000E+00  0.00000000E+00
  0.00000000E+00  0.00000000E+00  0.00000000E+00
  0.00000000E+00  0.00000000E+00  0.00000000E+00
  0.00000000E+00  0.00000000E+00  0.00000000E+00
  0.00000000E+00  0.00000000E+00  0.00000000E+00
  0.00000000E+00  0.00000000E+00  0.00000000E+00
  0.00000000E+00  0.00000000E+00  0.00000000E+00
  0.00000000E+00  0.00000000E+00  0.00000000E+00
  0.00000000E+00  0.00000000E+00  0.00000000E+00
  0.00000000E+00  0.00000000E+00  0.00000000E+00
  0.00000000E+00  0.00000000E+00  0.00000000E+00
  0.00000000E+00  0.00000000E+00  0.00000000E+00
  0.00000000E+00  0.00000000E+00  0.00000000E+00
  0.00000000E+00  0.00000000E+00  0.00000000E+00
  0.00000000E+00  0.00000000E+00  0.00000000E+00
  0.00000000E+00  0.00000000E+00  0.00000000E+00
  0.00000000E+00  0.00000000E+00  0.00000000E+00
  0.00000000E+00  0.00000000E+00  0.00000000E+00
  0.00000000E+00  0.00000000E+00  0.00000000E+00
  0.00000000E+00  0.00000000E+00  0.00000000E+00
  0.00000000E+00  0.00000000E+00  0.00000000E+00
  0.00000000E+00  0.00000000E+00  0.00000000E+00
  0.00000000E+00  0.00000000E+00  0.00000000E+00
  0.00000000E+00  0.00000000E+00  0.00000000E+00
  0.00000000E+00  0.00000000E+00  0.00000000E+00
  0.00000000E+00  0.00000000E+00  0.00000000E+00
  0.00000000E+00  0.00000000E+00  0.00000000E+00
  0.00000000E+00  0.00000000E+00  0.00000000E+00
  0.00000000E+00  0.00000000E+00  0.00000000E+00
  0.00000000E+00  0.00000000E+00  0.00000000E+00
  0.00000000E+00  0.00000000E+00  0.00000000E+00
  0.00000000E+00  0.00000000E+00  0.00000000E+00
  0.00000000E+00  0.00000000E+00  0.00000000E+00
  0.00000000E+00  0.00000000E+00  0.00000000E+00
  0.00000000E+00  0.00000000E+00  0.00000000E+00
  0.00000000E+00  0.00000000E+00  0.00000000E+00
  0.00000000E+00  0.00000000E+00  0.00000000E+00
  0.00000000E+00  0.00000000E+00  0.00000000E+00
  0.00000000E+00  0.00000000E+00  0.00000000E+00
  0.00000000E+00  0.00000000E+00  0.00000000E+00
  0.00000000E+00  0.00000000E+00  0.00000000E+00
  0.00000000E+00  0.00000000E+00  0.00000000E+00
  0.00000000E+00  0.00000000E+00  0.00000000E+00
  0.00000000E+00  0.00000000E+00  0.00000000E+00
  0.00000000E+00  0.00000000E+00  0.00000000E+00
  0.00000000E+00  0.00000000E+00  0.00000000E+00
  0.00000000E+00  0.00000000E+00  0.00000000E+00
  0.00000000E+00  0.00000000E+00  0.00000000E+00
  0.00000000E+00  0.00000000E+00  0.00000000E+00
  0.00000000E+00  0.00000000E+00  0.00000000E+00
  0.00000000E+00  0.00000000E+00  0.00000000E+00
  0.00000000E+00  0.00000000E+00  0.00000000E+00
  0.00000000E+00  0.00000000E+00  0.00000000E+00
  0.00000000E+00  0.00000000E+00  0.00000000E+00
  0.00000000E+00  0.00000000E+00  0.00000000E+00
  0.00000000E+00  0.00000000E+00  0.00000000E+00
  0.00000000E+00  0.00000000E+00  0.00000000E+00
  0.00000000E+00  0.00000000E+00  0.00000000E+00
  0.00000000E+00  0.00000000E+00  0.00000000E+00
  0.00000000E+00  0.00000000E+00  0.00000000E+00
  0.00000000E+00  0.00000000E+00  0.00000000E+00
  0.00000000E+00  0.00000000E+00  0.00000000E+00
  0.00000000E+00  0.00000000E+00  0.00000000E+00
  0.00000000E+00  0.00000000E+00  0.00000000E+00
  0.00000000E+00  0.00000000E+00  0.00000000E+00
  0.00000000E+00  0.00000000E+00  0.00000000E+00
  0.00000000E+00  0.00000000E+00  0.00000000E+00
  0.00000000E+00  0.00000000E+00  0.00000000E+00
  0.00000000E+00  0.00000000E+00  0.00000000E+00
  0.00000000E+00  0.00000000E+00  0.00000000E+00
  0.00000000E+00  0.00000000E+00  0.00000000E+00
  0.00000000E+00  0.00000000E+00  0.00000000E+00
  0.00000000E+00  0.00000000E+00  0.00000000E+00
  0.00000000E+00  0.00000000E+00  0.00000000E+00
  0.00000000E+00  0.00000000E+00  0.00000000E+00
  0.00000000E+00  0.00000000E+00  0.00000000E+00
  0.00000000E+00  0.00000000E+00  0.00000000E+00
  0.00000000E+00  0.00000000E+00  0.00000000E+00
  0.00000000E+00  0.00000000E+00  0.00000000E+00
  0.00000000E+00  0.00000000E+00  0.00000000E+00
  0.00000000E+00  0.00000000E+00  0.00000000E+00
  0.00000000E+00  0.00000000E+00  0.00000000E+00
  0.00000000E+00  0.00000000E+00  0.00000000E+00
  0.00000000E+00  0.00000000E+00  0.00000000E+00
  0.00000000E+00  0.00000000E+00  0.00000000E+00
  0.00000000E+00  0.00000000E+00  0.00000000E+00
  0.00000000E+00  0.00000000E+00  0.00000000E+00
  0.00000000E+00  0.00000000E+00  0.00000000E+00
  0.00000000E+00  0.00000000E+00  0.00000000E+00
  0.00000000E+00  0.00000000E+00  0.00000000E+00
  0.00000000E+00  0.00000000E+00  0.00000000E+00
  0.00000000E+00  0.00000000E+00  0.00000000E+00
  0.00000000E+00  0.00000000E+00  0.00000000E+00
  0.00000000E+00  0.00000000E+00  0.00000000E+00
  0.00000000E+00  0.00000000E+00  0.00000000E+00
  0.00000000E+00  0.00000000E+00  0.00000000E+00
  0.00000000E+00  0.00000000E+00  0.00000000E+00
  0.00000000E+00  0.00000000E+00  0.00000000E+00
  0.00000000E+00  0.00000000E+00  0.00000000E+00
  0.00000000E+00  0.00000000E+00  0.00000000E+00
  0.00000000E+00  0.00000000E+00  0.00000000E+00
  0.00000000E+00  0.00000000E+00  0.00000000E+00
  0.00000000E+00  0.00000000E+00  0.00000000E+00
  0.00000000E+00  0.00000000E+00  0.00000000E+00
  0.00000000E+00  0.00000000E+00  0.00000000E+00
  0.00000000E+00  0.00000000E+00  0.00000000E+00
  0.00000000E+00  0.00000000E+00  0.00000000E+00
  0.00000000E+00  0.00000000E+00  0.00000000E+00
  0.00000000E+00  0.00000000E+00  0.00000000E+00
  0.00000000E+00  0.00000000E+00  0.00000000E+00
  0.00000000E+00  0.00000000E+00  0.00000000E+00
  0.00000000E+00  0.00000000E+00  0.00000000E+00
  0.00000000E+00  0.00000000E+00  0.00000000E+00
  0.00000000E+00  0.00000000E+00  0.00000000E+00
  0.00000000E+00  0.00000000E+00  0.00000000E+00
  0.00000000E+00  0.00000000E+00  0.00000000E+00
  0.00000000E+00  0.00000000E+00  0.00000000E+00
  0.00000000E+00  0.00000000E+00  0.00000000E+00
  0.00000000E+00  0.00000000E+00  0.00000000E+00
  0.00000000E+00  0.00000000E+00  0.00000000E+00
  0.00000000E+00  0.00000000E+00  0.00000000E+00
  0.00000000E+00  0.00000000E+00  0.00000000E+00
  0.00000000E+00  0.00000000E+00  0.00000000E+00
  0.00000000E+00  0.00000000E+00  0.00000000E+00
  0.00000000E+00  0.00000000E+00  0.00000000E+00
  0.00000000E+00  0.00000000E+00  0.00000000E+00
  0.00000000E+00  0.00000000E+00  0.00000000E+00
  0.00000000E+00  0.00000000E+00  0.00000000E+00
  0.00000000E+00  0.00000000E+00  0.00000000E+00
  0.00000000E+00  0.00000000E+00  0.00000000E+00
  0.00000000E+00  0.00000000E+00  0.00000000E+00
  0.00000000E+00  0.00000000E+00  0.00000000E+00
  0.00000000E+00  0.00000000E+00  0.00000000E+00
  0.00000000E+00  0.00000000E+00  0.00000000E+00
  0.00000000E+00  0.00000000E+00  0.00000000E+00
  0.00000000E+00  0.00000000E+00  0.00000000E+00
  0.00000000E+00  0.00000000E+00  0.00000000E+00
  0.00000000E+00  0.00000000E+00  0.00000000E+00
  0.00000000E+00  0.00000000E+00  0.00000000E+00
  0.00000000E+00  0.00000000E+00  0.00000000E+00
  0.00000000E+00  0.00000000E+00  0.00000000E+00
  0.00000000E+00  0.00000000E+00  0.00000000E+00
  0.00000000E+00  0.00000000E+00  0.00000000E+00
  0.00000000E+00  0.00000000E+00  0.00000000E+00
  0.00000000E+00  0.00000000E+00  0.00000000E+00
  0.00000000E+00  0.00000000E+00  0.00000000E+00
  0.00000000E+00  0.00000000E+00  0.00000000E+00
  0.00000000E+00  0.00000000E+00  0.00000000E+00
  0.00000000E+00  0.00000000E+00  0.00000000E+00
  0.00000000E+00  0.00000000E+00  0.00000000E+00
  0.00000000E+00  0.00000000E+00  0.00000000E+00
  0.00000000E+00  0.00000000E+00  0.00000000E+00
  0.00000000E+00  0.00000000E+00  0.00000000E+00
  0.00000000E+00  0.00000000E+00  0.00000000E+00
  0.00000000E+00  0.00000000E+00  0.00000000E+00
  0.00000000E+00  0.00000000E+00  0.00000000E+00
  0.00000000E+00  0.00000000E+00  0.00000000E+00
  0.00000000E+00  0.00000000E+00  0.00000000E+00
  0.00000000E+00  0.00000000E+00  0.00000000E+00
  0.00000000E+00  0.00000000E+00  0.00000000E+00
  0.00000000E+00  0.00000000E+00  0.00000000E+00
  0.00000000E+00  0.00000000E+00  0.00000000E+00
  0.00000000E+00  0.00000000E+00  0.00000000E+00
  0.00000000E+00  0.00000000E+00  0.00000000E+00
  0.00000000E+00  0.00000000E+00  0.00000000E+00
  0.00000000E+00  0.00000000E+00  0.00000000E+00
  0.00000000E+00  0.00000000E+00  0.00000000E+00
  0.00000000E+00  0.00000000E+00  0.00000000E+00
  0.00000000E+00  0.00000000E+00  0.00000000E+00
  0.00000000E+00  0.00000000E+00  0.00000000E+00
  0.00000000E+00  0.00000000E+00  0.00000000E+00
  0.00000000E+00  0.00000000E+00  0.00000000E+00
  0.00000000E+00  0.00000000E+00  0.00000000E+00
  0.00000000E+00  0.00000000E+00  0.00000000E+00
  0.00000000E+00  0.00000000E+00  0.00000000E+00
  0.00000000E+00  0.00000000E+00  0.00000000E+00
  0.00000000E+00  0.00000000E+00  0.00000000E+00
  0.00000000E+00  0.00000000E+00  0.00000000E+00
  0.00000000E+00  0.00000000E+00  0.00000000E+00
  0.00000000E+00  0.00000000E+00  0.00000000E+00
  0.00000000E+00  0.00000000E+00  0.00000000E+00
  0.00000000E+00  0.00000000E+00  0.00000000E+00
  0.00000000E+00  0.00000000E+00  0.00000000E+00
  0.00000000E+00  0.00000000E+00  0.00000000E+00
  0.00000000E+00  0.00000000E+00  0.00000000E+00
  0.00000000E+00  0.00000000E+00  0.00000000E+00
  0.00000000E+00  0.00000000E+00  0.00000000E+00
  0.00000000E+00  0.00000000E+00  0.00000000E+00
  0.00000000E+00  0.00000000E+00  0.00000000E+00
