Generated by VASPKIT code               
   1.00000000000000     
    13.0310131042090127    0.1582374789462641    0.0000000000000000
    -6.3739577097037721   10.4184068869640623    0.0000000000000000
     0.0000000000000013    0.0000000000000021   20.2257195467461237
  C             
    96
Direct
  0.1715614226920152  0.1515600583224739  0.6110942157389800
  0.6835649682876621  0.1738005121758093  0.6063132348821867
  0.1161870170769319  0.2243322524216680  0.6035860838788523
  0.7516672783424099  0.3018620400499259  0.6281974793023579
  0.1480281031297253  0.2915474702704870  0.5340740903135242
  0.8435477858843612  0.3748963889578221  0.5770754963161977
  0.2257410965107596  0.1531553587342529  0.5469221589551481
  0.7313982282809306  0.1698160893935139  0.5409924181072086
  0.2089147100593323  0.2264489488990904  0.5008725125523128
  0.8332251127808092  0.2923509101763813  0.5253856553497798
  0.2033037334013201  0.0273334761844453  0.5315568292898050
  0.6411457993349927  0.1028964814583091  0.4955906808768447
  0.1093835665517986  0.0225845826198423  0.6324124789707426
  0.5581262355159069  0.1077845929254906  0.6000943368606357
  0.1284576568190587  0.9463194462287632  0.5821172704020299
  0.5200459225300520  0.0416352587283697  0.5305858023865824
  0.9848591623080480  0.9596004012432928  0.6437691443396290
  0.5039439411098670  0.1807615996797693  0.6115524717118390
  0.9912046930833398  0.1568926891932563  0.6129940664782438
  0.6939604760271081  0.3709724520269404  0.6416619502539191
  0.9254949518231470  0.0282016594045871  0.6343287065676435
  0.5686564207002078  0.3091845248572298  0.6335595435188708
  0.0241368377317883  0.2292964351284823  0.5025483573026506
  0.8425072519467989  0.4887416469194577  0.5609139203282751
  0.9378169923522606  0.1612212181003159  0.5497149725564654
  0.7498496603076248  0.4871820612324100  0.6000248931635070
  0.0023930930833913  0.1902396626092155  0.4349669754863328
  0.8593184104617606  0.5292683324010099  0.4935670558187368
  0.1869458647464270  0.1850672899743415  0.4332436100244124
  0.8508887283059963  0.3329367736977105  0.4581597950038088
  0.0913444766306171  0.1828321529573103  0.3973978414205277
  0.8763671495239436  0.4600748463466857  0.4445963098781789
  0.1837342820852825  0.9872894507480581  0.4642093471368653
  0.6578530774325841  0.1435705515752659  0.4282428528617146
  0.1871350268762910  0.0714374865611020  0.4148059780117777
  0.7698743035130917  0.2528232970311848  0.4090913012360602
  0.0825126344273599  0.8636758764106816  0.4493162662073757
  0.5665266007905316  0.1529391383790752  0.3943442838271380
  0.0159173510386026  0.8362935537877121  0.5643766101294005
  0.4576572934839760  0.1082787770758102  0.5011281605841305
  0.9262693443215824  0.8441463765734412  0.6015916569319089
  0.4450478273655492  0.1810204588915454  0.5494576373630338
  0.9951304366608369  0.7962223682210379  0.4967638294971692
  0.4745253818645381  0.1509372778697795  0.4337477673346157
  0.8297071710181143  0.9555210939202254  0.5850152154937263
  0.5463867247296292  0.3870172222850954  0.5858357720197915
  0.8350494085686222  0.0387262763574654  0.5350688738990428
  0.6578895357455181  0.4967408922678018  0.5664753878411162
  0.8302184725643400  0.8424098530549742  0.5660101679860006
  0.4672490986790194  0.3074312139317286  0.5362419663024127
  0.8893018921720142  0.0808321116530379  0.4174510431940917
  0.7948369262291877  0.5932305849330604  0.4644665944643265
  0.8128418748702728  0.9994504105775945  0.4675387925590826
  0.6736067212111010  0.5379386481925863  0.4991208529749329
  0.0324450725355163  0.0672047910441620  0.3552657814059543
  0.8135620267511356  0.4585027796879046  0.3830543841854208
  0.0923607782710150  0.9992408072871655  0.3652237715753088
  0.7479837598365080  0.3304369500139899  0.3611161378150030
  0.0274017278249659  0.8708062684865894  0.3866246699579818
  0.6227642775004156  0.2694645775856301  0.3527905940905853
  0.9079691742588665  0.0050361824199996  0.3667673669488565
  0.7570455193957386  0.5284133878099411  0.3956461871414589
  0.8711828676458282  0.7409146135707729  0.4652647144204636
  0.4739517155040787  0.2654922741184151  0.4180336356277579
  0.8082771763065821  0.8032030918719073  0.4984348905305183
  0.4819853176202287  0.3488112437955522  0.4691428748785924
  0.7866116302576103  0.8728526671765948  0.4518129720684456
  0.5824721949841845  0.4724175916252733  0.4533654551530759
  0.9032613832771972  0.8074799660385281  0.3968611378325662
  0.5648341652216402  0.3381565399535447  0.3666249597824063
  0.8448599249944166  0.8764598232876821  0.3880823062318868
  0.6322904984759390  0.4661384533210651  0.3885686514817621
  0.4719723493900148  0.7881286297381038  0.4245381938119124
  0.5376853760056122  0.7699581685986914  0.4740678673320105
  0.3867604984559847  0.6686901170317583  0.3925392383404187
  0.4675985570580110  0.6276548274592741  0.4861138865046257
  0.3752872058249963  0.5643252450750111  0.4365718836153647
  0.2757502449484832  0.6592660780177155  0.3928161336668907
  0.1913880889018245  0.5410690111081706  0.4260480368255131
  0.2548387673230721  0.4837649863951654  0.4544263196946545
  0.2883998663212566  0.7652495315575294  0.4358835174454825
  0.4094467566557825  0.8467365702036744  0.4525332213314783
  0.4556759223183207  0.8938899997725827  0.5238809961359081
  0.1974419635852342  0.7041164653665248  0.4862022302136353
  0.2288162243416636  0.7256678537363470  0.5542217577246618
  0.3526056591075815  0.8076286318881998  0.5731801182225098
  0.1273065443405272  0.5612628779376081  0.4757179635888278
  0.4860011404979829  0.7385601235000721  0.5827182819018120
  0.5364956984744467  0.8322336186329267  0.5333002297829097
  0.3848476870358297  0.7353540404540126  0.6125787882041038
  0.2831972152879842  0.6018233990058519  0.6134189684846092
  0.1814455260879342  0.5972495914909075  0.5838377246433879
  0.1294853709040282  0.5011357308606961  0.5354040217188896
  0.4377927713643501  0.6089830811512797  0.5544429377832500
  0.3146757621218370  0.5280828558004487  0.5744715339774160
  0.2105714599969133  0.4394020225057744  0.5264057780681028
 
  0.00000000E+00  0.00000000E+00  0.00000000E+00
  0.00000000E+00  0.00000000E+00  0.00000000E+00
  0.00000000E+00  0.00000000E+00  0.00000000E+00
  0.00000000E+00  0.00000000E+00  0.00000000E+00
  0.00000000E+00  0.00000000E+00  0.00000000E+00
  0.00000000E+00  0.00000000E+00  0.00000000E+00
  0.00000000E+00  0.00000000E+00  0.00000000E+00
  0.00000000E+00  0.00000000E+00  0.00000000E+00
  0.00000000E+00  0.00000000E+00  0.00000000E+00
  0.00000000E+00  0.00000000E+00  0.00000000E+00
  0.00000000E+00  0.00000000E+00  0.00000000E+00
  0.00000000E+00  0.00000000E+00  0.00000000E+00
  0.00000000E+00  0.00000000E+00  0.00000000E+00
  0.00000000E+00  0.00000000E+00  0.00000000E+00
  0.00000000E+00  0.00000000E+00  0.00000000E+00
  0.00000000E+00  0.00000000E+00  0.00000000E+00
  0.00000000E+00  0.00000000E+00  0.00000000E+00
  0.00000000E+00  0.00000000E+00  0.00000000E+00
  0.00000000E+00  0.00000000E+00  0.00000000E+00
  0.00000000E+00  0.00000000E+00  0.00000000E+00
  0.00000000E+00  0.00000000E+00  0.00000000E+00
  0.00000000E+00  0.00000000E+00  0.00000000E+00
  0.00000000E+00  0.00000000E+00  0.00000000E+00
  0.00000000E+00  0.00000000E+00  0.00000000E+00
  0.00000000E+00  0.00000000E+00  0.00000000E+00
  0.00000000E+00  0.00000000E+00  0.00000000E+00
  0.00000000E+00  0.00000000E+00  0.00000000E+00
  0.00000000E+00  0.00000000E+00  0.00000000E+00
  0.00000000E+00  0.00000000E+00  0.00000000E+00
  0.00000000E+00  0.00000000E+00  0.00000000E+00
  0.00000000E+00  0.00000000E+00  0.00000000E+00
  0.00000000E+00  0.00000000E+00  0.00000000E+00
  0.00000000E+00  0.00000000E+00  0.00000000E+00
  0.00000000E+00  0.00000000E+00  0.00000000E+00
  0.00000000E+00  0.00000000E+00  0.00000000E+00
  0.00000000E+00  0.00000000E+00  0.00000000E+00
  0.00000000E+00  0.00000000E+00  0.00000000E+00
  0.00000000E+00  0.00000000E+00  0.00000000E+00
  0.00000000E+00  0.00000000E+00  0.00000000E+00
  0.00000000E+00  0.00000000E+00  0.00000000E+00
  0.00000000E+00  0.00000000E+00  0.00000000E+00
  0.00000000E+00  0.00000000E+00  0.00000000E+00
  0.00000000E+00  0.00000000E+00  0.00000000E+00
  0.00000000E+00  0.00000000E+00  0.00000000E+00
  0.00000000E+00  0.00000000E+00  0.00000000E+00
  0.00000000E+00  0.00000000E+00  0.00000000E+00
  0.00000000E+00  0.00000000E+00  0.00000000E+00
  0.00000000E+00  0.00000000E+00  0.00000000E+00
  0.00000000E+00  0.00000000E+00  0.00000000E+00
  0.00000000E+00  0.00000000E+00  0.00000000E+00
  0.00000000E+00  0.00000000E+00  0.00000000E+00
  0.00000000E+00  0.00000000E+00  0.00000000E+00
  0.00000000E+00  0.00000000E+00  0.00000000E+00
  0.00000000E+00  0.00000000E+00  0.00000000E+00
  0.00000000E+00  0.00000000E+00  0.00000000E+00
  0.00000000E+00  0.00000000E+00  0.00000000E+00
  0.00000000E+00  0.00000000E+00  0.00000000E+00
  0.00000000E+00  0.00000000E+00  0.00000000E+00
  0.00000000E+00  0.00000000E+00  0.00000000E+00
  0.00000000E+00  0.00000000E+00  0.00000000E+00
  0.00000000E+00  0.00000000E+00  0.00000000E+00
  0.00000000E+00  0.00000000E+00  0.00000000E+00
  0.00000000E+00  0.00000000E+00  0.00000000E+00
  0.00000000E+00  0.00000000E+00  0.00000000E+00
  0.00000000E+00  0.00000000E+00  0.00000000E+00
  0.00000000E+00  0.00000000E+00  0.00000000E+00
  0.00000000E+00  0.00000000E+00  0.00000000E+00
  0.00000000E+00  0.00000000E+00  0.00000000E+00
  0.00000000E+00  0.00000000E+00  0.00000000E+00
  0.00000000E+00  0.00000000E+00  0.00000000E+00
  0.00000000E+00  0.00000000E+00  0.00000000E+00
  0.00000000E+00  0.00000000E+00  0.00000000E+00
  0.00000000E+00  0.00000000E+00  0.00000000E+00
  0.00000000E+00  0.00000000E+00  0.00000000E+00
  0.00000000E+00  0.00000000E+00  0.00000000E+00
  0.00000000E+00  0.00000000E+00  0.00000000E+00
  0.00000000E+00  0.00000000E+00  0.00000000E+00
  0.00000000E+00  0.00000000E+00  0.00000000E+00
  0.00000000E+00  0.00000000E+00  0.00000000E+00
  0.00000000E+00  0.00000000E+00  0.00000000E+00
  0.00000000E+00  0.00000000E+00  0.00000000E+00
  0.00000000E+00  0.00000000E+00  0.00000000E+00
  0.00000000E+00  0.00000000E+00  0.00000000E+00
  0.00000000E+00  0.00000000E+00  0.00000000E+00
  0.00000000E+00  0.00000000E+00  0.00000000E+00
  0.00000000E+00  0.00000000E+00  0.00000000E+00
  0.00000000E+00  0.00000000E+00  0.00000000E+00
  0.00000000E+00  0.00000000E+00  0.00000000E+00
  0.00000000E+00  0.00000000E+00  0.00000000E+00
  0.00000000E+00  0.00000000E+00  0.00000000E+00
  0.00000000E+00  0.00000000E+00  0.00000000E+00
  0.00000000E+00  0.00000000E+00  0.00000000E+00
  0.00000000E+00  0.00000000E+00  0.00000000E+00
  0.00000000E+00  0.00000000E+00  0.00000000E+00
  0.00000000E+00  0.00000000E+00  0.00000000E+00
  0.00000000E+00  0.00000000E+00  0.00000000E+00
