Generated by VASPKIT code               
   1.00000000000000     
    19.6336417920229742   -1.0084360982206304    0.0000000000000000
   -10.6213184689670435   17.3032239148641267    0.0000000000000000
     0.0000000000000011    0.0000000000000020   20.2217572949935978
  C             
   168
Direct
  0.4863512755249531  0.7166728973050382  0.5201328571303563
  0.7633888620051437  0.4820500294101819  0.5630894115522054
  0.4627940417393788  0.6493711381575054  0.4807332627750824
  0.7218871715269302  0.4861192324932020  0.5077404522774884
  0.3978142916488281  0.5762989479874463  0.5138930508529782
  0.6320272694461764  0.4343346897127986  0.5220343893006927
  0.4321743068132022  0.6863559747016268  0.5749022307319720
  0.7008638536815326  0.4297101673462649  0.6130544074835029
  0.3780064351418133  0.5987578182402302  0.5724919176363201
  0.6201741483345771  0.4012043408301125  0.5880925120063338
  0.3955230370207587  0.7303863765719427  0.5861607804789841
  0.7178933117994788  0.3740463450792788  0.6375124976369477
  0.4911761399810644  0.7893308526803366  0.4927155591236811
  0.8172746927904413  0.4572664714585812  0.5556289117521374
  0.4220541347231688  0.7851078632174620  0.5330605884123116
  0.7875827804851383  0.3883488219868880  0.6006913934323279
  0.4510066136090316  0.7703667439324917  0.4242646935625700
  0.8276661994537236  0.4337275021544187  0.4925549968821556
  0.4364191297147357  0.6429414737652408  0.4146007199241524
  0.7338878555253032  0.4636474920292670  0.4446494049622558
  0.4316431445419155  0.7047108529623785  0.3857055885994924
  0.7868593872604137  0.4380262463627744  0.4367315834120191
  0.3359400565169821  0.5151526930725225  0.4648111751915351
  0.5909596897761631  0.3832556758110215  0.4671927253286086
  0.3582506830671477  0.5669945970866053  0.4048138618225607
  0.6516459310339400  0.3991469317704670  0.4195555263753121
  0.2416906443258355  0.4658730188910525  0.4913383939789142
  0.5125098239617074  0.3019730354285315  0.4743522984086539
  0.2947264169625186  0.5591013551434258  0.5948432766838891
  0.5531769075548141  0.3214593631243972  0.6021244016894229
  0.2298870265420092  0.4949891961074542  0.5562805462354845
  0.4855025346426132  0.2733909897685010  0.5519754688199257
  0.3123718938781934  0.6885105402985872  0.6087170428132467
  0.6505678653644225  0.2936852855979524  0.6500878755941812
  0.2657603106638220  0.6049567664131459  0.6212389062198369
  0.5684777412315611  0.2711255977419498  0.6372034566848157
  0.2570676715721021  0.7020637741631433  0.5724444366219572
  0.6546813863130794  0.2298256798909506  0.6241200356286782
  0.3635841611593378  0.7849638958640526  0.4913706730733196
  0.7822744661357959  0.3245211476123444  0.5650476447572998
  0.3804305924624245  0.7747962730111198  0.4241762251153318
  0.8070939572225342  0.3516533833428852  0.4975464156970943
  0.2800407339691731  0.7430930272800396  0.5124506551897525
  0.7149860739026295  0.2445427539850726  0.5782681133056400
  0.3474001772409565  0.6657176840728098  0.3602189501078215
  0.7380769382046282  0.3572038220403613  0.4068896721178064
  0.3028559632746379  0.5812525981978496  0.3741201866958406
  0.6558643148834449  0.3346582388750790  0.3958658673887712
  0.3154638120178959  0.7100362138496976  0.3840949186617593
  0.7518641765296223  0.3054768950419557  0.4450240328760344
  0.1881463278191902  0.4817407747808957  0.4485965242935421
  0.5188612866983462  0.2382767929251486  0.4444476537036977
  0.2187364235069396  0.5382422342508022  0.3970358673887731
  0.5877012169761500  0.2535032204257277  0.4088067996493692
  0.1612122773308471  0.5014819805119615  0.5551626138654626
  0.4752451099053516  0.1926562176984490  0.5531681082737094
  0.1812512619764632  0.5685383951875593  0.5957279314756292
  0.5191022547355715  0.1903571298857756  0.6075100818294601
  0.1766431392656287  0.6278920172359719  0.5668923807012192
  0.5721742027266359  0.1648993580784719  0.5999397765762069
  0.1328031030970607  0.4934027004319432  0.4890580892672034
  0.4889455739123960  0.1718029202901405  0.4903132704018631
  0.2094906373470167  0.6990183515095936  0.4626054555952237
  0.6759112564200933  0.1822355168000698  0.5222773240905312
  0.2329105323865619  0.6680563656643770  0.4053881965019244
  0.6839302481617935  0.2242500148814841  0.4566230793852668
  0.1826877966830125  0.5839614625214864  0.4064097097195400
  0.6060000096664879  0.1983448923209892  0.4337331307520031
  0.1379555396533405  0.6228210907389027  0.5009347317277459
  0.5827241271939769  0.1409750150439635  0.5373940270812056
  0.1263748609936215  0.5532678145358716  0.4613921909731644
  0.5419915379685634  0.1451396592189411  0.4830783154572558
  0.9386041088807957  0.8735727330868954  0.5420688282830639
  0.7660591142808286  0.0887603960763030  0.4371596504359800
  0.0206932549720520  0.7656807536471959  0.3608346214913141
  0.3252371476683962  0.2722401155716696  0.3885388920759993
  0.9456742267224527  0.8594409083946459  0.4695752579322345
  0.8250409119242264  0.1273219776846304  0.4882874867122879
  0.9449853356496973  0.7369827793906296  0.3947224096136281
  0.3500862674180070  0.2378280326918158  0.4368592462594734
  0.0157283034147824  0.9302005300639564  0.5690417423484249
  0.7546428303300985  0.0169733039433595  0.4144005880329544
  0.0853600873315230  0.8431839081123229  0.3781799004869129
  0.2423025757179929  0.2436928442288036  0.3946010178904302
  0.0399807840130819  0.9300314227745119  0.4512255735839190
  0.8462538434168394  0.0692686694991522  0.5142440084107065
  0.9616188249202793  0.7943263013523705  0.4533426620601659
  0.2864502994665656  0.2025664581075475  0.4852189967614748
  0.0761570096229178  0.9718352815937763  0.5168326245405552
  0.7954597015081504  0.9925509204386032  0.4659675674113188
  0.0598165177045829  0.8678044686118582  0.4401326405465866
  0.2088674600927760  0.1927121499309834  0.4589127011114087
  0.0152535077635605  0.9889581914747438  0.6099927588228766
  0.6684216432147920  0.9599980251843547  0.4191654839373768
  0.1520553959633233  0.8371474441613600  0.3970559546244559
  0.2423576735129913  0.3142523844208753  0.4049802279859307
  0.0814280647846388  0.0657415189128088  0.5859515653284930
  0.6473739685095623  0.8942434642142274  0.4594988410321150
  0.1801555141459730  0.8650339740973223  0.4616582758878920
  0.1958294715050926  0.3101371365675334  0.4583628019544292
  0.1138093024562821  0.0549087050273300  0.5264825077727551
  0.7195756992480824  0.9193453074115396  0.4968911490259416
  0.1175974048598931  0.8723857352008295  0.4928921805370265
  0.1731686155472900  0.2363852059564167  0.4997641138084816
  0.9410663036454210  0.9823245568083010  0.5910231407761088
  0.6270716162826062  0.9967712509541542  0.4474542989763819
  0.1296424752922789  0.7545613222950749  0.3933023344398663
  0.3264820815344152  0.3865964622529958  0.4077081782930279
  0.8927678666180725  0.9114890807380434  0.5490208455651668
  0.6880906098195041  0.0777152683477311  0.4568523047275974
  0.0472137992226251  0.7095410378188163  0.3727079758587166
  0.3784676635679460  0.3605936051850591  0.3996051952609463
  0.8659950812149830  0.9162302929443129  0.4860855475852830
  0.7001391998654185  0.1222009857961623  0.5223397770129239
  0.9824143748675880  0.6442986029558924  0.4121984365349363
  0.4360020143572996  0.3748624497069670  0.4511821861214287
  0.9629101317789193  0.0593713489254526  0.5654385953039025
  0.5784139393286409  0.9467275894498570  0.5029992618241081
  0.1590768368060864  0.7352992541927250  0.4550637676123657
  0.3342130760861508  0.4385295775647222  0.4650101133689617
  0.9257695100496690  0.0696627209416079  0.5048111905276329
  0.5904681200458555  0.9785002035058881  0.5669190001091948
  0.0856870795613531  0.6600079454434251  0.4994522108778128
  0.3885547348467782  0.4417426911018438  0.5199163086199974
  0.8721227854321754  0.9894951890565480  0.4591825616673830
  0.6528442786145519  0.0605720858684577  0.5785383431406359
  0.9989443592159404  0.6232667905560731  0.4737809196052325
  0.4401727806764555  0.4141502456187496  0.5102910518196353
  0.0489655806471347  0.1110743270887014  0.5661331981556330
  0.5748526020431441  0.8681802783085857  0.5045031771179112
  0.1874852739910580  0.8088017228557831  0.4977418014478445
  0.2428378996963758  0.3880125107142263  0.4956220581171706
  0.9423804022089897  0.9477358309240387  0.3918887882644810
  0.7894651274174080  0.1109276347916719  0.5988383855494277
  0.9042789104660542  0.6581511867505441  0.4922100392987616
  0.4143770084396508  0.2855169229229659  0.5433304654025690
  0.8960315159004750  0.8856867804808957  0.4377870313163399
  0.7891021628515631  0.1457211669486966  0.5388065688326265
  0.9195528572844225  0.6626775527587228  0.4225410699758854
  0.4315988641732673  0.2993208177841211  0.4677601650086771
  0.9256582353919214  0.0076169989518107  0.3980445074806127
  0.7076504861738542  0.0644955400490943  0.6266058901008194
  0.9494287932652412  0.6298392777389381  0.5234347448455665
  0.4252163520930807  0.3614195302597381  0.5655089175662482
  0.0040394690346091  0.0805997429502696  0.4098742774401600
  0.6854970128454312  0.9859831901151068  0.6447547121983845
  0.0034973919250945  0.6849337812084713  0.5728055970176840
  0.3619640255147019  0.3514676513863435  0.6056171983973897
  0.0067587279684034  0.1243494918467292  0.4639216932381274
  0.6098181000287823  0.9309860847857081  0.6115153248844649
  0.0841673304538162  0.7040923649151338  0.5616858581007804
  0.3425166308663918  0.4049388655018120  0.5792022552141916
  0.0856332857729640  0.1553724051795342  0.5032144118186892
  0.6132714201820377  0.8761885465915853  0.5724828714496653
  0.1401895213152358  0.7878478045456561  0.5556431930953920
  0.2581192212214205  0.3600613730882500  0.5591939600285869
  0.0306263406151857  0.9827335625496190  0.4038794095760707
  0.8103473718607432  0.0538886687301030  0.5841289897411315
  0.9450959740433049  0.7401429317319881  0.5119667986442309
  0.3185270436167045  0.2299433603782006  0.5492058583204980
  0.0676823086318734  0.0635439750067448  0.4145941144981862
  0.7479015551758579  0.9792493785007252  0.6100316549528202
  0.0055912190534926  0.7585178303719218  0.5611748454083383
  0.2891818139681561  0.2695637081154061  0.5860675011160694
  0.1250327497241699  0.1115890682630862  0.4706007311262610
  0.7007130226903513  0.9099462795610052  0.5649946708996652
  0.0904976041388750  0.8224883425485316  0.5497050024819785
  0.2254544444077595  0.2773052701333611  0.5607404533950984
 
  0.00000000E+00  0.00000000E+00  0.00000000E+00
  0.00000000E+00  0.00000000E+00  0.00000000E+00
  0.00000000E+00  0.00000000E+00  0.00000000E+00
  0.00000000E+00  0.00000000E+00  0.00000000E+00
  0.00000000E+00  0.00000000E+00  0.00000000E+00
  0.00000000E+00  0.00000000E+00  0.00000000E+00
  0.00000000E+00  0.00000000E+00  0.00000000E+00
  0.00000000E+00  0.00000000E+00  0.00000000E+00
  0.00000000E+00  0.00000000E+00  0.00000000E+00
  0.00000000E+00  0.00000000E+00  0.00000000E+00
  0.00000000E+00  0.00000000E+00  0.00000000E+00
  0.00000000E+00  0.00000000E+00  0.00000000E+00
  0.00000000E+00  0.00000000E+00  0.00000000E+00
  0.00000000E+00  0.00000000E+00  0.00000000E+00
  0.00000000E+00  0.00000000E+00  0.00000000E+00
  0.00000000E+00  0.00000000E+00  0.00000000E+00
  0.00000000E+00  0.00000000E+00  0.00000000E+00
  0.00000000E+00  0.00000000E+00  0.00000000E+00
  0.00000000E+00  0.00000000E+00  0.00000000E+00
  0.00000000E+00  0.00000000E+00  0.00000000E+00
  0.00000000E+00  0.00000000E+00  0.00000000E+00
  0.00000000E+00  0.00000000E+00  0.00000000E+00
  0.00000000E+00  0.00000000E+00  0.00000000E+00
  0.00000000E+00  0.00000000E+00  0.00000000E+00
  0.00000000E+00  0.00000000E+00  0.00000000E+00
  0.00000000E+00  0.00000000E+00  0.00000000E+00
  0.00000000E+00  0.00000000E+00  0.00000000E+00
  0.00000000E+00  0.00000000E+00  0.00000000E+00
  0.00000000E+00  0.00000000E+00  0.00000000E+00
  0.00000000E+00  0.00000000E+00  0.00000000E+00
  0.00000000E+00  0.00000000E+00  0.00000000E+00
  0.00000000E+00  0.00000000E+00  0.00000000E+00
  0.00000000E+00  0.00000000E+00  0.00000000E+00
  0.00000000E+00  0.00000000E+00  0.00000000E+00
  0.00000000E+00  0.00000000E+00  0.00000000E+00
  0.00000000E+00  0.00000000E+00  0.00000000E+00
  0.00000000E+00  0.00000000E+00  0.00000000E+00
  0.00000000E+00  0.00000000E+00  0.00000000E+00
  0.00000000E+00  0.00000000E+00  0.00000000E+00
  0.00000000E+00  0.00000000E+00  0.00000000E+00
  0.00000000E+00  0.00000000E+00  0.00000000E+00
  0.00000000E+00  0.00000000E+00  0.00000000E+00
  0.00000000E+00  0.00000000E+00  0.00000000E+00
  0.00000000E+00  0.00000000E+00  0.00000000E+00
  0.00000000E+00  0.00000000E+00  0.00000000E+00
  0.00000000E+00  0.00000000E+00  0.00000000E+00
  0.00000000E+00  0.00000000E+00  0.00000000E+00
  0.00000000E+00  0.00000000E+00  0.00000000E+00
  0.00000000E+00  0.00000000E+00  0.00000000E+00
  0.00000000E+00  0.00000000E+00  0.00000000E+00
  0.00000000E+00  0.00000000E+00  0.00000000E+00
  0.00000000E+00  0.00000000E+00  0.00000000E+00
  0.00000000E+00  0.00000000E+00  0.00000000E+00
  0.00000000E+00  0.00000000E+00  0.00000000E+00
  0.00000000E+00  0.00000000E+00  0.00000000E+00
  0.00000000E+00  0.00000000E+00  0.00000000E+00
  0.00000000E+00  0.00000000E+00  0.00000000E+00
  0.00000000E+00  0.00000000E+00  0.00000000E+00
  0.00000000E+00  0.00000000E+00  0.00000000E+00
  0.00000000E+00  0.00000000E+00  0.00000000E+00
  0.00000000E+00  0.00000000E+00  0.00000000E+00
  0.00000000E+00  0.00000000E+00  0.00000000E+00
  0.00000000E+00  0.00000000E+00  0.00000000E+00
  0.00000000E+00  0.00000000E+00  0.00000000E+00
  0.00000000E+00  0.00000000E+00  0.00000000E+00
  0.00000000E+00  0.00000000E+00  0.00000000E+00
  0.00000000E+00  0.00000000E+00  0.00000000E+00
  0.00000000E+00  0.00000000E+00  0.00000000E+00
  0.00000000E+00  0.00000000E+00  0.00000000E+00
  0.00000000E+00  0.00000000E+00  0.00000000E+00
  0.00000000E+00  0.00000000E+00  0.00000000E+00
  0.00000000E+00  0.00000000E+00  0.00000000E+00
  0.00000000E+00  0.00000000E+00  0.00000000E+00
  0.00000000E+00  0.00000000E+00  0.00000000E+00
  0.00000000E+00  0.00000000E+00  0.00000000E+00
  0.00000000E+00  0.00000000E+00  0.00000000E+00
  0.00000000E+00  0.00000000E+00  0.00000000E+00
  0.00000000E+00  0.00000000E+00  0.00000000E+00
  0.00000000E+00  0.00000000E+00  0.00000000E+00
  0.00000000E+00  0.00000000E+00  0.00000000E+00
  0.00000000E+00  0.00000000E+00  0.00000000E+00
  0.00000000E+00  0.00000000E+00  0.00000000E+00
  0.00000000E+00  0.00000000E+00  0.00000000E+00
  0.00000000E+00  0.00000000E+00  0.00000000E+00
  0.00000000E+00  0.00000000E+00  0.00000000E+00
  0.00000000E+00  0.00000000E+00  0.00000000E+00
  0.00000000E+00  0.00000000E+00  0.00000000E+00
  0.00000000E+00  0.00000000E+00  0.00000000E+00
  0.00000000E+00  0.00000000E+00  0.00000000E+00
  0.00000000E+00  0.00000000E+00  0.00000000E+00
  0.00000000E+00  0.00000000E+00  0.00000000E+00
  0.00000000E+00  0.00000000E+00  0.00000000E+00
  0.00000000E+00  0.00000000E+00  0.00000000E+00
  0.00000000E+00  0.00000000E+00  0.00000000E+00
  0.00000000E+00  0.00000000E+00  0.00000000E+00
  0.00000000E+00  0.00000000E+00  0.00000000E+00
  0.00000000E+00  0.00000000E+00  0.00000000E+00
  0.00000000E+00  0.00000000E+00  0.00000000E+00
  0.00000000E+00  0.00000000E+00  0.00000000E+00
  0.00000000E+00  0.00000000E+00  0.00000000E+00
  0.00000000E+00  0.00000000E+00  0.00000000E+00
  0.00000000E+00  0.00000000E+00  0.00000000E+00
  0.00000000E+00  0.00000000E+00  0.00000000E+00
  0.00000000E+00  0.00000000E+00  0.00000000E+00
  0.00000000E+00  0.00000000E+00  0.00000000E+00
  0.00000000E+00  0.00000000E+00  0.00000000E+00
  0.00000000E+00  0.00000000E+00  0.00000000E+00
  0.00000000E+00  0.00000000E+00  0.00000000E+00
  0.00000000E+00  0.00000000E+00  0.00000000E+00
  0.00000000E+00  0.00000000E+00  0.00000000E+00
  0.00000000E+00  0.00000000E+00  0.00000000E+00
  0.00000000E+00  0.00000000E+00  0.00000000E+00
  0.00000000E+00  0.00000000E+00  0.00000000E+00
  0.00000000E+00  0.00000000E+00  0.00000000E+00
  0.00000000E+00  0.00000000E+00  0.00000000E+00
  0.00000000E+00  0.00000000E+00  0.00000000E+00
  0.00000000E+00  0.00000000E+00  0.00000000E+00
  0.00000000E+00  0.00000000E+00  0.00000000E+00
  0.00000000E+00  0.00000000E+00  0.00000000E+00
  0.00000000E+00  0.00000000E+00  0.00000000E+00
  0.00000000E+00  0.00000000E+00  0.00000000E+00
  0.00000000E+00  0.00000000E+00  0.00000000E+00
  0.00000000E+00  0.00000000E+00  0.00000000E+00
  0.00000000E+00  0.00000000E+00  0.00000000E+00
  0.00000000E+00  0.00000000E+00  0.00000000E+00
  0.00000000E+00  0.00000000E+00  0.00000000E+00
  0.00000000E+00  0.00000000E+00  0.00000000E+00
  0.00000000E+00  0.00000000E+00  0.00000000E+00
  0.00000000E+00  0.00000000E+00  0.00000000E+00
  0.00000000E+00  0.00000000E+00  0.00000000E+00
  0.00000000E+00  0.00000000E+00  0.00000000E+00
  0.00000000E+00  0.00000000E+00  0.00000000E+00
  0.00000000E+00  0.00000000E+00  0.00000000E+00
  0.00000000E+00  0.00000000E+00  0.00000000E+00
  0.00000000E+00  0.00000000E+00  0.00000000E+00
  0.00000000E+00  0.00000000E+00  0.00000000E+00
  0.00000000E+00  0.00000000E+00  0.00000000E+00
  0.00000000E+00  0.00000000E+00  0.00000000E+00
  0.00000000E+00  0.00000000E+00  0.00000000E+00
  0.00000000E+00  0.00000000E+00  0.00000000E+00
  0.00000000E+00  0.00000000E+00  0.00000000E+00
  0.00000000E+00  0.00000000E+00  0.00000000E+00
  0.00000000E+00  0.00000000E+00  0.00000000E+00
  0.00000000E+00  0.00000000E+00  0.00000000E+00
  0.00000000E+00  0.00000000E+00  0.00000000E+00
  0.00000000E+00  0.00000000E+00  0.00000000E+00
  0.00000000E+00  0.00000000E+00  0.00000000E+00
  0.00000000E+00  0.00000000E+00  0.00000000E+00
  0.00000000E+00  0.00000000E+00  0.00000000E+00
  0.00000000E+00  0.00000000E+00  0.00000000E+00
  0.00000000E+00  0.00000000E+00  0.00000000E+00
  0.00000000E+00  0.00000000E+00  0.00000000E+00
  0.00000000E+00  0.00000000E+00  0.00000000E+00
  0.00000000E+00  0.00000000E+00  0.00000000E+00
  0.00000000E+00  0.00000000E+00  0.00000000E+00
  0.00000000E+00  0.00000000E+00  0.00000000E+00
  0.00000000E+00  0.00000000E+00  0.00000000E+00
  0.00000000E+00  0.00000000E+00  0.00000000E+00
  0.00000000E+00  0.00000000E+00  0.00000000E+00
  0.00000000E+00  0.00000000E+00  0.00000000E+00
  0.00000000E+00  0.00000000E+00  0.00000000E+00
  0.00000000E+00  0.00000000E+00  0.00000000E+00
  0.00000000E+00  0.00000000E+00  0.00000000E+00
  0.00000000E+00  0.00000000E+00  0.00000000E+00
  0.00000000E+00  0.00000000E+00  0.00000000E+00
  0.00000000E+00  0.00000000E+00  0.00000000E+00
  0.00000000E+00  0.00000000E+00  0.00000000E+00
  0.00000000E+00  0.00000000E+00  0.00000000E+00
