Generated by VASPKIT code               
   1.00000000000000     
    19.6572628673914451    0.2448224676793499    0.0000000000000000
    -9.5903400103329304   16.8585957652245355    0.0000000000000000
     0.0000000000000012    0.0000000000000021   20.2262989801309203
  C             
   144
Direct
  0.5123071261385590  0.8648705040233864  0.5213861069776158
  0.4872784589224821  0.1349046458627896  0.5214453893705766
  0.4833788881674153  0.8907993457815024  0.4642908417007376
  0.5161666927299038  0.1089894572591916  0.4643164331113354
  0.4683339915181222  0.8301118545218173  0.4036734837743552
  0.5312064735718565  0.1696981866792484  0.4037437609972940
  0.5115467821280291  0.7936705783897793  0.5041098672354423
  0.4881018158213593  0.2061543688980265  0.5042136362035947
  0.4862308884700965  0.7681243893817253  0.4384234746118523
  0.5134470791480581  0.2317418431675549  0.4385366069157612
  0.4792317451387476  0.7397319008071293  0.5612171557763403
  0.5204328347637599  0.2600371095342169  0.5613539553779816
  0.4779095761557954  0.8565635722377536  0.5843608378019880
  0.5216847993849072  0.1431252363741962  0.5843792378676014
  0.4582357602432126  0.7781951326539556  0.6102705334647922
  0.5414298891602343  0.2214833455622340  0.6103394967025153
  0.4109124891591733  0.8656133668662349  0.5932901459594007
  0.5886343279928639  0.1339608783827444  0.5932555332387182
  0.4049688379470240  0.8793014673039679  0.4776606338045610
  0.5945512091295697  0.1204008079490748  0.4776295144010376
  0.3747835655858296  0.8802915209731523  0.5369975997342920
  0.6247206591548320  0.1192691007682285  0.5369340186190286
  0.3809658081811236  0.7916554815052592  0.3953703198710983
  0.6185635864068786  0.2080694818931619  0.3953809285812966
  0.3511080174833410  0.8449766035806405  0.4204067418934798
  0.6483765797899039  0.1547084095643783  0.4203570214060619
  0.3352769570222662  0.7138625536183341  0.3841751726500249
  0.6643348643011677  0.2858577103309230  0.3841781032140261
  0.4383854874716917  0.6852638996376328  0.4277626388921192
  0.5613466062287955  0.3146014572486138  0.4278774938672925
  0.3664849068570746  0.6603957237470652  0.3952608261256572
  0.6332226806429802  0.3393944032974758  0.3953308877900525
  0.4291327129952052  0.6602356461460701  0.5486470446273444
  0.5705592960377217  0.3395506683296077  0.5488048471046199
  0.4247798517001300  0.6215679378874484  0.4814546295237108
  0.5750713075115357  0.3782991144652286  0.4816136431795854
  0.3608111173732738  0.6187548086477435  0.5846842524528455
  0.6389903900521716  0.3808868019787539  0.5847850070853653
  0.3801041228044184  0.7407953043434574  0.6362287732562848
  0.6195664438291359  0.2587791453703616  0.6362509941119185
  0.3501759459785490  0.7944882954563397  0.6219433756718402
  0.6494273126037697  0.2050295707119929  0.6219156941657928
  0.3317404539655868  0.6602352117807371  0.6234190140275970
  0.6679983114590087  0.3393346515332283  0.6234726720009292
  0.2919395273956837  0.8234416128064481  0.5315877290363034
  0.7075732799624816  0.1760484990607978  0.5315060917081595
  0.2744902994933085  0.7962485166457256  0.4634732549132323
  0.7250284906964879  0.2033058934662222  0.4633954942030556
  0.2793777022389250  0.7691606742456827  0.5844613505734557
  0.7202057282783443  0.2302929783572125  0.5844208839002576
  0.2552628653810416  0.6750902834160897  0.4093445075078961
  0.7443598411063164  0.3245157397901366  0.4093288497964380
  0.2272584817963761  0.7150612086613464  0.4527012801212820
  0.7723242760637348  0.2844798716626045  0.4526426906429037
  0.3046547047093924  0.5899571803958708  0.4245835599994479
  0.6951314718197068  0.4097628503824495  0.4246676702920666
  0.3355616781448560  0.5663211135240829  0.4765915879388345
  0.6643027460074791  0.4333925949458433  0.4767282397241246
  0.3010760635613678  0.5641997659380706  0.5391603832665979
  0.6987495184151484  0.4354136079882736  0.5392854301619181
  0.2354452677106451  0.5987380455333735  0.4305163195198674
  0.7642862700924198  0.4008829360461874  0.4305392849628831
  0.2554232950359321  0.6347388629150075  0.5951350594456670
  0.7442974946990617  0.3647391881157134  0.5951632492330319
  0.2325745709892644  0.6877799387316514  0.5723209586319697
  0.7670843248905683  0.3116556782042110  0.5723039294567585
  0.1848894630805376  0.6578562393550982  0.5099915280048961
  0.8147467491709719  0.3415928699041189  0.5099526280248980
  0.2352812858394842  0.5721597666705662  0.5480317241331747
  0.7644842199215702  0.4273492888170551  0.5480997672151204
  0.1874447673762702  0.5794160531573525  0.4927044655315385
  0.8122793419131327  0.4200909141774858  0.4927388229242879
  0.4825397058415959  0.0292448182974994  0.4346638417402602
  0.9800483161128000  0.4582570060275941  0.7000601305826066
  0.5443051978390159  0.5205616497551659  0.6919086550973006
  0.4019667090712957  0.9956650398087561  0.4011884219141137
  0.0263666724024034  0.4262793375800698  0.6715381689885191
  0.5732785706722439  0.5940653326923240  0.6579233149720309
  0.5169564517759895  0.9705284844030331  0.4346180082271616
  0.0196484582798604  0.5408246927979121  0.7000877970154704
  0.4601317340121938  0.4835624474075431  0.6925350429150541
  0.3853158121909814  0.9181500434364125  0.3709717414574314
  0.0907548497224440  0.4926940209389912  0.6371034527273736
  0.5074851709102077  0.5964492250416455  0.6267282485581021
  0.4779572992281729  0.9502847826275556  0.3671234322946191
  0.0879092675632052  0.5633892603570558  0.6543802556266840
  0.4385117601726520  0.5289865206395987  0.6474633665811993
  0.5974717152595517  0.0040982761678094  0.4010198950502897
  0.9733357870985557  0.5728795696005804  0.6716720307646824
  0.4304365017901475  0.4094127103828740  0.6594596222287166
  0.5901213300406951  0.9544863639113217  0.3485770874411216
  0.0172495142717537  0.6227016340071430  0.6183183494610063
  0.3751722935513229  0.3974977318867587  0.6079702940163330
  0.5043685531192779  0.8910283697749080  0.3409362120663104
  0.0843849535929735  0.6135347904482131  0.6056493578683231
  0.3870085844719853  0.4756042983131579  0.5950415958492314
  0.6140841556333712  0.0816190409931892  0.3708760926525585
  0.9089523635647154  0.5065188532114746  0.6371847042345067
  0.4955800797208809  0.4064640039503189  0.6275559248611557
  0.5214417761376282  0.0495060899543702  0.3671270039321755
  0.9117754881361080  0.4357835922952376  0.6543737971549604
  0.5649843246689414  0.4742639842660950  0.6469559358533346
  0.4950213532486529  0.1088075278092688  0.3410579708170403
  0.9152909410035335  0.3857086155251324  0.6055534591636373
  0.6154083423167194  0.5266423418168316  0.5935535169123440
  0.6234216515570381  0.0758833738078124  0.2955007354133130
  0.9092756418381640  0.5254640118740568  0.5684460107040223
  0.4748770916532266  0.3859110399305195  0.5585532064864651
  0.5757120816739345  0.0884649776842537  0.2497249264885042
  0.8998452290595935  0.4710530917726388  0.5109465958085053
  0.5313392537003168  0.4265042970235484  0.4997982470525457
  0.5147183000869404  0.1084228330151120  0.2666804050540605
  0.9029269314230248  0.3913616664337312  0.5316591524962959
  0.5953914500270230  0.5069462945480510  0.5257559780153898
  0.6128692316212394  0.9956208977249119  0.2870130994582780
  0.9745362877534518  0.6009072333846177  0.5564848176594737
  0.3990360184056030  0.3742187834136885  0.5477133681425173
  0.3864215316687805  0.0042504678867985  0.2872139081783445
  0.0251310201951469  0.3984357491626866  0.5563132426168167
  0.6023674393161187  0.6271243145260641  0.5455646260287565
  0.4092707152556159  0.0453290316376496  0.3487892160665851
  0.9824341017659890  0.3765472359014765  0.6181472928023055
  0.6274754999036958  0.6049705280186970  0.6057204502717042
  0.4447955213064034  0.0450634707618960  0.2393136663685524
  0.9807258901836562  0.4049233551343789  0.5032812831786941
  0.5902214382432902  0.5705435993601853  0.4944620136596996
  0.4603251545911533  0.9858490095367998  0.2076189412972269
  0.0219111175507507  0.4798735919118045  0.4736959997610910
  0.5180865269575037  0.5414833022820531  0.4605152630937042
  0.5388739365682795  0.0140975515808890  0.2075456851217510
  0.9777826407478329  0.5195694262189292  0.4737561236069467
  0.4815473360998510  0.4582611410816853  0.4610309193763342
  0.5544168267844540  0.9548513687451603  0.2391716637748544
  0.0189386050252267  0.5944752335746912  0.5034097231779242
  0.4101482598805504  0.4298576787131481  0.4960344030365746
  0.3758683693272999  0.9239804764036776  0.2956193778674390
  0.0904173375180335  0.4738623588483435  0.5683360953935761
  0.5267611808107233  0.6156521283890868  0.5573545974880858
  0.4235265551197500  0.9114476067743880  0.2497530067560305
  0.0998691008138337  0.5283664715033893  0.5108950532347194
  0.4690781695560986  0.5739625868710192  0.4995958204421598
  0.4845333200504882  0.8914736097664075  0.2665829534558668
  0.0967476403360976  0.6080052620194323  0.5317378080452002
  0.4056611852839040  0.4940108192833890  0.5269066510515756
 
  0.00000000E+00  0.00000000E+00  0.00000000E+00
  0.00000000E+00  0.00000000E+00  0.00000000E+00
  0.00000000E+00  0.00000000E+00  0.00000000E+00
  0.00000000E+00  0.00000000E+00  0.00000000E+00
  0.00000000E+00  0.00000000E+00  0.00000000E+00
  0.00000000E+00  0.00000000E+00  0.00000000E+00
  0.00000000E+00  0.00000000E+00  0.00000000E+00
  0.00000000E+00  0.00000000E+00  0.00000000E+00
  0.00000000E+00  0.00000000E+00  0.00000000E+00
  0.00000000E+00  0.00000000E+00  0.00000000E+00
  0.00000000E+00  0.00000000E+00  0.00000000E+00
  0.00000000E+00  0.00000000E+00  0.00000000E+00
  0.00000000E+00  0.00000000E+00  0.00000000E+00
  0.00000000E+00  0.00000000E+00  0.00000000E+00
  0.00000000E+00  0.00000000E+00  0.00000000E+00
  0.00000000E+00  0.00000000E+00  0.00000000E+00
  0.00000000E+00  0.00000000E+00  0.00000000E+00
  0.00000000E+00  0.00000000E+00  0.00000000E+00
  0.00000000E+00  0.00000000E+00  0.00000000E+00
  0.00000000E+00  0.00000000E+00  0.00000000E+00
  0.00000000E+00  0.00000000E+00  0.00000000E+00
  0.00000000E+00  0.00000000E+00  0.00000000E+00
  0.00000000E+00  0.00000000E+00  0.00000000E+00
  0.00000000E+00  0.00000000E+00  0.00000000E+00
  0.00000000E+00  0.00000000E+00  0.00000000E+00
  0.00000000E+00  0.00000000E+00  0.00000000E+00
  0.00000000E+00  0.00000000E+00  0.00000000E+00
  0.00000000E+00  0.00000000E+00  0.00000000E+00
  0.00000000E+00  0.00000000E+00  0.00000000E+00
  0.00000000E+00  0.00000000E+00  0.00000000E+00
  0.00000000E+00  0.00000000E+00  0.00000000E+00
  0.00000000E+00  0.00000000E+00  0.00000000E+00
  0.00000000E+00  0.00000000E+00  0.00000000E+00
  0.00000000E+00  0.00000000E+00  0.00000000E+00
  0.00000000E+00  0.00000000E+00  0.00000000E+00
  0.00000000E+00  0.00000000E+00  0.00000000E+00
  0.00000000E+00  0.00000000E+00  0.00000000E+00
  0.00000000E+00  0.00000000E+00  0.00000000E+00
  0.00000000E+00  0.00000000E+00  0.00000000E+00
  0.00000000E+00  0.00000000E+00  0.00000000E+00
  0.00000000E+00  0.00000000E+00  0.00000000E+00
  0.00000000E+00  0.00000000E+00  0.00000000E+00
  0.00000000E+00  0.00000000E+00  0.00000000E+00
  0.00000000E+00  0.00000000E+00  0.00000000E+00
  0.00000000E+00  0.00000000E+00  0.00000000E+00
  0.00000000E+00  0.00000000E+00  0.00000000E+00
  0.00000000E+00  0.00000000E+00  0.00000000E+00
  0.00000000E+00  0.00000000E+00  0.00000000E+00
  0.00000000E+00  0.00000000E+00  0.00000000E+00
  0.00000000E+00  0.00000000E+00  0.00000000E+00
  0.00000000E+00  0.00000000E+00  0.00000000E+00
  0.00000000E+00  0.00000000E+00  0.00000000E+00
  0.00000000E+00  0.00000000E+00  0.00000000E+00
  0.00000000E+00  0.00000000E+00  0.00000000E+00
  0.00000000E+00  0.00000000E+00  0.00000000E+00
  0.00000000E+00  0.00000000E+00  0.00000000E+00
  0.00000000E+00  0.00000000E+00  0.00000000E+00
  0.00000000E+00  0.00000000E+00  0.00000000E+00
  0.00000000E+00  0.00000000E+00  0.00000000E+00
  0.00000000E+00  0.00000000E+00  0.00000000E+00
  0.00000000E+00  0.00000000E+00  0.00000000E+00
  0.00000000E+00  0.00000000E+00  0.00000000E+00
  0.00000000E+00  0.00000000E+00  0.00000000E+00
  0.00000000E+00  0.00000000E+00  0.00000000E+00
  0.00000000E+00  0.00000000E+00  0.00000000E+00
  0.00000000E+00  0.00000000E+00  0.00000000E+00
  0.00000000E+00  0.00000000E+00  0.00000000E+00
  0.00000000E+00  0.00000000E+00  0.00000000E+00
  0.00000000E+00  0.00000000E+00  0.00000000E+00
  0.00000000E+00  0.00000000E+00  0.00000000E+00
  0.00000000E+00  0.00000000E+00  0.00000000E+00
  0.00000000E+00  0.00000000E+00  0.00000000E+00
  0.00000000E+00  0.00000000E+00  0.00000000E+00
  0.00000000E+00  0.00000000E+00  0.00000000E+00
  0.00000000E+00  0.00000000E+00  0.00000000E+00
  0.00000000E+00  0.00000000E+00  0.00000000E+00
  0.00000000E+00  0.00000000E+00  0.00000000E+00
  0.00000000E+00  0.00000000E+00  0.00000000E+00
  0.00000000E+00  0.00000000E+00  0.00000000E+00
  0.00000000E+00  0.00000000E+00  0.00000000E+00
  0.00000000E+00  0.00000000E+00  0.00000000E+00
  0.00000000E+00  0.00000000E+00  0.00000000E+00
  0.00000000E+00  0.00000000E+00  0.00000000E+00
  0.00000000E+00  0.00000000E+00  0.00000000E+00
  0.00000000E+00  0.00000000E+00  0.00000000E+00
  0.00000000E+00  0.00000000E+00  0.00000000E+00
  0.00000000E+00  0.00000000E+00  0.00000000E+00
  0.00000000E+00  0.00000000E+00  0.00000000E+00
  0.00000000E+00  0.00000000E+00  0.00000000E+00
  0.00000000E+00  0.00000000E+00  0.00000000E+00
  0.00000000E+00  0.00000000E+00  0.00000000E+00
  0.00000000E+00  0.00000000E+00  0.00000000E+00
  0.00000000E+00  0.00000000E+00  0.00000000E+00
  0.00000000E+00  0.00000000E+00  0.00000000E+00
  0.00000000E+00  0.00000000E+00  0.00000000E+00
  0.00000000E+00  0.00000000E+00  0.00000000E+00
  0.00000000E+00  0.00000000E+00  0.00000000E+00
  0.00000000E+00  0.00000000E+00  0.00000000E+00
  0.00000000E+00  0.00000000E+00  0.00000000E+00
  0.00000000E+00  0.00000000E+00  0.00000000E+00
  0.00000000E+00  0.00000000E+00  0.00000000E+00
  0.00000000E+00  0.00000000E+00  0.00000000E+00
  0.00000000E+00  0.00000000E+00  0.00000000E+00
  0.00000000E+00  0.00000000E+00  0.00000000E+00
  0.00000000E+00  0.00000000E+00  0.00000000E+00
  0.00000000E+00  0.00000000E+00  0.00000000E+00
  0.00000000E+00  0.00000000E+00  0.00000000E+00
  0.00000000E+00  0.00000000E+00  0.00000000E+00
  0.00000000E+00  0.00000000E+00  0.00000000E+00
  0.00000000E+00  0.00000000E+00  0.00000000E+00
  0.00000000E+00  0.00000000E+00  0.00000000E+00
  0.00000000E+00  0.00000000E+00  0.00000000E+00
  0.00000000E+00  0.00000000E+00  0.00000000E+00
  0.00000000E+00  0.00000000E+00  0.00000000E+00
  0.00000000E+00  0.00000000E+00  0.00000000E+00
  0.00000000E+00  0.00000000E+00  0.00000000E+00
  0.00000000E+00  0.00000000E+00  0.00000000E+00
  0.00000000E+00  0.00000000E+00  0.00000000E+00
  0.00000000E+00  0.00000000E+00  0.00000000E+00
  0.00000000E+00  0.00000000E+00  0.00000000E+00
  0.00000000E+00  0.00000000E+00  0.00000000E+00
  0.00000000E+00  0.00000000E+00  0.00000000E+00
  0.00000000E+00  0.00000000E+00  0.00000000E+00
  0.00000000E+00  0.00000000E+00  0.00000000E+00
  0.00000000E+00  0.00000000E+00  0.00000000E+00
  0.00000000E+00  0.00000000E+00  0.00000000E+00
  0.00000000E+00  0.00000000E+00  0.00000000E+00
  0.00000000E+00  0.00000000E+00  0.00000000E+00
  0.00000000E+00  0.00000000E+00  0.00000000E+00
  0.00000000E+00  0.00000000E+00  0.00000000E+00
  0.00000000E+00  0.00000000E+00  0.00000000E+00
  0.00000000E+00  0.00000000E+00  0.00000000E+00
  0.00000000E+00  0.00000000E+00  0.00000000E+00
  0.00000000E+00  0.00000000E+00  0.00000000E+00
  0.00000000E+00  0.00000000E+00  0.00000000E+00
  0.00000000E+00  0.00000000E+00  0.00000000E+00
  0.00000000E+00  0.00000000E+00  0.00000000E+00
  0.00000000E+00  0.00000000E+00  0.00000000E+00
  0.00000000E+00  0.00000000E+00  0.00000000E+00
  0.00000000E+00  0.00000000E+00  0.00000000E+00
  0.00000000E+00  0.00000000E+00  0.00000000E+00
  0.00000000E+00  0.00000000E+00  0.00000000E+00
  0.00000000E+00  0.00000000E+00  0.00000000E+00
  0.00000000E+00  0.00000000E+00  0.00000000E+00
