Generated by VASPKIT code               
   1.00000000000000     
    12.6863127274015088    0.1174998940280642    0.0000000000000000
     0.1199892091789831   12.8136891487409308    0.0000000000000000
     0.0000000000000013    0.0000000000000013   20.2228447311359005
  C             
   120
Direct
  0.5169253263804876  0.5934616822791199  0.6253505061373303
  0.1293485089194348  0.0102737723067321  0.6339481140709893
  0.4154205243720384  0.5508777331539818  0.6142353613748597
  0.0583069621888939  0.0964677233883435  0.6339501325429779
  0.3626624540300654  0.6058116527538431  0.5609185657505833
  0.0779939366634110  0.1602224365370049  0.5756095464159827
  0.5333805382235255  0.6842230287071445  0.5730236882575923
  0.2057846612401306  0.0189059936396632  0.5726259750697125
  0.4338526872480628  0.6697001280536412  0.5315684395200364
  0.1530630604020473  0.1117722064111035  0.5363280277160101
  0.6223217855354974  0.6389220852149080  0.5310994184311681
  0.1727278087882240  0.9183054280935252  0.5349895147426977
  0.5970243762552627  0.5163772566627642  0.6128341048514869
  0.0781411256718201  0.9134495211802545  0.6327436613932491
  0.6620324071003978  0.5480415637458762  0.5589033742312708
  0.1111650822795269  0.8539304609882450  0.5737711062549806
  0.5787107119546846  0.4065852048148528  0.6028754487829957
  0.9654746238624554  0.9049761614831411  0.6388708661543632
  0.3957946816134239  0.4416259225355574  0.6039725365527815
  0.9455966870461694  0.0879081524186418  0.6404156643378442
  0.4769546861220277  0.3647354782082957  0.6025834298788482
  0.8945466872115446  0.9911724470816949  0.6469007836190386
  0.2937798634673570  0.5377328463141282  0.5198068101548969
  0.9796120310133389  0.2148935370330562  0.5504969854878183
  0.3330574745555310  0.4316649483488249  0.5443312204485622
  0.8979183219611926  0.1489273815705090  0.5865406696691338
  0.3180675556098080  0.5468904272345867  0.4474878807746165
  0.9670671821341159  0.2116932134952094  0.4721526366333961
  0.4345390399398994  0.6870486103644140  0.4625392263283743
  0.1446910791550025  0.1128802981028656  0.4654656377139403
  0.3666955323282934  0.6341565916150387  0.4209261066829626
  0.0590796557176319  0.1655042060183547  0.4347084062512963
  0.6235080712708410  0.6540043379754934  0.4617991285904850
  0.1651067263566404  0.9209857654906699  0.4639048858096118
  0.5362481900155132  0.7144459765078750  0.4276403571972622
  0.1672931571486203  0.0190935853198013  0.4278567199393422
  0.6654337391361480  0.5778128146821544  0.4197102375216275
  0.0924596631658261  0.8572424138745163  0.4320090148812596
  0.7023019872950869  0.4577861261078127  0.5176124295738020
  0.0206803498810118  0.7885592420207459  0.5472874833296544
  0.6327141461114252  0.3742082538643672  0.5427491052637450
  0.9312976662391605  0.8432618689108935  0.5828412559356124
  0.6805272539819285  0.4770553856440998  0.4455598242742198
  0.0165508237926204  0.7920128712029140  0.4684671861037373
  0.4643202141807450  0.2969236195502987  0.5395647957275926
  0.8023149296436927  0.9835917596440353  0.5933466604135731
  0.3738638644404162  0.3536413787607628  0.5035596727693203
  0.8266386699904160  0.0854236010021410  0.5546949324531383
  0.5652121364828133  0.3218658927285318  0.5017282954979265
  0.8474479458495736  0.8924571727845958  0.5522214608308573
  0.3342385795357217  0.4628291845825387  0.4051176715329206
  0.8816917742411761  0.1460823303228551  0.4455678301155501
  0.3768662138477268  0.3681124651641952  0.4331041755158083
  0.8195210176321694  0.0849855571588236  0.4842789430911409
  0.4198912202620164  0.6063548348129189  0.3586775331845473
  0.0241006498822074  0.1027247571543697  0.3802501200851012
  0.5226891052035469  0.6477448068564939  0.3616036322808185
  0.0936502098942569  0.0140069719941280  0.3738457778572624
  0.6045041521685022  0.5717038152647831  0.3576060579406857
  0.0437609863646387  0.9151985718514126  0.3786906088400173
  0.3991749657383892  0.4984326370364229  0.3488176718736113
  0.9128579930249998  0.0903781555310985  0.3860577493085628
  0.6363143678762171  0.4060070760974597  0.4030511075830461
  0.9139922519756070  0.8422116023661133  0.4429253969317557
  0.5651633889991174  0.3332045421363787  0.4314331651330150
  0.8389470722042915  0.8920306932546183  0.4816900916335882
  0.4692911816062875  0.3429039734154529  0.3947113383456511
  0.7876247971807757  0.9874576788043612  0.4461326283140536
  0.5864264438378015  0.4633740904152219  0.3473618083921721
  0.9321103827653019  0.9071699497751453  0.3848434791580502
  0.4829378595988203  0.4249018639297049  0.3433700431240183
  0.8603447318900805  0.9936984711456063  0.3838672295908125
  0.4993354594694281  0.0620141165307118  0.6278206055651552
  0.9410298806764601  0.5058535661649373  0.5961296695676808
  0.4141174406295818  0.1109878804429130  0.5972832882638386
  0.8961088698477511  0.4156259370311446  0.5726904988859403
  0.4885106541978956  0.9521253974563422  0.6350753116784276
  0.0529435025046752  0.4988981938253758  0.5964798057815841
  0.3345562869732390  0.0253810762303388  0.5693105723993312
  0.9826488680156871  0.3391792848256756  0.5470145036466576
  0.3942946151290272  0.9265877077833977  0.5940260874186762
  0.0807572306629396  0.4016082903872586  0.5590630104623031
  0.5795817042904332  0.8933284783028910  0.6228164434279506
  0.0982146785097910  0.5879856371211076  0.5716844319953935
  0.5415769722416286  0.8078231672281859  0.5741135605799386
  0.1723349453637582  0.5522319772794333  0.5186126666654829
  0.4323007744315746  0.8536896722109049  0.5507609415002293
  0.1380831552142112  0.4381740613351610  0.5066506209897668
  0.6665215481665001  0.9712689776474832  0.5908092863303622
  0.0135154021890287  0.6640203638238447  0.5446528594723503
  0.6036350928980951  0.0749559566002063  0.5943436383211633
  0.9144037371797609  0.6024477121460521  0.5569554906034995
  0.5814221069442951  0.1307544158457503  0.5379684700310747
  0.8567746835223957  0.5644925183765537  0.5052987563179201
  0.6500152968474424  0.9320705074595423  0.5199403872432740
  0.0328420841567976  0.6736827147975148  0.4629240801486105
  0.6640939409676392  0.9894426434148400  0.4549919320895057
  0.9632278980002340  0.6226483361752315  0.4130495375683623
  0.6052203011092843  0.0958406599856332  0.4703412586498459
  0.8726873341887469  0.5760032980747241  0.4344834097852868
  0.5972750025117648  0.8432823970432821  0.5133775771854232
  0.1324565852264357  0.6073643104606177  0.4563728911891616
  0.4247223634215516  0.1249205295344566  0.4821669476566939
  0.8647135314464407  0.3967344966651396  0.4575872456202461
  0.4640125017600312  0.1770995671430100  0.5426145238984645
  0.8230966771745116  0.4498969787606413  0.5182353479048487
  0.5095130775211558  0.0980857855622617  0.4363617710383778
  0.8766907397770467  0.4673353047035818  0.4072722787590237
  0.4912055809231148  0.9943977041823473  0.4115203214120982
  0.9726218105923081  0.4502960789092896  0.3716164323751556
  0.5789152187029529  0.9294049660967829  0.4132058622946033
  0.0232698016365234  0.5472212059908514  0.3717114530034067
  0.5415485895274799  0.8313487282052563  0.4486284122291622
  0.1186937146849374  0.5327402491837105  0.4081480534012343
  0.3638090674901946  0.0395567470378850  0.4945639008056162
  0.9598585224176048  0.3292504821313784  0.4658375794437433
  0.3999257199612245  0.9566035735043670  0.4508171970348656
  0.0322704515285182  0.3764978109725448  0.4151206252074644
  0.4308546115988321  0.8626519320592507  0.4783576985518891
  0.1220360280656294  0.4251644084530213  0.4363494680331286
 
  0.00000000E+00  0.00000000E+00  0.00000000E+00
  0.00000000E+00  0.00000000E+00  0.00000000E+00
  0.00000000E+00  0.00000000E+00  0.00000000E+00
  0.00000000E+00  0.00000000E+00  0.00000000E+00
  0.00000000E+00  0.00000000E+00  0.00000000E+00
  0.00000000E+00  0.00000000E+00  0.00000000E+00
  0.00000000E+00  0.00000000E+00  0.00000000E+00
  0.00000000E+00  0.00000000E+00  0.00000000E+00
  0.00000000E+00  0.00000000E+00  0.00000000E+00
  0.00000000E+00  0.00000000E+00  0.00000000E+00
  0.00000000E+00  0.00000000E+00  0.00000000E+00
  0.00000000E+00  0.00000000E+00  0.00000000E+00
  0.00000000E+00  0.00000000E+00  0.00000000E+00
  0.00000000E+00  0.00000000E+00  0.00000000E+00
  0.00000000E+00  0.00000000E+00  0.00000000E+00
  0.00000000E+00  0.00000000E+00  0.00000000E+00
  0.00000000E+00  0.00000000E+00  0.00000000E+00
  0.00000000E+00  0.00000000E+00  0.00000000E+00
  0.00000000E+00  0.00000000E+00  0.00000000E+00
  0.00000000E+00  0.00000000E+00  0.00000000E+00
  0.00000000E+00  0.00000000E+00  0.00000000E+00
  0.00000000E+00  0.00000000E+00  0.00000000E+00
  0.00000000E+00  0.00000000E+00  0.00000000E+00
  0.00000000E+00  0.00000000E+00  0.00000000E+00
  0.00000000E+00  0.00000000E+00  0.00000000E+00
  0.00000000E+00  0.00000000E+00  0.00000000E+00
  0.00000000E+00  0.00000000E+00  0.00000000E+00
  0.00000000E+00  0.00000000E+00  0.00000000E+00
  0.00000000E+00  0.00000000E+00  0.00000000E+00
  0.00000000E+00  0.00000000E+00  0.00000000E+00
  0.00000000E+00  0.00000000E+00  0.00000000E+00
  0.00000000E+00  0.00000000E+00  0.00000000E+00
  0.00000000E+00  0.00000000E+00  0.00000000E+00
  0.00000000E+00  0.00000000E+00  0.00000000E+00
  0.00000000E+00  0.00000000E+00  0.00000000E+00
  0.00000000E+00  0.00000000E+00  0.00000000E+00
  0.00000000E+00  0.00000000E+00  0.00000000E+00
  0.00000000E+00  0.00000000E+00  0.00000000E+00
  0.00000000E+00  0.00000000E+00  0.00000000E+00
  0.00000000E+00  0.00000000E+00  0.00000000E+00
  0.00000000E+00  0.00000000E+00  0.00000000E+00
  0.00000000E+00  0.00000000E+00  0.00000000E+00
  0.00000000E+00  0.00000000E+00  0.00000000E+00
  0.00000000E+00  0.00000000E+00  0.00000000E+00
  0.00000000E+00  0.00000000E+00  0.00000000E+00
  0.00000000E+00  0.00000000E+00  0.00000000E+00
  0.00000000E+00  0.00000000E+00  0.00000000E+00
  0.00000000E+00  0.00000000E+00  0.00000000E+00
  0.00000000E+00  0.00000000E+00  0.00000000E+00
  0.00000000E+00  0.00000000E+00  0.00000000E+00
  0.00000000E+00  0.00000000E+00  0.00000000E+00
  0.00000000E+00  0.00000000E+00  0.00000000E+00
  0.00000000E+00  0.00000000E+00  0.00000000E+00
  0.00000000E+00  0.00000000E+00  0.00000000E+00
  0.00000000E+00  0.00000000E+00  0.00000000E+00
  0.00000000E+00  0.00000000E+00  0.00000000E+00
  0.00000000E+00  0.00000000E+00  0.00000000E+00
  0.00000000E+00  0.00000000E+00  0.00000000E+00
  0.00000000E+00  0.00000000E+00  0.00000000E+00
  0.00000000E+00  0.00000000E+00  0.00000000E+00
  0.00000000E+00  0.00000000E+00  0.00000000E+00
  0.00000000E+00  0.00000000E+00  0.00000000E+00
  0.00000000E+00  0.00000000E+00  0.00000000E+00
  0.00000000E+00  0.00000000E+00  0.00000000E+00
  0.00000000E+00  0.00000000E+00  0.00000000E+00
  0.00000000E+00  0.00000000E+00  0.00000000E+00
  0.00000000E+00  0.00000000E+00  0.00000000E+00
  0.00000000E+00  0.00000000E+00  0.00000000E+00
  0.00000000E+00  0.00000000E+00  0.00000000E+00
  0.00000000E+00  0.00000000E+00  0.00000000E+00
  0.00000000E+00  0.00000000E+00  0.00000000E+00
  0.00000000E+00  0.00000000E+00  0.00000000E+00
  0.00000000E+00  0.00000000E+00  0.00000000E+00
  0.00000000E+00  0.00000000E+00  0.00000000E+00
  0.00000000E+00  0.00000000E+00  0.00000000E+00
  0.00000000E+00  0.00000000E+00  0.00000000E+00
  0.00000000E+00  0.00000000E+00  0.00000000E+00
  0.00000000E+00  0.00000000E+00  0.00000000E+00
  0.00000000E+00  0.00000000E+00  0.00000000E+00
  0.00000000E+00  0.00000000E+00  0.00000000E+00
  0.00000000E+00  0.00000000E+00  0.00000000E+00
  0.00000000E+00  0.00000000E+00  0.00000000E+00
  0.00000000E+00  0.00000000E+00  0.00000000E+00
  0.00000000E+00  0.00000000E+00  0.00000000E+00
  0.00000000E+00  0.00000000E+00  0.00000000E+00
  0.00000000E+00  0.00000000E+00  0.00000000E+00
  0.00000000E+00  0.00000000E+00  0.00000000E+00
  0.00000000E+00  0.00000000E+00  0.00000000E+00
  0.00000000E+00  0.00000000E+00  0.00000000E+00
  0.00000000E+00  0.00000000E+00  0.00000000E+00
  0.00000000E+00  0.00000000E+00  0.00000000E+00
  0.00000000E+00  0.00000000E+00  0.00000000E+00
  0.00000000E+00  0.00000000E+00  0.00000000E+00
  0.00000000E+00  0.00000000E+00  0.00000000E+00
  0.00000000E+00  0.00000000E+00  0.00000000E+00
  0.00000000E+00  0.00000000E+00  0.00000000E+00
  0.00000000E+00  0.00000000E+00  0.00000000E+00
  0.00000000E+00  0.00000000E+00  0.00000000E+00
  0.00000000E+00  0.00000000E+00  0.00000000E+00
  0.00000000E+00  0.00000000E+00  0.00000000E+00
  0.00000000E+00  0.00000000E+00  0.00000000E+00
  0.00000000E+00  0.00000000E+00  0.00000000E+00
  0.00000000E+00  0.00000000E+00  0.00000000E+00
  0.00000000E+00  0.00000000E+00  0.00000000E+00
  0.00000000E+00  0.00000000E+00  0.00000000E+00
  0.00000000E+00  0.00000000E+00  0.00000000E+00
  0.00000000E+00  0.00000000E+00  0.00000000E+00
  0.00000000E+00  0.00000000E+00  0.00000000E+00
  0.00000000E+00  0.00000000E+00  0.00000000E+00
  0.00000000E+00  0.00000000E+00  0.00000000E+00
  0.00000000E+00  0.00000000E+00  0.00000000E+00
  0.00000000E+00  0.00000000E+00  0.00000000E+00
  0.00000000E+00  0.00000000E+00  0.00000000E+00
  0.00000000E+00  0.00000000E+00  0.00000000E+00
  0.00000000E+00  0.00000000E+00  0.00000000E+00
  0.00000000E+00  0.00000000E+00  0.00000000E+00
  0.00000000E+00  0.00000000E+00  0.00000000E+00
  0.00000000E+00  0.00000000E+00  0.00000000E+00
  0.00000000E+00  0.00000000E+00  0.00000000E+00
  0.00000000E+00  0.00000000E+00  0.00000000E+00
