Generated by VASPKIT code               
   1.00000000000000     
    12.6838931225404039   -0.1736559443854016    0.0000000000000000
    -0.1738172833047824   12.4701646001503743    0.0000000000000000
     0.0000000000000013    0.0000000000000013   20.2294059476211530
  C             
    84
Direct
  0.8988503778372774  0.8124791042298796  0.5640735265235932
  0.8491207080899414  0.8314140147709779  0.5014604083540917
  0.8078883651948416  0.9374415914568104  0.5008823777672760
  0.8889561256550067  0.9086754088439051  0.6012571927276298
  0.8289836527586516  0.9845916286750409  0.5629541259015838
  0.9884819292336573  0.9433972140609868  0.6282466735694854
  0.0100833187491105  0.7695134474591541  0.5697102049977687
  0.0652913603639931  0.8643276640582016  0.6059719820122353
  0.0529070457279062  0.7824177595191770  0.4995790469726558
  0.8950841585463252  0.8193640134724234  0.4390646916005494
  0.9977627005359793  0.7697581260038717  0.4318158630989046
  0.8261797354305926  0.9877004371282965  0.4371998527453798
  0.8847657137806735  0.9126390133158750  0.3991938570926479
  0.8577315263440894  0.0969897605751129  0.4349607634008521
  0.8554335242529376  0.0950773324878327  0.5640612346225211
  0.8631971230994324  0.1481403242300843  0.4992747720350721
  0.0114850772292385  0.0566509208655930  0.6282515355331597
  0.9346841750355068  0.1357272960567641  0.6059728251343302
  0.1110199079993635  0.0913701240299361  0.6012622833752417
  0.1445492206271766  0.9049767123468229  0.5640625396292620
  0.1367739142498365  0.8519266832051215  0.4992704408381883
  0.1709948478700056  0.0154588763945469  0.5629594562595912
  0.0602952558047249  0.8618634562138041  0.3933971737209419
  0.9859131808777093  0.9433264120255060  0.3729525077313980
  0.1422833878311920  0.9030678692610579  0.4349584691689401
  0.9397292642458481  0.1381807416998129  0.3934118895813583
  0.0141125837025839  0.0567403327352380  0.3729566298240883
  0.9470715740892786  0.2176571604516795  0.4995819326426840
  0.9899005936138181  0.2305387592525818  0.5697157494293634
  0.1011332293738363  0.1875679326632707  0.5640806632257238
  0.0022352524391422  0.2303002365312281  0.4318218273811354
  0.1921312027691116  0.0626210796623639  0.5008959382305989
  0.1738311184476515  0.0123611996558850  0.4372101926655745
  0.1152585921327898  0.0874273529796383  0.3992090474765675
  0.1508852808429850  0.1686397119513359  0.5014747019428398
  0.1049165109181232  0.1806972784103635  0.4390856840578721
  0.5103350823052253  0.8138487650318993  0.5296011293112599
  0.1885278540736763  0.5324322501630476  0.5299953553289498
  0.4572564364064959  0.8677523523291555  0.5818225865176601
  0.1259485375594380  0.4769670841381028  0.5798653531029245
  0.4513362425635066  0.8181251711949145  0.4693473235102346
  0.1855104291638980  0.4666473559495756  0.4699974001860738
  0.3724114756906687  0.9270514566499983  0.5497282475611200
  0.0751950549916387  0.3900735280603058  0.5473468343457242
  0.3688217395178910  0.8972099466104169  0.4812101736537855
  0.1063362266724468  0.3842914052497264  0.4815546395844379
  0.5148361447555132  0.8638644123575574  0.4172770440275926
  0.1281180833535416  0.5223863708939760  0.4193941590039572
  0.4656162402314266  0.9533142056140065  0.3868895041872520
  0.0443836859497679  0.4668348619346716  0.3835484120114288
  0.3772095552636614  0.9790479230560578  0.4308597288413765
  0.0216066549567344  0.3601324110928417  0.4269895207593422
  0.6091713801101335  0.9098148091729641  0.4499050021111657
  0.0825698449516921  0.6084516812213820  0.4520465917922536
  0.6084501288450426  0.8790759822822949  0.5177316860359582
  0.1146832676960656  0.6161864867976732  0.5184110956196690
  0.6149284161001916  0.9613639028379879  0.5678977290661678
  0.0314028952726630  0.6405661857100569  0.5734157219455867
  0.6229138887248595  0.0210191543625768  0.4309586204327474
  0.9783800933501325  0.6399339893268419  0.4269928404825549
  0.6312164495398918  0.1027029551251957  0.4814089216393072
  0.8936561049164311  0.6157618267661249  0.4815648875750824
  0.6275346828183288  0.0726696382947409  0.5499045169329690
  0.9248226049407435  0.6099545649708418  0.5473505990264442
  0.5345617532570301  0.0468701918823200  0.3869706690920225
  0.9555739789266440  0.5332441755149588  0.3835481473511919
  0.4756671923593245  0.0510418850232881  0.6123574941805501
  0.9535732427667156  0.4672795148437032  0.6159744408025389
  0.5241675279132920  0.9484550862824719  0.6123162908314299
  0.0464364261811738  0.5327696672648798  0.6159659797493120
  0.5426349403474475  0.1318398906842617  0.5820130082244290
  0.8740553388994599  0.5230820617182559  0.5798751983360049
  0.4896337707696219  0.1858969038390441  0.5298120628170295
  0.8114556420646721  0.4676217427313887  0.5300154015595169
  0.5487252996484528  0.1818179890117904  0.4695886749005354
  0.8144623572154259  0.5334241650806248  0.4700157221698760
  0.4853086891378595  0.1362564494276199  0.4174080180006925
  0.8718582812796001  0.4776879072521680  0.4194114841525760
  0.3849766193283131  0.0382942354165650  0.5678646738419744
  0.9686142292322586  0.3594890464877523  0.5734252920881815
  0.3915353228852609  0.1207211799940850  0.5177941935963659
  0.8853184609604483  0.3838777667874780  0.5184242689325771
  0.3909193443600998  0.0902074308843126  0.4499230243703209
  0.9174208460448909  0.3916150559979314  0.4520596690744298
 
  0.00000000E+00  0.00000000E+00  0.00000000E+00
  0.00000000E+00  0.00000000E+00  0.00000000E+00
  0.00000000E+00  0.00000000E+00  0.00000000E+00
  0.00000000E+00  0.00000000E+00  0.00000000E+00
  0.00000000E+00  0.00000000E+00  0.00000000E+00
  0.00000000E+00  0.00000000E+00  0.00000000E+00
  0.00000000E+00  0.00000000E+00  0.00000000E+00
  0.00000000E+00  0.00000000E+00  0.00000000E+00
  0.00000000E+00  0.00000000E+00  0.00000000E+00
  0.00000000E+00  0.00000000E+00  0.00000000E+00
  0.00000000E+00  0.00000000E+00  0.00000000E+00
  0.00000000E+00  0.00000000E+00  0.00000000E+00
  0.00000000E+00  0.00000000E+00  0.00000000E+00
  0.00000000E+00  0.00000000E+00  0.00000000E+00
  0.00000000E+00  0.00000000E+00  0.00000000E+00
  0.00000000E+00  0.00000000E+00  0.00000000E+00
  0.00000000E+00  0.00000000E+00  0.00000000E+00
  0.00000000E+00  0.00000000E+00  0.00000000E+00
  0.00000000E+00  0.00000000E+00  0.00000000E+00
  0.00000000E+00  0.00000000E+00  0.00000000E+00
  0.00000000E+00  0.00000000E+00  0.00000000E+00
  0.00000000E+00  0.00000000E+00  0.00000000E+00
  0.00000000E+00  0.00000000E+00  0.00000000E+00
  0.00000000E+00  0.00000000E+00  0.00000000E+00
  0.00000000E+00  0.00000000E+00  0.00000000E+00
  0.00000000E+00  0.00000000E+00  0.00000000E+00
  0.00000000E+00  0.00000000E+00  0.00000000E+00
  0.00000000E+00  0.00000000E+00  0.00000000E+00
  0.00000000E+00  0.00000000E+00  0.00000000E+00
  0.00000000E+00  0.00000000E+00  0.00000000E+00
  0.00000000E+00  0.00000000E+00  0.00000000E+00
  0.00000000E+00  0.00000000E+00  0.00000000E+00
  0.00000000E+00  0.00000000E+00  0.00000000E+00
  0.00000000E+00  0.00000000E+00  0.00000000E+00
  0.00000000E+00  0.00000000E+00  0.00000000E+00
  0.00000000E+00  0.00000000E+00  0.00000000E+00
  0.00000000E+00  0.00000000E+00  0.00000000E+00
  0.00000000E+00  0.00000000E+00  0.00000000E+00
  0.00000000E+00  0.00000000E+00  0.00000000E+00
  0.00000000E+00  0.00000000E+00  0.00000000E+00
  0.00000000E+00  0.00000000E+00  0.00000000E+00
  0.00000000E+00  0.00000000E+00  0.00000000E+00
  0.00000000E+00  0.00000000E+00  0.00000000E+00
  0.00000000E+00  0.00000000E+00  0.00000000E+00
  0.00000000E+00  0.00000000E+00  0.00000000E+00
  0.00000000E+00  0.00000000E+00  0.00000000E+00
  0.00000000E+00  0.00000000E+00  0.00000000E+00
  0.00000000E+00  0.00000000E+00  0.00000000E+00
  0.00000000E+00  0.00000000E+00  0.00000000E+00
  0.00000000E+00  0.00000000E+00  0.00000000E+00
  0.00000000E+00  0.00000000E+00  0.00000000E+00
  0.00000000E+00  0.00000000E+00  0.00000000E+00
  0.00000000E+00  0.00000000E+00  0.00000000E+00
  0.00000000E+00  0.00000000E+00  0.00000000E+00
  0.00000000E+00  0.00000000E+00  0.00000000E+00
  0.00000000E+00  0.00000000E+00  0.00000000E+00
  0.00000000E+00  0.00000000E+00  0.00000000E+00
  0.00000000E+00  0.00000000E+00  0.00000000E+00
  0.00000000E+00  0.00000000E+00  0.00000000E+00
  0.00000000E+00  0.00000000E+00  0.00000000E+00
  0.00000000E+00  0.00000000E+00  0.00000000E+00
  0.00000000E+00  0.00000000E+00  0.00000000E+00
  0.00000000E+00  0.00000000E+00  0.00000000E+00
  0.00000000E+00  0.00000000E+00  0.00000000E+00
  0.00000000E+00  0.00000000E+00  0.00000000E+00
  0.00000000E+00  0.00000000E+00  0.00000000E+00
  0.00000000E+00  0.00000000E+00  0.00000000E+00
  0.00000000E+00  0.00000000E+00  0.00000000E+00
  0.00000000E+00  0.00000000E+00  0.00000000E+00
  0.00000000E+00  0.00000000E+00  0.00000000E+00
  0.00000000E+00  0.00000000E+00  0.00000000E+00
  0.00000000E+00  0.00000000E+00  0.00000000E+00
  0.00000000E+00  0.00000000E+00  0.00000000E+00
  0.00000000E+00  0.00000000E+00  0.00000000E+00
  0.00000000E+00  0.00000000E+00  0.00000000E+00
  0.00000000E+00  0.00000000E+00  0.00000000E+00
  0.00000000E+00  0.00000000E+00  0.00000000E+00
  0.00000000E+00  0.00000000E+00  0.00000000E+00
  0.00000000E+00  0.00000000E+00  0.00000000E+00
  0.00000000E+00  0.00000000E+00  0.00000000E+00
  0.00000000E+00  0.00000000E+00  0.00000000E+00
  0.00000000E+00  0.00000000E+00  0.00000000E+00
  0.00000000E+00  0.00000000E+00  0.00000000E+00
  0.00000000E+00  0.00000000E+00  0.00000000E+00
