Generated by VASPKIT code               
   1.00000000000000     
    21.0203607913629646    0.1271028461670012    0.0000000000000000
   -10.4020930649942169   18.1802303129442784    0.0000000000000000
     0.0000000000000012    0.0000000000000021   20.2238267047878786
  C             
   216
Direct
  0.3462586477568763  0.5628148307702645  0.4310559497492648
  0.6533826096838240  0.4370208523242880  0.4315063700077530
  0.3854870586214503  0.6258829249982014  0.3912595752136809
  0.6141556124262522  0.3739411396265524  0.3917023542113398
  0.4464475093568367  0.6805697468390122  0.4319830041333290
  0.5532717275621266  0.3191974289724442  0.4324497861160452
  0.3824998153724977  0.5770902325715568  0.4964689207455564
  0.6171968974734483  0.4226658086190440  0.4969943486391415
  0.4438545134600957  0.6497649131121292  0.4959547783782483
  0.5558840591845779  0.3499295963099840  0.4964748901806146
  0.3281540335484010  0.5576844154023846  0.5471645342534615
  0.6716455815749427  0.4421162238662220  0.5476208991582396
  0.2706888799649789  0.5349677166481612  0.4421277011262177
  0.7289896566398397  0.4649654356588826  0.4424931344013459
  0.2595193881928353  0.5322697888352437  0.5145104490803689
  0.7402496746562477  0.4676273688967996  0.5148540871704199
  0.2344053829547832  0.5699892901362276  0.4137194294751581
  0.7653081398002115  0.4300327326240634  0.4139709554496278
  0.3491262634597803  0.6611190981894737  0.3630967699000252
  0.6505360153598190  0.3387852408354846  0.3633965313942014
  0.2735192762216556  0.6333004053551505  0.3740814665363885
  0.7261628508168485  0.3667060757545357  0.3743334555832476
  0.4470629422124617  0.7492074824962884  0.4273469155009835
  0.5527303604522658  0.2505932854412976  0.4277077426243778
  0.3872356680521278  0.7381727851371238  0.3861301926568785
  0.6125495681330975  0.2617380256115709  0.3864133746951097
  0.4620616897818621  0.7933028192143325  0.4854113960410018
  0.5379230499498178  0.2065390541075232  0.4857695993566153
  0.4595270020620106  0.6950702628947880  0.5538302506824166
  0.5403454767947764  0.3045984126393151  0.5543219889802202
  0.4767885895203037  0.7700232503495883  0.5463200750889357
  0.5231631022242809  0.2296869646574464  0.5467186435662654
  0.3437123062715486  0.6026033257918471  0.6052694957649933
  0.6561933877272281  0.3971396243309684  0.6056785430892333
  0.4133662226346573  0.6676378162881704  0.6105638963906017
  0.5865852642296261  0.3320389663390486  0.6110076888100906
  0.2907288343080410  0.6219008811034570  0.6286228952596815
  0.7092695284928752  0.3779542708990817  0.6289160770359601
  0.2159202117351740  0.5655470959304196  0.5295274744215988
  0.7839644981633711  0.4344549046421093  0.5297480642934502
  0.2006804009691336  0.5897345462343111  0.4684107256115269
  0.7991357143507116  0.4103087467847786  0.4685700602299647
  0.2313344280912162  0.6101260923532408  0.5872651416475350
  0.7686052259861995  0.3898188288473179  0.5874358966559399
  0.2637243663375060  0.6929141095302072  0.4033342084064060
  0.7360786261634544  0.3071407009360669  0.4034656478465664
  0.3341200375024016  0.7568460254295744  0.4102338268252765
  0.6657416444045836  0.2431243518885680  0.4103852983279239
  0.2191879907658887  0.6651994017645251  0.4611187058567907
  0.7806851445354184  0.3348819603768263  0.4612049852539712
  0.4161945338975741  0.8246571703543637  0.5005085398755114
  0.5837911439741674  0.1751744303808707  0.5007201476033103
  0.3503767796063215  0.8013415261097094  0.4681258810532185
  0.6495898713450003  0.1985796594718678  0.4682359873427302
  0.4431680155948428  0.7903656371119965  0.6013695589692745
  0.5569060930588350  0.2093837687408779  0.6016790503093432
  0.4041775844177735  0.7271014307123167  0.6407282461841532
  0.5959001520738028  0.2726268185545919  0.6410661816361909
  0.3286779748406659  0.6991807096467539  0.6518557532036979
  0.6714220706723566  0.3006617121517152  0.6520911954562649
  0.4056992850376488  0.8241233148293787  0.5727436357351507
  0.5944057893057391  0.1757260681721817  0.5729551579223866
  0.2342231009657496  0.6801247073047278  0.5804800551117495
  0.7658110753724046  0.3199011416511226  0.5805752339502064
  0.2342206723847156  0.7099891349140890  0.5189438133895408
  0.7657974205912410  0.2900860624015422  0.5189938245344266
  0.2902094321960504  0.7925254880270671  0.5175899097779677
  0.7098550083915995  0.2074979066909179  0.5176858527656805
  0.2933252940580644  0.7347717955913211  0.6221938387345389
  0.7068061186443089  0.2651772433657911  0.6223217982442506
  0.3310814133558253  0.7994175350241264  0.5845701815464324
  0.6690535525285597  0.2005474156746061  0.5846991464827482
  0.7174984243066618  0.9002416004395641  0.5218680058799166
  0.1209270812871779  0.7934268688277015  0.5194769614442052
  0.1686577726225025  0.2831378778472313  0.4541852511331115
  0.2826565864098143  0.0998357776762191  0.5213181606676045
  0.8791502435992697  0.2067455455983662  0.5201261088872329
  0.8312043507269422  0.7167827907706510  0.4543106106436667
  0.6407669764943549  0.8834220264534380  0.5037972377709536
  0.1033783448112260  0.7203837951451177  0.5488380484468607
  0.2142052595277377  0.3623068122993374  0.4813017447663199
  0.3593510596220995  0.1166088823579798  0.5031942113911114
  0.8968670679853403  0.2798902006412192  0.5494861617235998
  0.7857081193710016  0.6376325284326114  0.4814976430191606
  0.7349768356537041  0.9548461047387775  0.5792273418235894
  0.0568521437934493  0.8014998201063719  0.5473507750180815
  0.1421687900618309  0.2328463965770950  0.5157139266284787
  0.2651503046539645  0.0452462982383679  0.5786584920052391
  0.9433220781711924  0.1987209160487211  0.5478178413538970
  0.8578340502524711  0.7671291818312156  0.5157996456174914
  0.6149915046322008  0.9225611972754209  0.5442604244278826
  0.0390671139465439  0.6880763141821618  0.5908214315663045
  0.2401063595326036  0.3514854206464477  0.5497012038673148
  0.3851108383337944  0.0774851842720210  0.5436572905126340
  0.9613400152587843  0.3122333289694978  0.5912742117787815
  0.7599117395532389  0.6485180410680087  0.5499273016529003
  0.6728657200390984  0.9676119116194499  0.5877443327063645
  0.0093241548306509  0.7359329179900271  0.5884847057320286
  0.1991790047763971  0.2782086718114343  0.5690563760769862
  0.3272320749582249  0.0324599733423483  0.5871648018172735
  0.9909990196584886  0.2643037191792388  0.5888403878649484
  0.8009314412263464  0.7218088843146049  0.5692547490177873
  0.7933889549458186  0.0239023803407932  0.5628272429814700
  0.0133165859771225  0.8066403948303744  0.4991039748628339
  0.1658919174411153  0.1759808166951515  0.5000204122035541
  0.2067005398463237  0.9762019278443006  0.5622983816772589
  0.9866503245570257  0.1933996514644818  0.4994654645055547
  0.8341244054141654  0.8239924069168509  0.5001577337058052
  0.7779447778161312  0.0826589475691080  0.5758838799927872
  0.9317222823450706  0.7599632750133196  0.5150413570301851
  0.2092067183134318  0.1725030393534439  0.5492598899379004
  0.2220832837036895  0.9173975032223609  0.5754311928247162
  0.0683090595932256  0.2400496913153418  0.5151664515352294
  0.7909470807312005  0.8275450174082550  0.5494697650074372
  0.6999001500003317  0.0462923796748029  0.5856033103368574
  0.9356827862982584  0.7079167147133560  0.5671016056116898
  0.2348477893293932  0.2392521805121888  0.5913355528063988
  0.3001648722154542  0.9537670363671040  0.5851105676275381
  0.0645619555465444  0.2922307564856865  0.5672269558922309
  0.7653357202243498  0.7608190017136494  0.5915802401616119
  0.8041811118661215  0.0254508293163909  0.4893334985065962
  0.0292610968196243  0.7763184224179369  0.4367274912582033
  0.2152184518349003  0.2020508475455429  0.4388915976283272
  0.1959556562604163  0.9746545244592042  0.4887773128345430
  0.9705296137686261  0.2236602266432968  0.4371156892772134
  0.7847134075737614  0.7979447755996532  0.4391014114502170
  0.7568806409766111  0.9552790272685101  0.4636475747504960
  0.0891866132560821  0.7644909950760024  0.4484748908644747
  0.2183632522136847  0.2662778800522929  0.4141323615082584
  0.2432884213464277  0.0448154675487942  0.4630920934340352
  0.9107243017761135  0.2356231440981560  0.4490820465389831
  0.7814826936801254  0.7336771995713107  0.4143214726423778
  0.7059433988448376  0.9458277676620028  0.4118425236711190
  0.0814824726049892  0.6938672280044571  0.4369969733374504
  0.2870031409330025  0.3318255691277159  0.4063566697609318
  0.2942075877208126  0.0542188377283637  0.4112820451952857
  0.9184217812656783  0.3062364994130107  0.4375919376894686
  0.7128233670015192  0.6681536488048962  0.4065982532539323
  0.8007936551865171  0.0870227315829553  0.4641743320843474
  0.9633685741330638  0.7185005152742008  0.4118014992565051
  0.2813582704307578  0.2024229074341406  0.4528873356411367
  0.1993588918030795  0.9130726564636333  0.4636573253204830
  0.0363444738167971  0.2813875321778951  0.4119845335903634
  0.7186469581626795  0.7976580158597955  0.4531949293189115
  0.7520280867623157  0.0781836635908633  0.4129292609102606
  0.9552064542612868  0.6475117907178856  0.4016404415453962
  0.3502821686621047  0.2669054112220763  0.4437577991110828
  0.2480847314149486  0.9218186090491827  0.4124274197971403
  0.0445192353507622  0.3524015954300381  0.4018139831332661
  0.6496980435656496  0.7331841173568918  0.4441229522414218
  0.7041169941117715  0.0072366837261981  0.3842734678104733
  0.0155881140015737  0.6349244511424104  0.4120188836638121
  0.3543096002199846  0.3323142069963154  0.4191987256181378
  0.2960065358472548  0.9927706592196515  0.3837490783111477
  0.9842352827283776  0.3650957136031963  0.4124054512412911
  0.6455693012145929  0.6677411675794005  0.4195242172629250
  0.8021658718642684  0.1392294421508637  0.5201489961040622
  0.9010526623989819  0.7108389896385177  0.4532375506281312
  0.2757320306115574  0.1690043994737707  0.5231702915570580
  0.1979230707512585  0.8608463792271763  0.5196446763266849
  0.0987950309613410  0.2890685125066597  0.4532567875195213
  0.7244079025130432  0.8310635042164165  0.5235148085383869
  0.5906608600415311  0.9316773144814974  0.4317598681423149
  0.0357635338837525  0.6001343705801858  0.5164716588059051
  0.3484952055501580  0.4209464260156821  0.4870169076982478
  0.4094452655439085  0.0683146130188845  0.4312079588999396
  0.9644685122875316  0.4001044461686405  0.5169316290562449
  0.6514149403569505  0.5790913176694872  0.4873494755234873
  0.6314743308454425  0.8936700910541333  0.4363320624553566
  0.0970301090328789  0.6688775129238991  0.5012471105823408
  0.2861717254683356  0.3902876038462040  0.4452628038600963
  0.3686693369642811  0.1063602327703492  0.4357282646871496
  0.9031316223045067  0.3313527108731193  0.5018902348501442
  0.7136769992782774  0.6096751675280245  0.4455220478165742
  0.6277946848561271  0.9957346053687957  0.3916724347097968
  0.9892459997950098  0.5720225911595094  0.4607510144228826
  0.3956176343007272  0.3930936399913136  0.4690000298286563
  0.3722983144932428  0.0042335280400181  0.3911544885497875
  0.0107941313462092  0.4280833314817230  0.4610648922508531
  0.6043012835273558  0.6069812960689447  0.4693868276194024
  0.6336912579717335  0.0558699112630308  0.4285648634558825
  0.9178907077207157  0.5552120148108983  0.4804964970753431
  0.4049630822719195  0.3578248084300526  0.5248334886494703
  0.3663647421763230  0.9441340764012054  0.4281361826042342
  0.0821863113763115  0.4448332532639299  0.4805834086590934
  0.5950641215661463  0.6422936238298149  0.5252469050052468
  0.7082434263468045  0.1088568899078339  0.4363031246225049
  0.8926905900938209  0.5938204042339024  0.4404510596823101
  0.3891107535926608  0.2849849802598925  0.5092128755696947
  0.2918224832701171  0.8911021115921969  0.4358730067049166
  0.1071711402691093  0.4061074234270379  0.4404474093304174
  0.6109786874584842  0.7151471428713876  0.5096251449142315
  0.7289118248335171  0.1440424391609341  0.5044484795529982
  0.8586949661258103  0.6310329589404731  0.4796222359466640
  0.3375059749991749  0.2369391090190121  0.5548101836552277
  0.2711455058561398  0.8559632705010358  0.5040757039127044
  0.1412441039157457  0.3689159220904514  0.4795234334651539
  0.6626825415490529  0.7631625668457005  0.5551640355124405
  0.5825469581134755  0.9534437978179753  0.4998404855947101
  0.9955600535900828  0.6114650983088623  0.5722233297582733
  0.3184536379611629  0.3905202503474143  0.5545507457950123
  0.4176272544845148  0.0466181894764048  0.4992992019513736
  0.0048285533133665  0.3888132168406386  0.5725552240268215
  0.6815673469121251  0.6095247428716632  0.5548798863283295
  0.6099165744705246  0.0296881258425756  0.4985475844744087
  0.9238459517924653  0.5856829734273461  0.5491457956988341
  0.3548471679895755  0.3539651488486513  0.5789811868153549
  0.3902135971174019  0.9703477000162124  0.4980858478118009
  0.0764318661363745  0.4144656915279725  0.5492388553635621
  0.6452537378652110  0.6461403208424983  0.5793444021642031
  0.6693966397992028  0.0755465141255272  0.5415014942108485
  0.8947425715121966  0.6350014542461011  0.5467593808016815
  0.3121499157167236  0.2768347093301244  0.5959747356034271
  0.3306715185005586  0.9245125634272995  0.5410316829359942
  0.1054603292506329  0.3650958571942908  0.5467598142592962
  0.6880397250378749  0.7232653482525748  0.5962939328563621
 
  0.00000000E+00  0.00000000E+00  0.00000000E+00
  0.00000000E+00  0.00000000E+00  0.00000000E+00
  0.00000000E+00  0.00000000E+00  0.00000000E+00
  0.00000000E+00  0.00000000E+00  0.00000000E+00
  0.00000000E+00  0.00000000E+00  0.00000000E+00
  0.00000000E+00  0.00000000E+00  0.00000000E+00
  0.00000000E+00  0.00000000E+00  0.00000000E+00
  0.00000000E+00  0.00000000E+00  0.00000000E+00
  0.00000000E+00  0.00000000E+00  0.00000000E+00
  0.00000000E+00  0.00000000E+00  0.00000000E+00
  0.00000000E+00  0.00000000E+00  0.00000000E+00
  0.00000000E+00  0.00000000E+00  0.00000000E+00
  0.00000000E+00  0.00000000E+00  0.00000000E+00
  0.00000000E+00  0.00000000E+00  0.00000000E+00
  0.00000000E+00  0.00000000E+00  0.00000000E+00
  0.00000000E+00  0.00000000E+00  0.00000000E+00
  0.00000000E+00  0.00000000E+00  0.00000000E+00
  0.00000000E+00  0.00000000E+00  0.00000000E+00
  0.00000000E+00  0.00000000E+00  0.00000000E+00
  0.00000000E+00  0.00000000E+00  0.00000000E+00
  0.00000000E+00  0.00000000E+00  0.00000000E+00
  0.00000000E+00  0.00000000E+00  0.00000000E+00
  0.00000000E+00  0.00000000E+00  0.00000000E+00
  0.00000000E+00  0.00000000E+00  0.00000000E+00
  0.00000000E+00  0.00000000E+00  0.00000000E+00
  0.00000000E+00  0.00000000E+00  0.00000000E+00
  0.00000000E+00  0.00000000E+00  0.00000000E+00
  0.00000000E+00  0.00000000E+00  0.00000000E+00
  0.00000000E+00  0.00000000E+00  0.00000000E+00
  0.00000000E+00  0.00000000E+00  0.00000000E+00
  0.00000000E+00  0.00000000E+00  0.00000000E+00
  0.00000000E+00  0.00000000E+00  0.00000000E+00
  0.00000000E+00  0.00000000E+00  0.00000000E+00
  0.00000000E+00  0.00000000E+00  0.00000000E+00
  0.00000000E+00  0.00000000E+00  0.00000000E+00
  0.00000000E+00  0.00000000E+00  0.00000000E+00
  0.00000000E+00  0.00000000E+00  0.00000000E+00
  0.00000000E+00  0.00000000E+00  0.00000000E+00
  0.00000000E+00  0.00000000E+00  0.00000000E+00
  0.00000000E+00  0.00000000E+00  0.00000000E+00
  0.00000000E+00  0.00000000E+00  0.00000000E+00
  0.00000000E+00  0.00000000E+00  0.00000000E+00
  0.00000000E+00  0.00000000E+00  0.00000000E+00
  0.00000000E+00  0.00000000E+00  0.00000000E+00
  0.00000000E+00  0.00000000E+00  0.00000000E+00
  0.00000000E+00  0.00000000E+00  0.00000000E+00
  0.00000000E+00  0.00000000E+00  0.00000000E+00
  0.00000000E+00  0.00000000E+00  0.00000000E+00
  0.00000000E+00  0.00000000E+00  0.00000000E+00
  0.00000000E+00  0.00000000E+00  0.00000000E+00
  0.00000000E+00  0.00000000E+00  0.00000000E+00
  0.00000000E+00  0.00000000E+00  0.00000000E+00
  0.00000000E+00  0.00000000E+00  0.00000000E+00
  0.00000000E+00  0.00000000E+00  0.00000000E+00
  0.00000000E+00  0.00000000E+00  0.00000000E+00
  0.00000000E+00  0.00000000E+00  0.00000000E+00
  0.00000000E+00  0.00000000E+00  0.00000000E+00
  0.00000000E+00  0.00000000E+00  0.00000000E+00
  0.00000000E+00  0.00000000E+00  0.00000000E+00
  0.00000000E+00  0.00000000E+00  0.00000000E+00
  0.00000000E+00  0.00000000E+00  0.00000000E+00
  0.00000000E+00  0.00000000E+00  0.00000000E+00
  0.00000000E+00  0.00000000E+00  0.00000000E+00
  0.00000000E+00  0.00000000E+00  0.00000000E+00
  0.00000000E+00  0.00000000E+00  0.00000000E+00
  0.00000000E+00  0.00000000E+00  0.00000000E+00
  0.00000000E+00  0.00000000E+00  0.00000000E+00
  0.00000000E+00  0.00000000E+00  0.00000000E+00
  0.00000000E+00  0.00000000E+00  0.00000000E+00
  0.00000000E+00  0.00000000E+00  0.00000000E+00
  0.00000000E+00  0.00000000E+00  0.00000000E+00
  0.00000000E+00  0.00000000E+00  0.00000000E+00
  0.00000000E+00  0.00000000E+00  0.00000000E+00
  0.00000000E+00  0.00000000E+00  0.00000000E+00
  0.00000000E+00  0.00000000E+00  0.00000000E+00
  0.00000000E+00  0.00000000E+00  0.00000000E+00
  0.00000000E+00  0.00000000E+00  0.00000000E+00
  0.00000000E+00  0.00000000E+00  0.00000000E+00
  0.00000000E+00  0.00000000E+00  0.00000000E+00
  0.00000000E+00  0.00000000E+00  0.00000000E+00
  0.00000000E+00  0.00000000E+00  0.00000000E+00
  0.00000000E+00  0.00000000E+00  0.00000000E+00
  0.00000000E+00  0.00000000E+00  0.00000000E+00
  0.00000000E+00  0.00000000E+00  0.00000000E+00
  0.00000000E+00  0.00000000E+00  0.00000000E+00
  0.00000000E+00  0.00000000E+00  0.00000000E+00
  0.00000000E+00  0.00000000E+00  0.00000000E+00
  0.00000000E+00  0.00000000E+00  0.00000000E+00
  0.00000000E+00  0.00000000E+00  0.00000000E+00
  0.00000000E+00  0.00000000E+00  0.00000000E+00
  0.00000000E+00  0.00000000E+00  0.00000000E+00
  0.00000000E+00  0.00000000E+00  0.00000000E+00
  0.00000000E+00  0.00000000E+00  0.00000000E+00
  0.00000000E+00  0.00000000E+00  0.00000000E+00
  0.00000000E+00  0.00000000E+00  0.00000000E+00
  0.00000000E+00  0.00000000E+00  0.00000000E+00
  0.00000000E+00  0.00000000E+00  0.00000000E+00
  0.00000000E+00  0.00000000E+00  0.00000000E+00
  0.00000000E+00  0.00000000E+00  0.00000000E+00
  0.00000000E+00  0.00000000E+00  0.00000000E+00
  0.00000000E+00  0.00000000E+00  0.00000000E+00
  0.00000000E+00  0.00000000E+00  0.00000000E+00
  0.00000000E+00  0.00000000E+00  0.00000000E+00
  0.00000000E+00  0.00000000E+00  0.00000000E+00
  0.00000000E+00  0.00000000E+00  0.00000000E+00
  0.00000000E+00  0.00000000E+00  0.00000000E+00
  0.00000000E+00  0.00000000E+00  0.00000000E+00
  0.00000000E+00  0.00000000E+00  0.00000000E+00
  0.00000000E+00  0.00000000E+00  0.00000000E+00
  0.00000000E+00  0.00000000E+00  0.00000000E+00
  0.00000000E+00  0.00000000E+00  0.00000000E+00
  0.00000000E+00  0.00000000E+00  0.00000000E+00
  0.00000000E+00  0.00000000E+00  0.00000000E+00
  0.00000000E+00  0.00000000E+00  0.00000000E+00
  0.00000000E+00  0.00000000E+00  0.00000000E+00
  0.00000000E+00  0.00000000E+00  0.00000000E+00
  0.00000000E+00  0.00000000E+00  0.00000000E+00
  0.00000000E+00  0.00000000E+00  0.00000000E+00
  0.00000000E+00  0.00000000E+00  0.00000000E+00
  0.00000000E+00  0.00000000E+00  0.00000000E+00
  0.00000000E+00  0.00000000E+00  0.00000000E+00
  0.00000000E+00  0.00000000E+00  0.00000000E+00
  0.00000000E+00  0.00000000E+00  0.00000000E+00
  0.00000000E+00  0.00000000E+00  0.00000000E+00
  0.00000000E+00  0.00000000E+00  0.00000000E+00
  0.00000000E+00  0.00000000E+00  0.00000000E+00
  0.00000000E+00  0.00000000E+00  0.00000000E+00
  0.00000000E+00  0.00000000E+00  0.00000000E+00
  0.00000000E+00  0.00000000E+00  0.00000000E+00
  0.00000000E+00  0.00000000E+00  0.00000000E+00
  0.00000000E+00  0.00000000E+00  0.00000000E+00
  0.00000000E+00  0.00000000E+00  0.00000000E+00
  0.00000000E+00  0.00000000E+00  0.00000000E+00
  0.00000000E+00  0.00000000E+00  0.00000000E+00
  0.00000000E+00  0.00000000E+00  0.00000000E+00
  0.00000000E+00  0.00000000E+00  0.00000000E+00
  0.00000000E+00  0.00000000E+00  0.00000000E+00
  0.00000000E+00  0.00000000E+00  0.00000000E+00
  0.00000000E+00  0.00000000E+00  0.00000000E+00
  0.00000000E+00  0.00000000E+00  0.00000000E+00
  0.00000000E+00  0.00000000E+00  0.00000000E+00
  0.00000000E+00  0.00000000E+00  0.00000000E+00
  0.00000000E+00  0.00000000E+00  0.00000000E+00
  0.00000000E+00  0.00000000E+00  0.00000000E+00
  0.00000000E+00  0.00000000E+00  0.00000000E+00
  0.00000000E+00  0.00000000E+00  0.00000000E+00
  0.00000000E+00  0.00000000E+00  0.00000000E+00
  0.00000000E+00  0.00000000E+00  0.00000000E+00
  0.00000000E+00  0.00000000E+00  0.00000000E+00
  0.00000000E+00  0.00000000E+00  0.00000000E+00
  0.00000000E+00  0.00000000E+00  0.00000000E+00
  0.00000000E+00  0.00000000E+00  0.00000000E+00
  0.00000000E+00  0.00000000E+00  0.00000000E+00
  0.00000000E+00  0.00000000E+00  0.00000000E+00
  0.00000000E+00  0.00000000E+00  0.00000000E+00
  0.00000000E+00  0.00000000E+00  0.00000000E+00
  0.00000000E+00  0.00000000E+00  0.00000000E+00
  0.00000000E+00  0.00000000E+00  0.00000000E+00
  0.00000000E+00  0.00000000E+00  0.00000000E+00
  0.00000000E+00  0.00000000E+00  0.00000000E+00
  0.00000000E+00  0.00000000E+00  0.00000000E+00
  0.00000000E+00  0.00000000E+00  0.00000000E+00
  0.00000000E+00  0.00000000E+00  0.00000000E+00
  0.00000000E+00  0.00000000E+00  0.00000000E+00
  0.00000000E+00  0.00000000E+00  0.00000000E+00
  0.00000000E+00  0.00000000E+00  0.00000000E+00
  0.00000000E+00  0.00000000E+00  0.00000000E+00
  0.00000000E+00  0.00000000E+00  0.00000000E+00
  0.00000000E+00  0.00000000E+00  0.00000000E+00
  0.00000000E+00  0.00000000E+00  0.00000000E+00
  0.00000000E+00  0.00000000E+00  0.00000000E+00
  0.00000000E+00  0.00000000E+00  0.00000000E+00
  0.00000000E+00  0.00000000E+00  0.00000000E+00
  0.00000000E+00  0.00000000E+00  0.00000000E+00
  0.00000000E+00  0.00000000E+00  0.00000000E+00
  0.00000000E+00  0.00000000E+00  0.00000000E+00
  0.00000000E+00  0.00000000E+00  0.00000000E+00
  0.00000000E+00  0.00000000E+00  0.00000000E+00
  0.00000000E+00  0.00000000E+00  0.00000000E+00
  0.00000000E+00  0.00000000E+00  0.00000000E+00
  0.00000000E+00  0.00000000E+00  0.00000000E+00
  0.00000000E+00  0.00000000E+00  0.00000000E+00
  0.00000000E+00  0.00000000E+00  0.00000000E+00
  0.00000000E+00  0.00000000E+00  0.00000000E+00
  0.00000000E+00  0.00000000E+00  0.00000000E+00
  0.00000000E+00  0.00000000E+00  0.00000000E+00
  0.00000000E+00  0.00000000E+00  0.00000000E+00
  0.00000000E+00  0.00000000E+00  0.00000000E+00
  0.00000000E+00  0.00000000E+00  0.00000000E+00
  0.00000000E+00  0.00000000E+00  0.00000000E+00
  0.00000000E+00  0.00000000E+00  0.00000000E+00
  0.00000000E+00  0.00000000E+00  0.00000000E+00
  0.00000000E+00  0.00000000E+00  0.00000000E+00
  0.00000000E+00  0.00000000E+00  0.00000000E+00
  0.00000000E+00  0.00000000E+00  0.00000000E+00
  0.00000000E+00  0.00000000E+00  0.00000000E+00
  0.00000000E+00  0.00000000E+00  0.00000000E+00
  0.00000000E+00  0.00000000E+00  0.00000000E+00
  0.00000000E+00  0.00000000E+00  0.00000000E+00
  0.00000000E+00  0.00000000E+00  0.00000000E+00
  0.00000000E+00  0.00000000E+00  0.00000000E+00
  0.00000000E+00  0.00000000E+00  0.00000000E+00
  0.00000000E+00  0.00000000E+00  0.00000000E+00
  0.00000000E+00  0.00000000E+00  0.00000000E+00
  0.00000000E+00  0.00000000E+00  0.00000000E+00
  0.00000000E+00  0.00000000E+00  0.00000000E+00
  0.00000000E+00  0.00000000E+00  0.00000000E+00
  0.00000000E+00  0.00000000E+00  0.00000000E+00
  0.00000000E+00  0.00000000E+00  0.00000000E+00
  0.00000000E+00  0.00000000E+00  0.00000000E+00
  0.00000000E+00  0.00000000E+00  0.00000000E+00
  0.00000000E+00  0.00000000E+00  0.00000000E+00
  0.00000000E+00  0.00000000E+00  0.00000000E+00
  0.00000000E+00  0.00000000E+00  0.00000000E+00
  0.00000000E+00  0.00000000E+00  0.00000000E+00
  0.00000000E+00  0.00000000E+00  0.00000000E+00
