Generated by VASPKIT code               
   1.00000000000000     
    12.6361553644435762    0.1213635120459235    0.0000000000000000
     0.1169545779265939   12.8556284482792389    0.0000000000000000
     0.0000000000000013    0.0000000000000013   20.2272596636962732
  C             
   120
Direct
  0.5642940696630276  0.9100632442298746  0.6118483414243485
  0.0653565723112450  0.5676533944086799  0.6332505983357635
  0.6003622198780789  0.0110392336154348  0.6237337924324109
  0.9535539811130676  0.5858545289789845  0.6374734513884235
  0.6951076323682415  0.0339508456199198  0.5744593426753468
  0.9255072821571204  0.6606392570885333  0.5860681476879890
  0.6235667385843584  0.8647838555501792  0.5562393062016326
  0.1039427035773812  0.6293804098664069  0.5763091018620230
  0.6880309122900314  0.9377258915867870  0.5310352831367098
  0.0230655796222052  0.7084840053709058  0.5545931732120692
  0.5566221084381127  0.8084875153644759  0.5119523474113095
  0.1632168510175447  0.5673350933384498  0.5359250178397374
  0.4562179362659222  0.8842700978661711  0.5991208044024461
  0.1109766646741477  0.4677149648079961  0.6293017449077070
  0.4528854283877521  0.8244628653098829  0.5371530764744037
  0.1906529534984216  0.4648370322120030  0.5708835040991644
  0.3768358050830400  0.9613595967506825  0.5967367483698709
  0.0380707708678756  0.3855963511961420  0.6233155268017683
  0.5195208455037630  0.0895660394433690  0.6143704312835467
  0.8795219156076186  0.5041859227192731  0.6382840427312289
  0.4110806663749074  0.0650953996218462  0.6017327583019920
  0.9271752167066012  0.4041306280237649  0.6279261524737692
  0.6455447402044143  0.1229322554714045  0.5345899089686696
  0.8373801980390851  0.6293154845173277  0.5514570698606391
  0.5508363683187056  0.1578220234725620  0.5619420574674905
  0.7953727854299899  0.5265093675898953  0.5814830551187313
  0.6624153483625292  0.1296692461412547  0.4656816540046833
  0.8372142937471381  0.6465368214639682  0.4812413888534977
  0.7285832838791961  0.9357825709217664  0.4619372479167438
  0.0255235995597403  0.7193399744549893  0.4761633861454158
  0.7282362653531038  0.0491284397453242  0.4300651886392117
  0.9202417333867530  0.6898931299596285  0.4468082070464519
  0.5752000128379819  0.8175558335795046  0.4425291994483089
  0.1887623350599057  0.5755462359154819  0.4621366868921584
  0.6624978071260301  0.8719297793430343  0.4177238730237960
  0.1033692569217664  0.6529984882080981  0.4350692525416733
  0.4869788049537576  0.8340489633653547  0.3989155800428179
  0.1540322005086807  0.4801993694300606  0.4252209873839234
  0.3697932900900298  0.8614376608635581  0.4956689233472247
  0.1404309935842036  0.3784041506589162  0.5264232947994429
  0.3106778664711882  0.9472586663878602  0.5333112021625084
  0.0596614814359882  0.3330266455465249  0.5594773747510331
  0.3889642246451217  0.8705706908778552  0.4267985941340982
  0.1305974184250474  0.3875069548179155  0.4549585324945085
  0.3775681761224803  0.1202282082359716  0.5418816057821658
  0.8846260523673308  0.3634688968737549  0.5652705088639323
  0.4570029886167077  0.1996417550932392  0.5208099642183512
  0.8351805569337074  0.4437393768271107  0.5358460420805642
  0.3314471145540594  0.0521188417575758  0.4986959745141561
  0.9578971777940666  0.2965627757719318  0.5253600666381288
  0.5854750379100295  0.1717182640052144  0.4237458474355407
  0.7847786169507387  0.5683638774729118  0.4375201091598342
  0.4806146488332104  0.1867319392295386  0.4474214126188301
  0.7955351764884426  0.4543885662989169  0.4691101391403407
  0.6645755975141299  0.0349191307044237  0.3650432690404344
  0.9362693704000336  0.6328343963979464  0.3851159446089767
  0.6298616292765971  0.9302219227559263  0.3600645651896954
  0.0480524365178283  0.6099033650970753  0.3818034467908120
  0.5214163630827073  0.9056905301815519  0.3468458005277029
  0.0814516698411722  0.5036983045739447  0.3721745470621372
  0.5846389993585888  0.1129126280349411  0.3608341701477542
  0.8604770952077700  0.5560685776715388  0.3780019057707875
  0.3617063486579752  0.9664390116215245  0.3911280029175330
  0.0399185579368293  0.3475676788560307  0.4169199219824762
  0.3443331536436887  0.0577607875276342  0.4284381427555601
  0.9492221223854074  0.3304885919092371  0.4533429984132837
  0.4153982357391897  0.1356021082948047  0.4029495179082545
  0.8606130195728880  0.3880353971986850  0.4242557669160618
  0.4449685641281036  0.9865170354326693  0.3419427957603816
  0.0112041172349890  0.4226798050763065  0.3643548238043479
  0.4768240581788490  0.0919771831627259  0.3473318176801925
  0.8991843872587353  0.4498572362606623  0.3721744586184386
  0.9136326796507106  0.0627068720900681  0.6240626625909655
  0.4030395714062749  0.3870528508573372  0.5924640830295331
  0.8226635182108595  0.0459450410123097  0.5760400276820477
  0.4928969198681585  0.4425939745165621  0.6104217775219780
  0.9650285825368243  0.9657330167314626  0.6407582704692203
  0.3177713474787183  0.4669246737385890  0.5690091918454385
  0.8653546527782794  0.9419427435963641  0.5476814264279000
  0.4879987065257438  0.5534906821654459  0.5934180053644980
  0.9354955277829404  0.8921559911627739  0.5881651985060046
  0.3867276651557816  0.5717378869516381  0.5653830016912806
  0.0763823900239231  0.9742500471945377  0.6281132016240960
  0.3259284284097177  0.4545200358214743  0.4970682974709320
  0.1196921046528843  0.8947410186854086  0.5892753160480098
  0.3120210533615690  0.5528176780294132  0.4566302529563657
  0.0294135477613935  0.8301496052045749  0.5616981477236038
  0.3865310769101242  0.6121616496899023  0.5000544514132699
  0.0924735936126169  0.0767896666636858  0.5968053607472754
  0.3882270637322947  0.3776301195579421  0.4736202234623192
  0.9903871134818587  0.1267101984844174  0.5931157276156114
  0.4436526753438557  0.3202390694041384  0.5308113489085997
  0.9528381637503713  0.1766401104069431  0.5285289137437772
  0.5574840023067793  0.3547494846673160  0.5268072632597480
  0.1496130965258402  0.0561248885529082  0.5384841513980376
  0.4314933878952658  0.4207410384151942  0.4131791511375837
  0.1147293454606100  0.0842617577063436  0.4744032604897725
  0.5467955174988361  0.4239859683488802  0.4103461737516128
  0.0146998728196479  0.1341893267174186  0.4683587454844371
  0.6013920211877206  0.3882284163470544  0.4673462606335121
  0.1896477572502704  0.9407273958611668  0.5366849496498673
  0.3848745633834270  0.5200328263386567  0.3980035843795733
  0.8453860152385246  0.0598153683446938  0.4541139483337915
  0.6680909627272484  0.4949408119431524  0.5622933121982001
  0.8516142999754450  0.1169013301865292  0.5193139790027388
  0.5948459023948089  0.4063090662023399  0.5834056451764411
  0.9498128763435503  0.0786962077487416  0.4245011393204834
  0.6796778254870830  0.4647713822616026  0.4857841652095303
  0.0035353790297918  0.9818723631669926  0.4099486942273174
  0.6581419773130648  0.5629029216572619  0.4451979810894571
  0.1110136090902074  0.9874040254258460  0.4352877719492909
  0.5793538898599877  0.5278893797469308  0.3925696177635487
  0.1385508906432307  0.9021447601619528  0.4728296828896674
  0.4804218533196263  0.5815830272161833  0.4003256573625720
  0.8530901782383893  0.9390140643916141  0.4742266141238147
  0.5839599587488280  0.5802762677804765  0.5591962274059838
  0.9544855237695700  0.9014033998184203  0.4440435127490190
  0.5813566139454664  0.6207220352990106  0.4944000680872591
  0.0388394527364895  0.8384099306151569  0.4818114827552193
  0.4808164095382850  0.6308045050873403  0.4643342064341098
 
  0.00000000E+00  0.00000000E+00  0.00000000E+00
  0.00000000E+00  0.00000000E+00  0.00000000E+00
  0.00000000E+00  0.00000000E+00  0.00000000E+00
  0.00000000E+00  0.00000000E+00  0.00000000E+00
  0.00000000E+00  0.00000000E+00  0.00000000E+00
  0.00000000E+00  0.00000000E+00  0.00000000E+00
  0.00000000E+00  0.00000000E+00  0.00000000E+00
  0.00000000E+00  0.00000000E+00  0.00000000E+00
  0.00000000E+00  0.00000000E+00  0.00000000E+00
  0.00000000E+00  0.00000000E+00  0.00000000E+00
  0.00000000E+00  0.00000000E+00  0.00000000E+00
  0.00000000E+00  0.00000000E+00  0.00000000E+00
  0.00000000E+00  0.00000000E+00  0.00000000E+00
  0.00000000E+00  0.00000000E+00  0.00000000E+00
  0.00000000E+00  0.00000000E+00  0.00000000E+00
  0.00000000E+00  0.00000000E+00  0.00000000E+00
  0.00000000E+00  0.00000000E+00  0.00000000E+00
  0.00000000E+00  0.00000000E+00  0.00000000E+00
  0.00000000E+00  0.00000000E+00  0.00000000E+00
  0.00000000E+00  0.00000000E+00  0.00000000E+00
  0.00000000E+00  0.00000000E+00  0.00000000E+00
  0.00000000E+00  0.00000000E+00  0.00000000E+00
  0.00000000E+00  0.00000000E+00  0.00000000E+00
  0.00000000E+00  0.00000000E+00  0.00000000E+00
  0.00000000E+00  0.00000000E+00  0.00000000E+00
  0.00000000E+00  0.00000000E+00  0.00000000E+00
  0.00000000E+00  0.00000000E+00  0.00000000E+00
  0.00000000E+00  0.00000000E+00  0.00000000E+00
  0.00000000E+00  0.00000000E+00  0.00000000E+00
  0.00000000E+00  0.00000000E+00  0.00000000E+00
  0.00000000E+00  0.00000000E+00  0.00000000E+00
  0.00000000E+00  0.00000000E+00  0.00000000E+00
  0.00000000E+00  0.00000000E+00  0.00000000E+00
  0.00000000E+00  0.00000000E+00  0.00000000E+00
  0.00000000E+00  0.00000000E+00  0.00000000E+00
  0.00000000E+00  0.00000000E+00  0.00000000E+00
  0.00000000E+00  0.00000000E+00  0.00000000E+00
  0.00000000E+00  0.00000000E+00  0.00000000E+00
  0.00000000E+00  0.00000000E+00  0.00000000E+00
  0.00000000E+00  0.00000000E+00  0.00000000E+00
  0.00000000E+00  0.00000000E+00  0.00000000E+00
  0.00000000E+00  0.00000000E+00  0.00000000E+00
  0.00000000E+00  0.00000000E+00  0.00000000E+00
  0.00000000E+00  0.00000000E+00  0.00000000E+00
  0.00000000E+00  0.00000000E+00  0.00000000E+00
  0.00000000E+00  0.00000000E+00  0.00000000E+00
  0.00000000E+00  0.00000000E+00  0.00000000E+00
  0.00000000E+00  0.00000000E+00  0.00000000E+00
  0.00000000E+00  0.00000000E+00  0.00000000E+00
  0.00000000E+00  0.00000000E+00  0.00000000E+00
  0.00000000E+00  0.00000000E+00  0.00000000E+00
  0.00000000E+00  0.00000000E+00  0.00000000E+00
  0.00000000E+00  0.00000000E+00  0.00000000E+00
  0.00000000E+00  0.00000000E+00  0.00000000E+00
  0.00000000E+00  0.00000000E+00  0.00000000E+00
  0.00000000E+00  0.00000000E+00  0.00000000E+00
  0.00000000E+00  0.00000000E+00  0.00000000E+00
  0.00000000E+00  0.00000000E+00  0.00000000E+00
  0.00000000E+00  0.00000000E+00  0.00000000E+00
  0.00000000E+00  0.00000000E+00  0.00000000E+00
  0.00000000E+00  0.00000000E+00  0.00000000E+00
  0.00000000E+00  0.00000000E+00  0.00000000E+00
  0.00000000E+00  0.00000000E+00  0.00000000E+00
  0.00000000E+00  0.00000000E+00  0.00000000E+00
  0.00000000E+00  0.00000000E+00  0.00000000E+00
  0.00000000E+00  0.00000000E+00  0.00000000E+00
  0.00000000E+00  0.00000000E+00  0.00000000E+00
  0.00000000E+00  0.00000000E+00  0.00000000E+00
  0.00000000E+00  0.00000000E+00  0.00000000E+00
  0.00000000E+00  0.00000000E+00  0.00000000E+00
  0.00000000E+00  0.00000000E+00  0.00000000E+00
  0.00000000E+00  0.00000000E+00  0.00000000E+00
  0.00000000E+00  0.00000000E+00  0.00000000E+00
  0.00000000E+00  0.00000000E+00  0.00000000E+00
  0.00000000E+00  0.00000000E+00  0.00000000E+00
  0.00000000E+00  0.00000000E+00  0.00000000E+00
  0.00000000E+00  0.00000000E+00  0.00000000E+00
  0.00000000E+00  0.00000000E+00  0.00000000E+00
  0.00000000E+00  0.00000000E+00  0.00000000E+00
  0.00000000E+00  0.00000000E+00  0.00000000E+00
  0.00000000E+00  0.00000000E+00  0.00000000E+00
  0.00000000E+00  0.00000000E+00  0.00000000E+00
  0.00000000E+00  0.00000000E+00  0.00000000E+00
  0.00000000E+00  0.00000000E+00  0.00000000E+00
  0.00000000E+00  0.00000000E+00  0.00000000E+00
  0.00000000E+00  0.00000000E+00  0.00000000E+00
  0.00000000E+00  0.00000000E+00  0.00000000E+00
  0.00000000E+00  0.00000000E+00  0.00000000E+00
  0.00000000E+00  0.00000000E+00  0.00000000E+00
  0.00000000E+00  0.00000000E+00  0.00000000E+00
  0.00000000E+00  0.00000000E+00  0.00000000E+00
  0.00000000E+00  0.00000000E+00  0.00000000E+00
  0.00000000E+00  0.00000000E+00  0.00000000E+00
  0.00000000E+00  0.00000000E+00  0.00000000E+00
  0.00000000E+00  0.00000000E+00  0.00000000E+00
  0.00000000E+00  0.00000000E+00  0.00000000E+00
  0.00000000E+00  0.00000000E+00  0.00000000E+00
  0.00000000E+00  0.00000000E+00  0.00000000E+00
  0.00000000E+00  0.00000000E+00  0.00000000E+00
  0.00000000E+00  0.00000000E+00  0.00000000E+00
  0.00000000E+00  0.00000000E+00  0.00000000E+00
  0.00000000E+00  0.00000000E+00  0.00000000E+00
  0.00000000E+00  0.00000000E+00  0.00000000E+00
  0.00000000E+00  0.00000000E+00  0.00000000E+00
  0.00000000E+00  0.00000000E+00  0.00000000E+00
  0.00000000E+00  0.00000000E+00  0.00000000E+00
  0.00000000E+00  0.00000000E+00  0.00000000E+00
  0.00000000E+00  0.00000000E+00  0.00000000E+00
  0.00000000E+00  0.00000000E+00  0.00000000E+00
  0.00000000E+00  0.00000000E+00  0.00000000E+00
  0.00000000E+00  0.00000000E+00  0.00000000E+00
  0.00000000E+00  0.00000000E+00  0.00000000E+00
  0.00000000E+00  0.00000000E+00  0.00000000E+00
  0.00000000E+00  0.00000000E+00  0.00000000E+00
  0.00000000E+00  0.00000000E+00  0.00000000E+00
  0.00000000E+00  0.00000000E+00  0.00000000E+00
  0.00000000E+00  0.00000000E+00  0.00000000E+00
  0.00000000E+00  0.00000000E+00  0.00000000E+00
  0.00000000E+00  0.00000000E+00  0.00000000E+00
  0.00000000E+00  0.00000000E+00  0.00000000E+00
