Generated by VASPKIT code               
   1.00000000000000     
    12.9279845101553992    0.1153743197310191    0.0000000000000000
     0.1160208990541177   13.0991670940814124    0.0000000000000000
     0.0000000000000013    0.0000000000000013   20.2294278635700948
  C             
   132
Direct
  0.5025817825850041  0.2885432236654779  0.5352169893966519
  0.4201721180950884  0.3206349028429045  0.5725400607383193
  0.4604516122546300  0.4023427845165628  0.6149028825523999
  0.6092328237127802  0.3235987876741504  0.5622958915501144
  0.5690893386964007  0.4080165606421247  0.6112985971674973
  0.6476245026807845  0.3762586911730210  0.5000376805736693
  0.5025860100919814  0.2885421759309708  0.4648632582152743
  0.6092395791478253  0.3235907876496213  0.4377829665287578
  0.4201803304894156  0.3206259777190397  0.4275332225737500
  0.3165042688642998  0.3482815356743103  0.5432652624378633
  0.3165062698592322  0.3482732022646076  0.4567982299769469
  0.3917305618773952  0.4906885564071004  0.6080535993170741
  0.3195225092339697  0.4626519812764300  0.5585092505117615
  0.4308951061521071  0.5920030052595706  0.6112849185907692
  0.6082561943447686  0.5093307659408666  0.6080631116856310
  0.5395347164817892  0.5976771210111167  0.6148959695041327
  0.6827919012573105  0.4754728909135153  0.5000356025953394
  0.6804694172423638  0.5373574828205534  0.5585177422370720
  0.6804736859324478  0.5373446473499257  0.4415492674635075
  0.5691048320032266  0.4079892334186468  0.3887683417841927
  0.4604648057235750  0.4023217132491439  0.3851614656638844
  0.6082728649747153  0.5093063575941272  0.3919989455388944
  0.3195350216833504  0.4626409596929406  0.4415389292407141
  0.3172132001121142  0.5245209179304737  0.5000201818192878
  0.3917457123790058  0.4906695502412077  0.3919932125843886
  0.3907579205234271  0.6764044486739280  0.5622744781101758
  0.3523773047376579  0.6237388450005454  0.5000160325996674
  0.5798179039851874  0.6793756272578122  0.5725287712754934
  0.6834940674754009  0.6517257945076409  0.5432640288791859
  0.6834964599348936  0.6517186795191776  0.4567955710431235
  0.4974148721598013  0.7114569110482023  0.5351996866131046
  0.5395541877784211  0.5976532320184234  0.3851565271631259
  0.4309124924908332  0.5919870043473168  0.3887551813580643
  0.3907671167068187  0.6764015086613711  0.4377606857953609
  0.5798279509825122  0.6793577019782262  0.4275227445559153
  0.4974193520505992  0.7114488676507023  0.4648446627058078
  0.8772707569968574  0.6372765765543988  0.6051391664492982
  0.1227391739583013  0.3627333535309560  0.6051403219430114
  0.3737824957343747  0.8742777660056262  0.6061906280604674
  0.6262053775046752  0.1257121722359500  0.6062106497862843
  0.9604180861882270  0.7056925835670569  0.6117168184364488
  0.0395909528039198  0.2943193024355963  0.6117287110721463
  0.2967423120626052  0.9515505093216206  0.6126420826163255
  0.7032486110583207  0.0484393343583847  0.6126519430317856
  0.7932717860836718  0.6982789425799325  0.5656534500849162
  0.2067323566758574  0.3017277465338992  0.5656554160296139
  0.3234723407967337  0.7838700503202887  0.5713259118901064
  0.6765184276370064  0.2161238811928357  0.5713510551308474
  0.9356979370210894  0.8050151281239835  0.5817401624765495
  0.0643091798217057  0.1949913110478221  0.5817572256220345
  0.1999312442692656  0.9189973560276030  0.5827368177345136
  0.8000630172828522  0.0809995693152672  0.5827525421327593
  0.8284328139392514  0.8097240506230960  0.5741956866513362
  0.1715699183113912  0.1902806482777279  0.5741991307071785
  0.2058987320906667  0.8128771266033041  0.5773976826342917
  0.7940977270026508  0.1871214399450025  0.5774224000349690
  0.8402857879288277  0.6685340546746588  0.5000332718069984
  0.1597163256719583  0.3314670361942831  0.5000333014670986
  0.3444029947745122  0.8249236836869613  0.5000244241108902
  0.6555941334960593  0.1750741610439306  0.5000465323602299
  0.7932719333049221  0.6982700178785564  0.4344035564905298
  0.2067256745319099  0.3017247166536166  0.4344056978888560
  0.3234831988462687  0.7838766750465282  0.4287184346734634
  0.6765222107658886  0.2161247208674553  0.4287433891509025
  0.8284278792324713  0.8097133684453723  0.4258585503332313
  0.1715681673841303  0.1902837273895344  0.4258627768101491
  0.2059004125357333  0.8128832886690276  0.4226387479133180
  0.7941002852515879  0.1871217663404465  0.4226642070392046
  0.8956115943732357  0.5827755970418522  0.5000293032211403
  0.1043897902389048  0.4172272257579905  0.5000306147205720
  0.4208818608298870  0.8921683205068618  0.5000282324981171
  0.5791146837299266  0.1078275806556022  0.5000455638048464
  0.9304534176007024  0.5502303605073848  0.5671843144927990
  0.0695531096783171  0.4497772417215344  0.5671856600696614
  0.4543251142558375  0.9297032368526175  0.5667201200087604
  0.5456705243972095  0.0702907273578859  0.5667313088458741
  0.0513748846395643  0.5680963828768881  0.5671940320919120
  0.9486316810343851  0.4319121932159433  0.5672041257250342
  0.4274894361645849  0.0479183748384600  0.5667062135125178
  0.5725079466621423  0.9520772529162116  0.5667056397949253
  0.9304459947555301  0.5502294873821327  0.4328737506396152
  0.0695503637604702  0.4497670037247516  0.4328746499320957
  0.4543235288291214  0.9297117879554264  0.4333435101379948
  0.5456798893515327  0.0702922084613107  0.4333541401662515
  0.0513667406876195  0.5680968675830087  0.4328532592694998
  0.9486277062290753  0.4318983985395164  0.4328642957335944
  0.4274926896415963  0.0479265818628178  0.4333677786295667
  0.5725084842827499  0.9520777844267840  0.4333664059709506
  0.0854322150245892  0.6027837836574150  0.5000206940496241
  0.9145676625092989  0.3972187145825359  0.5000361410645269
  0.3898413499466500  0.0799178854913691  0.5000388040345882
  0.6101610257530083  0.9200827683382258  0.5000369306318717
  0.8772658485462301  0.6372693736806596  0.3949180892557536
  0.1227263633781988  0.3627236445480477  0.3949201402746496
  0.3737887761107004  0.8742989283071125  0.3938683679467374
  0.6262208864967604  0.1257079745609175  0.3938884980078825
  0.1155608417301508  0.7524303894805797  0.5602789263532628
  0.8844366552326903  0.2475743368790191  0.5603029322769473
  0.2340753495734305  0.0988012489254118  0.5600112072762116
  0.7659198906315083  0.9012001814834534  0.5600151557534545
  0.0621219883094355  0.6701448703976283  0.6035264592567557
  0.9378872832634286  0.3298684996803090  0.6035428921471890
  0.3228829929614250  0.0534818757912134  0.6036793013459345
  0.6771081623008826  0.9465059152150914  0.6036845546219141
  0.1301792356094182  0.6923588304369090  0.5000175126624740
  0.8698188037559333  0.3076444030507943  0.5000423028322061
  0.2939886712618076  0.1142167273637256  0.5000345220487645
  0.7060090775523946  0.8857859354907305  0.5000353962352477
  0.1155573666282095  0.7524296328519995  0.4397548781614162
  0.8844434186113546  0.2475724072737364  0.4397796850825060
  0.2340783591063555  0.0988070680527429  0.4400556204717958
  0.7659257502419194  0.9011956503839968  0.4400597612937389
  0.0621099405123999  0.6701359113134728  0.3965153304376443
  0.9378811380083576  0.3298551788833848  0.3965332062196438
  0.3228903823742115  0.0534928233148335  0.3963933576597540
  0.6771173689537662  0.9465199931181161  0.3963986465966087
  0.9604075089474762  0.7056798832355184  0.3883229466566789
  0.0395813359906114  0.2943115761352573  0.3883364969950520
  0.2967493105350556  0.9515625717139287  0.3874177433859387
  0.7032610152251380  0.0484455002808346  0.3874246937800336
  0.0196591033064948  0.8204036443220062  0.5350217224718321
  0.9803394233609168  0.1796004980277317  0.5350428361660704
  0.1745114843505107  0.0003882026304751  0.5351218025895434
  0.8254836957897069  0.9996138265601573  0.5351330939081009
  0.0196579842994424  0.8204011246895817  0.4650112791656511
  0.9803397518109449  0.1795984783345403  0.4650331645284496
  0.1745142320584634  0.0003943364970453  0.4649333324124854
  0.8254907046172022  0.9996090023329955  0.4649435332582428
  0.9356901031686675  0.8050081627522587  0.4182944079270783
  0.0643021085500877  0.1949876109243505  0.4183108476077706
  0.1999332403765948  0.9190068482070402  0.4173121894303975
  0.8000717064209866  0.0810006676053874  0.4173260535178258
 
  0.00000000E+00  0.00000000E+00  0.00000000E+00
  0.00000000E+00  0.00000000E+00  0.00000000E+00
  0.00000000E+00  0.00000000E+00  0.00000000E+00
  0.00000000E+00  0.00000000E+00  0.00000000E+00
  0.00000000E+00  0.00000000E+00  0.00000000E+00
  0.00000000E+00  0.00000000E+00  0.00000000E+00
  0.00000000E+00  0.00000000E+00  0.00000000E+00
  0.00000000E+00  0.00000000E+00  0.00000000E+00
  0.00000000E+00  0.00000000E+00  0.00000000E+00
  0.00000000E+00  0.00000000E+00  0.00000000E+00
  0.00000000E+00  0.00000000E+00  0.00000000E+00
  0.00000000E+00  0.00000000E+00  0.00000000E+00
  0.00000000E+00  0.00000000E+00  0.00000000E+00
  0.00000000E+00  0.00000000E+00  0.00000000E+00
  0.00000000E+00  0.00000000E+00  0.00000000E+00
  0.00000000E+00  0.00000000E+00  0.00000000E+00
  0.00000000E+00  0.00000000E+00  0.00000000E+00
  0.00000000E+00  0.00000000E+00  0.00000000E+00
  0.00000000E+00  0.00000000E+00  0.00000000E+00
  0.00000000E+00  0.00000000E+00  0.00000000E+00
  0.00000000E+00  0.00000000E+00  0.00000000E+00
  0.00000000E+00  0.00000000E+00  0.00000000E+00
  0.00000000E+00  0.00000000E+00  0.00000000E+00
  0.00000000E+00  0.00000000E+00  0.00000000E+00
  0.00000000E+00  0.00000000E+00  0.00000000E+00
  0.00000000E+00  0.00000000E+00  0.00000000E+00
  0.00000000E+00  0.00000000E+00  0.00000000E+00
  0.00000000E+00  0.00000000E+00  0.00000000E+00
  0.00000000E+00  0.00000000E+00  0.00000000E+00
  0.00000000E+00  0.00000000E+00  0.00000000E+00
  0.00000000E+00  0.00000000E+00  0.00000000E+00
  0.00000000E+00  0.00000000E+00  0.00000000E+00
  0.00000000E+00  0.00000000E+00  0.00000000E+00
  0.00000000E+00  0.00000000E+00  0.00000000E+00
  0.00000000E+00  0.00000000E+00  0.00000000E+00
  0.00000000E+00  0.00000000E+00  0.00000000E+00
  0.00000000E+00  0.00000000E+00  0.00000000E+00
  0.00000000E+00  0.00000000E+00  0.00000000E+00
  0.00000000E+00  0.00000000E+00  0.00000000E+00
  0.00000000E+00  0.00000000E+00  0.00000000E+00
  0.00000000E+00  0.00000000E+00  0.00000000E+00
  0.00000000E+00  0.00000000E+00  0.00000000E+00
  0.00000000E+00  0.00000000E+00  0.00000000E+00
  0.00000000E+00  0.00000000E+00  0.00000000E+00
  0.00000000E+00  0.00000000E+00  0.00000000E+00
  0.00000000E+00  0.00000000E+00  0.00000000E+00
  0.00000000E+00  0.00000000E+00  0.00000000E+00
  0.00000000E+00  0.00000000E+00  0.00000000E+00
  0.00000000E+00  0.00000000E+00  0.00000000E+00
  0.00000000E+00  0.00000000E+00  0.00000000E+00
  0.00000000E+00  0.00000000E+00  0.00000000E+00
  0.00000000E+00  0.00000000E+00  0.00000000E+00
  0.00000000E+00  0.00000000E+00  0.00000000E+00
  0.00000000E+00  0.00000000E+00  0.00000000E+00
  0.00000000E+00  0.00000000E+00  0.00000000E+00
  0.00000000E+00  0.00000000E+00  0.00000000E+00
  0.00000000E+00  0.00000000E+00  0.00000000E+00
  0.00000000E+00  0.00000000E+00  0.00000000E+00
  0.00000000E+00  0.00000000E+00  0.00000000E+00
  0.00000000E+00  0.00000000E+00  0.00000000E+00
  0.00000000E+00  0.00000000E+00  0.00000000E+00
  0.00000000E+00  0.00000000E+00  0.00000000E+00
  0.00000000E+00  0.00000000E+00  0.00000000E+00
  0.00000000E+00  0.00000000E+00  0.00000000E+00
  0.00000000E+00  0.00000000E+00  0.00000000E+00
  0.00000000E+00  0.00000000E+00  0.00000000E+00
  0.00000000E+00  0.00000000E+00  0.00000000E+00
  0.00000000E+00  0.00000000E+00  0.00000000E+00
  0.00000000E+00  0.00000000E+00  0.00000000E+00
  0.00000000E+00  0.00000000E+00  0.00000000E+00
  0.00000000E+00  0.00000000E+00  0.00000000E+00
  0.00000000E+00  0.00000000E+00  0.00000000E+00
  0.00000000E+00  0.00000000E+00  0.00000000E+00
  0.00000000E+00  0.00000000E+00  0.00000000E+00
  0.00000000E+00  0.00000000E+00  0.00000000E+00
  0.00000000E+00  0.00000000E+00  0.00000000E+00
  0.00000000E+00  0.00000000E+00  0.00000000E+00
  0.00000000E+00  0.00000000E+00  0.00000000E+00
  0.00000000E+00  0.00000000E+00  0.00000000E+00
  0.00000000E+00  0.00000000E+00  0.00000000E+00
  0.00000000E+00  0.00000000E+00  0.00000000E+00
  0.00000000E+00  0.00000000E+00  0.00000000E+00
  0.00000000E+00  0.00000000E+00  0.00000000E+00
  0.00000000E+00  0.00000000E+00  0.00000000E+00
  0.00000000E+00  0.00000000E+00  0.00000000E+00
  0.00000000E+00  0.00000000E+00  0.00000000E+00
  0.00000000E+00  0.00000000E+00  0.00000000E+00
  0.00000000E+00  0.00000000E+00  0.00000000E+00
  0.00000000E+00  0.00000000E+00  0.00000000E+00
  0.00000000E+00  0.00000000E+00  0.00000000E+00
  0.00000000E+00  0.00000000E+00  0.00000000E+00
  0.00000000E+00  0.00000000E+00  0.00000000E+00
  0.00000000E+00  0.00000000E+00  0.00000000E+00
  0.00000000E+00  0.00000000E+00  0.00000000E+00
  0.00000000E+00  0.00000000E+00  0.00000000E+00
  0.00000000E+00  0.00000000E+00  0.00000000E+00
  0.00000000E+00  0.00000000E+00  0.00000000E+00
  0.00000000E+00  0.00000000E+00  0.00000000E+00
  0.00000000E+00  0.00000000E+00  0.00000000E+00
  0.00000000E+00  0.00000000E+00  0.00000000E+00
  0.00000000E+00  0.00000000E+00  0.00000000E+00
  0.00000000E+00  0.00000000E+00  0.00000000E+00
  0.00000000E+00  0.00000000E+00  0.00000000E+00
  0.00000000E+00  0.00000000E+00  0.00000000E+00
  0.00000000E+00  0.00000000E+00  0.00000000E+00
  0.00000000E+00  0.00000000E+00  0.00000000E+00
  0.00000000E+00  0.00000000E+00  0.00000000E+00
  0.00000000E+00  0.00000000E+00  0.00000000E+00
  0.00000000E+00  0.00000000E+00  0.00000000E+00
  0.00000000E+00  0.00000000E+00  0.00000000E+00
  0.00000000E+00  0.00000000E+00  0.00000000E+00
  0.00000000E+00  0.00000000E+00  0.00000000E+00
  0.00000000E+00  0.00000000E+00  0.00000000E+00
  0.00000000E+00  0.00000000E+00  0.00000000E+00
  0.00000000E+00  0.00000000E+00  0.00000000E+00
  0.00000000E+00  0.00000000E+00  0.00000000E+00
  0.00000000E+00  0.00000000E+00  0.00000000E+00
  0.00000000E+00  0.00000000E+00  0.00000000E+00
  0.00000000E+00  0.00000000E+00  0.00000000E+00
  0.00000000E+00  0.00000000E+00  0.00000000E+00
  0.00000000E+00  0.00000000E+00  0.00000000E+00
  0.00000000E+00  0.00000000E+00  0.00000000E+00
  0.00000000E+00  0.00000000E+00  0.00000000E+00
  0.00000000E+00  0.00000000E+00  0.00000000E+00
  0.00000000E+00  0.00000000E+00  0.00000000E+00
  0.00000000E+00  0.00000000E+00  0.00000000E+00
  0.00000000E+00  0.00000000E+00  0.00000000E+00
  0.00000000E+00  0.00000000E+00  0.00000000E+00
  0.00000000E+00  0.00000000E+00  0.00000000E+00
  0.00000000E+00  0.00000000E+00  0.00000000E+00
  0.00000000E+00  0.00000000E+00  0.00000000E+00
  0.00000000E+00  0.00000000E+00  0.00000000E+00
