Generated by VASPKIT code               
   1.00000000000000     
    16.6581820549405499   -0.2307127249317055    0.0000000000000000
    -8.5294318245648526   14.7684900774409105    0.0000000000000000
     0.0000000000000012    0.0000000000000022   20.2201319340016994
  C             
   144
Direct
  0.1358710139464279  0.5892299354755295  0.5314970719696674
  0.6609879801658636  0.1498379275174599  0.4933594048188183
  0.1923178377243033  0.6438292937366157  0.5858509725083039
  0.7173700394958473  0.2134862734478986  0.5488537279303642
  0.2454668620708063  0.6027758853306793  0.6096193811836557
  0.6618120491997317  0.2336408000899013  0.5909834850434592
  0.1530274187966469  0.5138095564547598  0.5204858267891765
  0.5679026523890300  0.1501395314404519  0.5016433097433151
  0.2227259049592263  0.5256595506611177  0.5679532902840521
  0.5713357533104642  0.1986048045115254  0.5614156893237592
  0.1761161337379349  0.5153001432945956  0.4513204646399700
  0.5494299309441502  0.1866201100622291  0.4428439572602372
  0.1488430101675249  0.6339784030933018  0.4710570979397346
  0.6954868792626598  0.2006545188034821  0.4285817239234149
  0.1726262056675125  0.5911119380388925  0.4213250906706278
  0.6264310810156530  0.2142283337913540  0.3980824753516572
  0.1998338623771971  0.7368906242152207  0.4614297775811451
  0.7835389764991518  0.2779524580009323  0.4195939733759744
  0.2532590282310920  0.7390840383034174  0.5809146179364717
  0.8058852249356434  0.2905379742014276  0.5409531375233598
  0.2643212203172070  0.7832013742612176  0.5192859926590216
  0.8407954520701679  0.3253140074026177  0.4758177361970866
  0.3409446153353599  0.6736886606984314  0.6200141467657403
  0.7178521685802295  0.3274606346210405  0.6131389198244008
  0.3463686492301221  0.7575138487845123  0.6001120830208606
  0.8064311021728301  0.3635436494720423  0.5798201197062198
  0.4134585245143469  0.6585430931860614  0.6000179611148724
  0.6747657077860225  0.3798217653665361  0.6161732808872316
  0.2964129588233817  0.5116495367947849  0.5486381739083228
  0.5267342610527947  0.2510523637168802  0.5661393080681094
  0.3877491924042786  0.5725066758435915  0.5685899458251740
  0.5772792986372792  0.3382603494116339  0.5957372091761783
  0.2473500218063265  0.4994133654807982  0.4300112772110651
  0.5038830575310413  0.2385365590629647  0.4453515753845423
  0.2957731400664372  0.4702897204166234  0.4807058559174138
  0.4668136426997265  0.2537721161695572  0.5102418925705763
  0.3129679447727014  0.5592789468055273  0.3829759791792213
  0.5425350455839180  0.3192193449650773  0.4068267774569421
  0.2479596811608857  0.6604455800982691  0.3821445038668259
  0.6722817542973942  0.3025240358197649  0.3654887351613141
  0.2705801380722903  0.7478195416677522  0.4073298376731742
  0.7698430696190712  0.3436222677649710  0.3811828570289535
  0.3193748369113223  0.6430839401655746  0.3618410086399848
  0.6296460486536688  0.3552203524154791  0.3695431682838617
  0.3586133809840746  0.8295929758068112  0.4995443516892308
  0.8623872072828860  0.4182527248846668  0.4731531828882893
  0.4112800989514511  0.8140188971164690  0.5502205695478466
  0.8396252834148328  0.4410703171134003  0.5374412156700004
  0.3641622791279531  0.8070378126767608  0.4309100401880315
  0.8180577925722261  0.4297349152369279  0.4143673722241630
  0.4877495537078644  0.7254591902014766  0.5601754757658455
  0.7200864845215804  0.4667130984024723  0.5840840024530252
  0.4813619839321177  0.7967177254777980  0.5306468600429284
  0.7944405023088095  0.4914182115650902  0.5406500203379139
  0.4529258624073691  0.5854674953515442  0.5151291174628199
  0.5626202613282629  0.4038539287349536  0.5615974927520924
  0.3997728553532127  0.5321293047076310  0.4607403703482760
  0.4931394894611998  0.3581135838763743  0.5068563458826389
  0.4065902895682214  0.5778198502025234  0.4013167102581434
  0.5403408807288272  0.3917467138383302  0.4411011393480848
  0.5144142379592864  0.6810085521897449  0.5092152812030548
  0.6505856969599648  0.4821285398546920  0.5515214175160565
  0.4141773231576877  0.7141980231943066  0.3730864332171180
  0.6853411634995297  0.4480721326146337  0.3904380616715386
  0.4375610771042986  0.7928571428359774  0.4110352762150669
  0.7747821672164861  0.4823318306679596  0.4176579817659487
  0.5173465030971585  0.8125487919012215  0.4588862366065243
  0.7852601145530258  0.5389176797811288  0.4792216767822879
  0.4686043153552077  0.6738905923300891  0.3955312836819047
  0.6293058497803585  0.4706975287554158  0.4340531085080102
  0.5247942864748438  0.7261724886237033  0.4488401090903693
  0.6851459275797325  0.5214844021318186  0.4883245997890313
  0.8526045153927697  0.9964193907022789  0.5910983158128786
  0.9656879477276661  0.8356490086263904  0.5889048489442175
  0.1830721288942598  0.1708167773246174  0.6487682198521227
  0.7586075091289999  0.9739243014762309  0.6137395771784000
  0.0086640340553359  0.7861129653992691  0.6101850518303138
  0.2459001802382659  0.2630339364008307  0.6594885431546018
  0.8524125623735799  0.9244230905464264  0.5573068231642893
  0.0278939041491100  0.9150522773348655  0.5528278161547391
  0.0975573246249937  0.1562480278660843  0.6169872075192799
  0.6973526728895791  0.8986603806364002  0.5711263989475199
  0.0951892434684538  0.8248127944437655  0.5700938985453661
  0.2078451217737296  0.3086455638362153  0.6157902895421188
  0.7551096424889039  0.8714055869175894  0.5365224372745132
  0.1047719139977161  0.9039643606662366  0.5344062823068398
  0.1153072278471825  0.2436154949915164  0.5920321054778483
  0.9154348223452544  0.9615232143195556  0.4961163050010100
  0.9789323142052595  0.9208272978324175  0.4918011292079498
  0.0822334525720336  0.1002601674594814  0.5625773283138855
  0.8438351477998864  0.9187144239169029  0.4418312933215844
  0.0426644786220223  0.9236684334925016  0.4366826768159484
  0.0521370197735820  0.1300762246372997  0.5013697188813069
  0.7498978147947710  0.8647989633553124  0.4662026530182786
  0.1157011086501925  0.9099102853451910  0.4640102341084003
  0.0980558564471465  0.2339804213445049  0.5207995427958849
  0.9452073832901107  0.0693416609443673  0.4931665067750117
  0.9017313909163249  0.8185319239813396  0.4840845275912145
  0.1619298336973998  0.0894179135483881  0.5525058981444744
  0.8956637961483622  0.0786816219565978  0.5545423122036084
  0.8870676678144989  0.7732328436448483  0.5440723305878450
  0.2260956995743584  0.1310173626107058  0.6064966448427711
  0.8271592246348405  0.1054926440629842  0.5533961860166912
  0.8786015198289689  0.6857184381445549  0.5443867572344345
  0.3199660519539194  0.2002572434080676  0.5944342316574804
  0.8878840313403842  0.0683219849333412  0.4314337486601332
  0.9071503858283734  0.7834995532939999  0.4210671361381486
  0.1901568985287128  0.1136591974439440  0.4848163983763598
  0.8194364254325279  0.0964619226783583  0.4326353866517820
  0.8967706943798248  0.6965139527879600  0.4179200629690456
  0.2837172183543970  0.1814065239606393  0.4715447219086641
  0.7907070836925030  0.1157884117144903  0.4925622901911808
  0.8713369897245826  0.6343183336722475  0.4791817937284861
  0.3609063970328634  0.2241992970914097  0.5236412847074376
  0.8429829203510764  0.9826884885173826  0.3986676538915717
  0.9952637506503734  0.8539882591570276  0.3892072305265728
  0.1237994727034817  0.1357037468925100  0.4519199786877266
  0.6649246720306792  0.0123657270145330  0.5523381504101650
  0.0078372492210335  0.6701928218543856  0.5463715983271840
  0.3548624203272723  0.3468824500533501  0.5800609953669067
  0.7458677762833261  0.0465547408713718  0.5956346011831428
  0.9513340806887385  0.6939871922764098  0.5857282571231579
  0.3332611126245979  0.2811519729990906  0.6292099883764593
  0.6802067308486599  0.0710724523922366  0.4935719347921506
  0.9648971334726895  0.6351708961904237  0.4850005513298257
  0.3907429608498987  0.3305292701081868  0.5180177140513464
  0.6508736285686254  0.0031106057825596  0.4362037215668551
  0.0266476485220153  0.6780826148906272  0.4322581583523544
  0.3259535581393251  0.3336185045375970  0.4686297054941662
  0.7310229634478063  0.0281848212930100  0.3996424801354053
  0.9846530180742619  0.7136865922769005  0.3907317959812957
  0.2757029702251970  0.2510925094953933  0.4362683379549566
  0.7455384586260578  0.9543292784652877  0.3827744815641410
  0.0469085094792661  0.8091062634549004  0.3769805053951671
  0.1782953910660083  0.2248577141126447  0.4303569864234049
  0.6409311536540301  0.9241268652612291  0.5335009678376395
  0.0932630838809914  0.7551709506375914  0.5327176025015277
  0.2777402094009531  0.3607669244909957  0.5690829316259780
  0.6155952912274714  0.9022147073637754  0.4602528658369422
  0.1208856034712227  0.7591683710122723  0.4589155390599657
  0.2629393031289453  0.3687413132017809  0.4943447281309687
  0.6899421734738524  0.8859948549874090  0.4284449135377173
  0.1203463219818275  0.8403794049216131  0.4258630987418854
  0.1655615517625435  0.2880671858009265  0.4744896672439864
 
  0.00000000E+00  0.00000000E+00  0.00000000E+00
  0.00000000E+00  0.00000000E+00  0.00000000E+00
  0.00000000E+00  0.00000000E+00  0.00000000E+00
  0.00000000E+00  0.00000000E+00  0.00000000E+00
  0.00000000E+00  0.00000000E+00  0.00000000E+00
  0.00000000E+00  0.00000000E+00  0.00000000E+00
  0.00000000E+00  0.00000000E+00  0.00000000E+00
  0.00000000E+00  0.00000000E+00  0.00000000E+00
  0.00000000E+00  0.00000000E+00  0.00000000E+00
  0.00000000E+00  0.00000000E+00  0.00000000E+00
  0.00000000E+00  0.00000000E+00  0.00000000E+00
  0.00000000E+00  0.00000000E+00  0.00000000E+00
  0.00000000E+00  0.00000000E+00  0.00000000E+00
  0.00000000E+00  0.00000000E+00  0.00000000E+00
  0.00000000E+00  0.00000000E+00  0.00000000E+00
  0.00000000E+00  0.00000000E+00  0.00000000E+00
  0.00000000E+00  0.00000000E+00  0.00000000E+00
  0.00000000E+00  0.00000000E+00  0.00000000E+00
  0.00000000E+00  0.00000000E+00  0.00000000E+00
  0.00000000E+00  0.00000000E+00  0.00000000E+00
  0.00000000E+00  0.00000000E+00  0.00000000E+00
  0.00000000E+00  0.00000000E+00  0.00000000E+00
  0.00000000E+00  0.00000000E+00  0.00000000E+00
  0.00000000E+00  0.00000000E+00  0.00000000E+00
  0.00000000E+00  0.00000000E+00  0.00000000E+00
  0.00000000E+00  0.00000000E+00  0.00000000E+00
  0.00000000E+00  0.00000000E+00  0.00000000E+00
  0.00000000E+00  0.00000000E+00  0.00000000E+00
  0.00000000E+00  0.00000000E+00  0.00000000E+00
  0.00000000E+00  0.00000000E+00  0.00000000E+00
  0.00000000E+00  0.00000000E+00  0.00000000E+00
  0.00000000E+00  0.00000000E+00  0.00000000E+00
  0.00000000E+00  0.00000000E+00  0.00000000E+00
  0.00000000E+00  0.00000000E+00  0.00000000E+00
  0.00000000E+00  0.00000000E+00  0.00000000E+00
  0.00000000E+00  0.00000000E+00  0.00000000E+00
  0.00000000E+00  0.00000000E+00  0.00000000E+00
  0.00000000E+00  0.00000000E+00  0.00000000E+00
  0.00000000E+00  0.00000000E+00  0.00000000E+00
  0.00000000E+00  0.00000000E+00  0.00000000E+00
  0.00000000E+00  0.00000000E+00  0.00000000E+00
  0.00000000E+00  0.00000000E+00  0.00000000E+00
  0.00000000E+00  0.00000000E+00  0.00000000E+00
  0.00000000E+00  0.00000000E+00  0.00000000E+00
  0.00000000E+00  0.00000000E+00  0.00000000E+00
  0.00000000E+00  0.00000000E+00  0.00000000E+00
  0.00000000E+00  0.00000000E+00  0.00000000E+00
  0.00000000E+00  0.00000000E+00  0.00000000E+00
  0.00000000E+00  0.00000000E+00  0.00000000E+00
  0.00000000E+00  0.00000000E+00  0.00000000E+00
  0.00000000E+00  0.00000000E+00  0.00000000E+00
  0.00000000E+00  0.00000000E+00  0.00000000E+00
  0.00000000E+00  0.00000000E+00  0.00000000E+00
  0.00000000E+00  0.00000000E+00  0.00000000E+00
  0.00000000E+00  0.00000000E+00  0.00000000E+00
  0.00000000E+00  0.00000000E+00  0.00000000E+00
  0.00000000E+00  0.00000000E+00  0.00000000E+00
  0.00000000E+00  0.00000000E+00  0.00000000E+00
  0.00000000E+00  0.00000000E+00  0.00000000E+00
  0.00000000E+00  0.00000000E+00  0.00000000E+00
  0.00000000E+00  0.00000000E+00  0.00000000E+00
  0.00000000E+00  0.00000000E+00  0.00000000E+00
  0.00000000E+00  0.00000000E+00  0.00000000E+00
  0.00000000E+00  0.00000000E+00  0.00000000E+00
  0.00000000E+00  0.00000000E+00  0.00000000E+00
  0.00000000E+00  0.00000000E+00  0.00000000E+00
  0.00000000E+00  0.00000000E+00  0.00000000E+00
  0.00000000E+00  0.00000000E+00  0.00000000E+00
  0.00000000E+00  0.00000000E+00  0.00000000E+00
  0.00000000E+00  0.00000000E+00  0.00000000E+00
  0.00000000E+00  0.00000000E+00  0.00000000E+00
  0.00000000E+00  0.00000000E+00  0.00000000E+00
  0.00000000E+00  0.00000000E+00  0.00000000E+00
  0.00000000E+00  0.00000000E+00  0.00000000E+00
  0.00000000E+00  0.00000000E+00  0.00000000E+00
  0.00000000E+00  0.00000000E+00  0.00000000E+00
  0.00000000E+00  0.00000000E+00  0.00000000E+00
  0.00000000E+00  0.00000000E+00  0.00000000E+00
  0.00000000E+00  0.00000000E+00  0.00000000E+00
  0.00000000E+00  0.00000000E+00  0.00000000E+00
  0.00000000E+00  0.00000000E+00  0.00000000E+00
  0.00000000E+00  0.00000000E+00  0.00000000E+00
  0.00000000E+00  0.00000000E+00  0.00000000E+00
  0.00000000E+00  0.00000000E+00  0.00000000E+00
  0.00000000E+00  0.00000000E+00  0.00000000E+00
  0.00000000E+00  0.00000000E+00  0.00000000E+00
  0.00000000E+00  0.00000000E+00  0.00000000E+00
  0.00000000E+00  0.00000000E+00  0.00000000E+00
  0.00000000E+00  0.00000000E+00  0.00000000E+00
  0.00000000E+00  0.00000000E+00  0.00000000E+00
  0.00000000E+00  0.00000000E+00  0.00000000E+00
  0.00000000E+00  0.00000000E+00  0.00000000E+00
  0.00000000E+00  0.00000000E+00  0.00000000E+00
  0.00000000E+00  0.00000000E+00  0.00000000E+00
  0.00000000E+00  0.00000000E+00  0.00000000E+00
  0.00000000E+00  0.00000000E+00  0.00000000E+00
  0.00000000E+00  0.00000000E+00  0.00000000E+00
  0.00000000E+00  0.00000000E+00  0.00000000E+00
  0.00000000E+00  0.00000000E+00  0.00000000E+00
  0.00000000E+00  0.00000000E+00  0.00000000E+00
  0.00000000E+00  0.00000000E+00  0.00000000E+00
  0.00000000E+00  0.00000000E+00  0.00000000E+00
  0.00000000E+00  0.00000000E+00  0.00000000E+00
  0.00000000E+00  0.00000000E+00  0.00000000E+00
  0.00000000E+00  0.00000000E+00  0.00000000E+00
  0.00000000E+00  0.00000000E+00  0.00000000E+00
  0.00000000E+00  0.00000000E+00  0.00000000E+00
  0.00000000E+00  0.00000000E+00  0.00000000E+00
  0.00000000E+00  0.00000000E+00  0.00000000E+00
  0.00000000E+00  0.00000000E+00  0.00000000E+00
  0.00000000E+00  0.00000000E+00  0.00000000E+00
  0.00000000E+00  0.00000000E+00  0.00000000E+00
  0.00000000E+00  0.00000000E+00  0.00000000E+00
  0.00000000E+00  0.00000000E+00  0.00000000E+00
  0.00000000E+00  0.00000000E+00  0.00000000E+00
  0.00000000E+00  0.00000000E+00  0.00000000E+00
  0.00000000E+00  0.00000000E+00  0.00000000E+00
  0.00000000E+00  0.00000000E+00  0.00000000E+00
  0.00000000E+00  0.00000000E+00  0.00000000E+00
  0.00000000E+00  0.00000000E+00  0.00000000E+00
  0.00000000E+00  0.00000000E+00  0.00000000E+00
  0.00000000E+00  0.00000000E+00  0.00000000E+00
  0.00000000E+00  0.00000000E+00  0.00000000E+00
  0.00000000E+00  0.00000000E+00  0.00000000E+00
  0.00000000E+00  0.00000000E+00  0.00000000E+00
  0.00000000E+00  0.00000000E+00  0.00000000E+00
  0.00000000E+00  0.00000000E+00  0.00000000E+00
  0.00000000E+00  0.00000000E+00  0.00000000E+00
  0.00000000E+00  0.00000000E+00  0.00000000E+00
  0.00000000E+00  0.00000000E+00  0.00000000E+00
  0.00000000E+00  0.00000000E+00  0.00000000E+00
  0.00000000E+00  0.00000000E+00  0.00000000E+00
  0.00000000E+00  0.00000000E+00  0.00000000E+00
  0.00000000E+00  0.00000000E+00  0.00000000E+00
  0.00000000E+00  0.00000000E+00  0.00000000E+00
  0.00000000E+00  0.00000000E+00  0.00000000E+00
  0.00000000E+00  0.00000000E+00  0.00000000E+00
  0.00000000E+00  0.00000000E+00  0.00000000E+00
  0.00000000E+00  0.00000000E+00  0.00000000E+00
  0.00000000E+00  0.00000000E+00  0.00000000E+00
  0.00000000E+00  0.00000000E+00  0.00000000E+00
  0.00000000E+00  0.00000000E+00  0.00000000E+00
  0.00000000E+00  0.00000000E+00  0.00000000E+00
  0.00000000E+00  0.00000000E+00  0.00000000E+00
