Generated by VASPKIT code               
   1.00000000000000     
    12.5366739520090125    0.2241115223138654    0.0000000000000000
    -6.0782374270887196   10.8600127230809473    0.0000000000000000
     0.0000000000000013    0.0000000000000022   20.2201742861995442
  C             
    96
Direct
  0.4163594610537587  0.4888911688301505  0.5660151047979340
  0.6138082506965503  0.5347431452771261  0.5655224934894605
  0.3613568248181238  0.4291921526256033  0.4999836078585460
  0.6741105055676897  0.5624199410613073  0.4999782515501110
  0.2249914225084808  0.3827890003570289  0.4999921938328384
  0.7851058579700236  0.5692484634050246  0.4999758324293708
  0.3195614838192000  0.5054921194511053  0.5989782566316038
  0.6983375523675477  0.4967662466914575  0.6036502017379348
  0.2109799176814278  0.4508088324466470  0.5620287832199793
  0.8037581000771112  0.5256702608676065  0.5642506582948457
  0.3707240768641142  0.6282903456429949  0.6240628036996725
  0.6309184368440270  0.3713536908464903  0.6242394030521581
  0.5339147493309895  0.6127477809105599  0.5654489556381890
  0.4914756415108741  0.4158073439955317  0.5660834665095322
  0.4951529330836664  0.6967445711057678  0.6035546234430598
  0.5090624990418107  0.3193218592169060  0.5992829301552760
  0.5612418913592094  0.6734775305369425  0.4999780689225020
  0.4330047680062705  0.3602536540441434  0.4999742143527186
  0.4163529462660733  0.4888884188638087  0.4339483983697647
  0.6138060529117624  0.5347471864661415  0.4344366306558740
  0.5339078394883998  0.6127376338104042  0.4345117029565557
  0.4914748661156523  0.4158180034327685  0.4338704834627833
  0.2109629192620730  0.4507821159040262  0.4379428423036629
  0.8037544222233564  0.5256819512321798  0.4357003106176478
  0.3195436189177414  0.5054637122557324  0.4009881986907189
  0.6983388643376571  0.4967874279529951  0.3963022829630347
  0.1352121959947397  0.5069633226909005  0.4382779753633983
  0.8615083069966616  0.4524186449811083  0.4367422177768177
  0.1352177792000404  0.5069787003853392  0.5616898484076387
  0.8615055059786343  0.4524029817250081  0.5631992537657169
  0.0638393823870587  0.5116279411130833  0.4999822093584143
  0.9236150170443906  0.4360158307459585  0.4999717832268402
  0.2940948214587280  0.6842686205528210  0.6240471865540442
  0.6867939593502967  0.2943700406704011  0.6241349867202288
  0.1743483300772084  0.6171250061188545  0.5969444574243852
  0.8072960163514509  0.3417467490856652  0.5982232038119690
  0.3408053108716018  0.8058253717401627  0.5983040618060897
  0.6204767411402017  0.1735593381286904  0.5971102565093389
  0.5235191990074597  0.8028515484970953  0.5642733051186326
  0.4561505998188551  0.2103819395109028  0.5621291095808374
  0.5672098090440301  0.7848563233177615  0.4999708561536877
  0.3899627813826001  0.2240871109563471  0.4999630313401795
  0.4505259764711766  0.8602659149876288  0.5632307337271598
  0.5113963598277849  0.1342989467598485  0.5618437564482548
  0.4951369931852057  0.6967122010171423  0.3963968362184929
  0.5090609010616944  0.3193477757862269  0.4006467038294730
  0.3707052362425785  0.6282511445579075  0.3758935510677333
  0.6309227889434084  0.3713862389907732  0.3756948484881377
  0.5235138317201375  0.8028392495668157  0.4356649142623823
  0.4561577993746226  0.2103973855387196  0.4377909084407392
  0.1743411148071559  0.6170963259622511  0.4030108370154366
  0.8073000309557585  0.3417756951388142  0.4017066296035949
  0.2940799454444800  0.6842355273279850  0.3759002412362236
  0.6868092950017584  0.2944082639927501  0.3757865990475011
  0.0926698195800952  0.6451014439836769  0.4999729845357805
  0.8748027491899464  0.2989660856517915  0.4999632102391800
  0.1440477956308968  0.7006549677556819  0.5600598524830431
  0.8183991393284415  0.2476158518170806  0.5601838081194686
  0.2476608141744521  0.8170365080062609  0.5601550326996403
  0.7029155846294017  0.1427920842813677  0.5600998855477997
  0.1440287238552003  0.7006334400300034  0.4398856048009492
  0.8184052128523547  0.2476362969834938  0.4397383149762106
  0.4352351214690913  0.9228012901747746  0.4999576428890293
  0.5149719223299769  0.0628997454338389  0.4999557496193390
  0.4505139504258011  0.8602502569222423  0.4366928520376021
  0.5114101331499583  0.1343155514800074  0.4380686908456113
  0.3407914150437463  0.8058063287147093  0.4016258260324435
  0.6204884684859735  0.1735859261614081  0.4028090831075417
  0.2987562183424330  0.8745854690405110  0.4999634690736485
  0.6474442314457320  0.0908978102596336  0.4999536959894826
  0.2476435301187081  0.8170182717208334  0.4397754407541399
  0.7029287883607935  0.1428066345922545  0.4398093256963875
  0.2486008817166194  0.1581715267003077  0.4999672027789046
  0.1917210880747859  0.0722545490727313  0.5568548527854631
  0.1915711896281138  0.0722111904144214  0.4431038347722378
  0.1171591713090265  0.9455253671471198  0.5358355716264640
  0.1170407588727969  0.9454904837269282  0.4641736998734061
  0.1202703360367394  0.0990237943690389  0.4015239678074067
  0.0134168490356501  0.9860144102100250  0.3810719292837206
  0.0091793121915984  0.8874141900093235  0.4266961493773564
  0.0860391511287375  0.1793488822404683  0.4376481374897310
  0.1631492392630065  0.2379120669163584  0.5000275650122745
  0.0862826141516848  0.1794253383665918  0.5624999512102136
  0.9596656967108856  0.1190963408290528  0.4379941018075897
  0.8984083224509121  0.0844811747758314  0.5001760753616438
  0.9599116933947869  0.1191662437958385  0.5622950149381722
  0.9148651406687449  0.0005627361995835  0.3999061846623420
  0.0138806986803104  0.9861261121056373  0.6191174240921455
  0.1206319420476305  0.0991186289400332  0.5985703577060448
  0.9152757333923773  0.0006692177626491  0.6003772263580913
  0.8323545516736175  0.9015771744023553  0.5589768107438999
  0.8149319457528534  0.9539808343729987  0.5002113489243669
  0.8321486876756055  0.9015352627260853  0.4413956210390708
  0.0094480994381101  0.8875158555427589  0.5734345785919928
  0.8987770126357759  0.8382894108519210  0.5363138712662945
  0.8986443343933672  0.8382665484349729  0.4639469458244960
 
  0.00000000E+00  0.00000000E+00  0.00000000E+00
  0.00000000E+00  0.00000000E+00  0.00000000E+00
  0.00000000E+00  0.00000000E+00  0.00000000E+00
  0.00000000E+00  0.00000000E+00  0.00000000E+00
  0.00000000E+00  0.00000000E+00  0.00000000E+00
  0.00000000E+00  0.00000000E+00  0.00000000E+00
  0.00000000E+00  0.00000000E+00  0.00000000E+00
  0.00000000E+00  0.00000000E+00  0.00000000E+00
  0.00000000E+00  0.00000000E+00  0.00000000E+00
  0.00000000E+00  0.00000000E+00  0.00000000E+00
  0.00000000E+00  0.00000000E+00  0.00000000E+00
  0.00000000E+00  0.00000000E+00  0.00000000E+00
  0.00000000E+00  0.00000000E+00  0.00000000E+00
  0.00000000E+00  0.00000000E+00  0.00000000E+00
  0.00000000E+00  0.00000000E+00  0.00000000E+00
  0.00000000E+00  0.00000000E+00  0.00000000E+00
  0.00000000E+00  0.00000000E+00  0.00000000E+00
  0.00000000E+00  0.00000000E+00  0.00000000E+00
  0.00000000E+00  0.00000000E+00  0.00000000E+00
  0.00000000E+00  0.00000000E+00  0.00000000E+00
  0.00000000E+00  0.00000000E+00  0.00000000E+00
  0.00000000E+00  0.00000000E+00  0.00000000E+00
  0.00000000E+00  0.00000000E+00  0.00000000E+00
  0.00000000E+00  0.00000000E+00  0.00000000E+00
  0.00000000E+00  0.00000000E+00  0.00000000E+00
  0.00000000E+00  0.00000000E+00  0.00000000E+00
  0.00000000E+00  0.00000000E+00  0.00000000E+00
  0.00000000E+00  0.00000000E+00  0.00000000E+00
  0.00000000E+00  0.00000000E+00  0.00000000E+00
  0.00000000E+00  0.00000000E+00  0.00000000E+00
  0.00000000E+00  0.00000000E+00  0.00000000E+00
  0.00000000E+00  0.00000000E+00  0.00000000E+00
  0.00000000E+00  0.00000000E+00  0.00000000E+00
  0.00000000E+00  0.00000000E+00  0.00000000E+00
  0.00000000E+00  0.00000000E+00  0.00000000E+00
  0.00000000E+00  0.00000000E+00  0.00000000E+00
  0.00000000E+00  0.00000000E+00  0.00000000E+00
  0.00000000E+00  0.00000000E+00  0.00000000E+00
  0.00000000E+00  0.00000000E+00  0.00000000E+00
  0.00000000E+00  0.00000000E+00  0.00000000E+00
  0.00000000E+00  0.00000000E+00  0.00000000E+00
  0.00000000E+00  0.00000000E+00  0.00000000E+00
  0.00000000E+00  0.00000000E+00  0.00000000E+00
  0.00000000E+00  0.00000000E+00  0.00000000E+00
  0.00000000E+00  0.00000000E+00  0.00000000E+00
  0.00000000E+00  0.00000000E+00  0.00000000E+00
  0.00000000E+00  0.00000000E+00  0.00000000E+00
  0.00000000E+00  0.00000000E+00  0.00000000E+00
  0.00000000E+00  0.00000000E+00  0.00000000E+00
  0.00000000E+00  0.00000000E+00  0.00000000E+00
  0.00000000E+00  0.00000000E+00  0.00000000E+00
  0.00000000E+00  0.00000000E+00  0.00000000E+00
  0.00000000E+00  0.00000000E+00  0.00000000E+00
  0.00000000E+00  0.00000000E+00  0.00000000E+00
  0.00000000E+00  0.00000000E+00  0.00000000E+00
  0.00000000E+00  0.00000000E+00  0.00000000E+00
  0.00000000E+00  0.00000000E+00  0.00000000E+00
  0.00000000E+00  0.00000000E+00  0.00000000E+00
  0.00000000E+00  0.00000000E+00  0.00000000E+00
  0.00000000E+00  0.00000000E+00  0.00000000E+00
  0.00000000E+00  0.00000000E+00  0.00000000E+00
  0.00000000E+00  0.00000000E+00  0.00000000E+00
  0.00000000E+00  0.00000000E+00  0.00000000E+00
  0.00000000E+00  0.00000000E+00  0.00000000E+00
  0.00000000E+00  0.00000000E+00  0.00000000E+00
  0.00000000E+00  0.00000000E+00  0.00000000E+00
  0.00000000E+00  0.00000000E+00  0.00000000E+00
  0.00000000E+00  0.00000000E+00  0.00000000E+00
  0.00000000E+00  0.00000000E+00  0.00000000E+00
  0.00000000E+00  0.00000000E+00  0.00000000E+00
  0.00000000E+00  0.00000000E+00  0.00000000E+00
  0.00000000E+00  0.00000000E+00  0.00000000E+00
  0.00000000E+00  0.00000000E+00  0.00000000E+00
  0.00000000E+00  0.00000000E+00  0.00000000E+00
  0.00000000E+00  0.00000000E+00  0.00000000E+00
  0.00000000E+00  0.00000000E+00  0.00000000E+00
  0.00000000E+00  0.00000000E+00  0.00000000E+00
  0.00000000E+00  0.00000000E+00  0.00000000E+00
  0.00000000E+00  0.00000000E+00  0.00000000E+00
  0.00000000E+00  0.00000000E+00  0.00000000E+00
  0.00000000E+00  0.00000000E+00  0.00000000E+00
  0.00000000E+00  0.00000000E+00  0.00000000E+00
  0.00000000E+00  0.00000000E+00  0.00000000E+00
  0.00000000E+00  0.00000000E+00  0.00000000E+00
  0.00000000E+00  0.00000000E+00  0.00000000E+00
  0.00000000E+00  0.00000000E+00  0.00000000E+00
  0.00000000E+00  0.00000000E+00  0.00000000E+00
  0.00000000E+00  0.00000000E+00  0.00000000E+00
  0.00000000E+00  0.00000000E+00  0.00000000E+00
  0.00000000E+00  0.00000000E+00  0.00000000E+00
  0.00000000E+00  0.00000000E+00  0.00000000E+00
  0.00000000E+00  0.00000000E+00  0.00000000E+00
  0.00000000E+00  0.00000000E+00  0.00000000E+00
  0.00000000E+00  0.00000000E+00  0.00000000E+00
  0.00000000E+00  0.00000000E+00  0.00000000E+00
  0.00000000E+00  0.00000000E+00  0.00000000E+00
