C 
 1.0000000000000000
    12.9006492119946721    0.0000000000000000    0.0000000000000000
    -6.4503246059973449   11.1722899428990861    0.0000000000000000
     0.0000000000000000    0.0000000000000000   16.0000000000000000
 C  
 108
Direct
  0.1867521651830461  0.1010596235293381  0.5720078236361050
  0.2024877735535270  0.1593539511197100  0.4929569971605999
  0.1006038854489287  0.1119154269880991  0.6220596062501649
  0.1043383122747265  0.1873954500843305  0.4865590423906875
  0.0420372684769965  0.1583154547640193  0.5652988723082013
  0.0079316167421529 -0.0034072165042266  0.6489404696005479
 -0.1075776032299720 -0.0218426723452809  0.6262171572080160
 -0.0851030951004180  0.0767055406448887  0.5679691944900418
  0.0241480974485427 -0.0921631289770032  0.6002176035380209
  0.1335317494776905 -0.0282447970587245  0.5531727101530488
  0.1322191875994195 -0.0417551864971235  0.4637549143879870
 -0.0866567752105852 -0.1696886297127334  0.5578737437227580
 -0.0879753597528717 -0.1832281954724247  0.4684956390305829
  0.0214129582119103 -0.1192871991838278  0.4214359647721943
 -0.1737190803124519 -0.1304805701277553  0.5796886244436624
  0.0964812065475829  0.0733269677358826  0.3686071047871022
  0.1848362781029585  0.0791021557413812  0.4256028102293011
  0.0031619054827203 -0.0480112246764156  0.3563532887149816
 -0.1116631154925355 -0.0604941909190409  0.3727554846901846
 -0.1756399599046567 -0.1525265740929243  0.4333317457181035
 -0.2136397308762916 -0.1079739455313790  0.5018622232260026
  0.0395205875351640  0.1347940612664362  0.4104868969597713
 -0.0875969756028483  0.0530823749922810  0.4131284641498080
 -0.1498912966027347  0.0240525242324922  0.4918872599453682
  0.3811098624040112  0.0983986627555175  0.6321040725315673
  0.5067392463750016  0.1701765818556893  0.6486967643111609
  0.3414242347799840  0.1602498883321161  0.5781792011478334
  0.5526112296086182  0.2718717327200382  0.5891529770637034
  0.4517661464817790  0.2657640924215732  0.5460250097968826
  0.2815687137858465  0.0888236711817195  0.5065027345951197
  0.3342990488050532  0.1535391028370352  0.4309049751296350
  0.4472726509676985  0.2617267952154810  0.4560899742962959
  0.3051666661793265 -0.0125702895871941  0.5073860960365632
  0.3660431568242636 -0.0066977390727294  0.5842175577508470
  0.4799181054857968 -0.0020426860902641  0.5821941532530206
  0.3581143135078004 -0.0138275176249569  0.4284513582889395
  0.4719257328476393 -0.0092097115777335  0.4264208306081644
  0.5328301825171032 -0.0033116336832964  0.5032577680248193
  0.3681573726672474  0.0867499829866477  0.3771007798141179
  0.6641821677430065  0.1733934937213207  0.5721555628930416
  0.5675663164495512  0.1060421988724375  0.6289575318957090
  0.6541413227202006  0.1039392761446021  0.4995361356283239
  0.6570331381565876  0.1665873303357093  0.4248982422744885
  0.5545139554594394  0.0942865916303519  0.3739413195787830
  0.4917195884099725  0.1566779227931219  0.3543170604444877
  0.6489308136478839  0.2738466758703133  0.5423519517468297
  0.6444271409356002  0.2696844067507900  0.4524205277282782
  0.5435759900526582  0.2636247693369541  0.4093022191179170
  0.1666162343434446 -0.4254626279856189  0.5888937733867801
  0.1245658203218951 -0.3717567625065950  0.5276175084694149
  0.2394610278649389 -0.3343047453442289  0.6481582322083673
  0.2420559115490806 -0.2247351741506978  0.6231634349885786
  0.1664238367817848 -0.2468926792469434  0.5495944398494496
  0.3606378294148743 -0.3166555381298583  0.6472468041568143
  0.4354895308031251 -0.1950537233875428  0.6153344183260661
  0.3636259291163939 -0.1383714572050483  0.6028166264814648
  0.3589993057944309 -0.3937484297312976  0.5801378376309604
  0.4423197505928917 -0.3247097335231503  0.5137261041077131
  0.4841888254234781 -0.1998633201304053  0.5357219092297757
  0.2384506141908052 -0.4695341324770369  0.5478737304035520
  0.2451345045752184 -0.4332452295553236  0.4605177870929944
  0.3667030656361049 -0.3468819006082960  0.4401509288491309
  0.1732654577272213 -0.3765891532733498  0.4480114451030053
  0.2481108422240684 -0.2549953339274010  0.4160926234244936
  0.3692974908565356 -0.2373127684227043  0.4151756914774475
  0.4421435328113686 -0.1461535499378556  0.4744475343444953
  0.3702968104797588 -0.1020760509915762  0.5154623334915975
  0.2497480998697325 -0.1778670853788168  0.4831800379167824
  1.0801767978616916  0.3600143063188054  0.4002533713760789
  0.9652767711000813  0.2833093058714965  0.3606358454517941
  1.0825163103229192  0.3040842018991375  0.4772272281067338
  0.9690143551328461  0.1931172043278430  0.4847689836256172
  0.8955052744973480  0.1751918026935597  0.4106360619887729
  1.0976233055544016  0.3836197193084571  0.5470788844602106
  0.9856061875323548  0.3201126433598497  0.5940039568497923
  0.9089191692977601  0.2030494348845865  0.5571942190753661
  1.0939298913911391  0.4841794803786824  0.5088341264382952
  0.9929120166640967  0.4940652524898850  0.5394269440199534
  0.9231763562320805  0.3859710667603672  0.5894381428456809
  1.0937121154903657  0.4773968657150229  0.4179831834327788
  0.9795276983186331  0.4662332565053788  0.3928815394901169
  0.9194126732179080  0.4761700124820621  0.4652980834537195
  0.9028720033462219  0.3491912034298711  0.3560694414051806
  0.7908534764742052  0.2856894182335424  0.4029873199077673
  0.8059302683945383  0.3651979641571851  0.4728471505835758
  0.8082762918921269  0.3092654693822404  0.5498247783119993
  0.7947278043128532  0.1918677057034230  0.5320868962472959
  0.7944964246427618  0.1850956942808111  0.4412280756557243
  0.5807055718652089  0.6101458980210586  0.4637785905755109
  0.7056893429491632  0.6943986672654134  0.4457976785241167
  0.5686149013165334  0.5950107359518445  0.5527856070018945
  0.6862218777336312  0.6699819595851221  0.5893270438753432
  0.7732255220720352  0.7374321540404273  0.5237739645576792
  0.5247319311624702  0.4693934358081005  0.5735771838891526
  0.6234471474466728  0.4702945244244686  0.6191710378728709
  0.7202226053417290  0.5926413776122273  0.6305053730151089
  0.5210909697512944  0.4130849246703631  0.4938876287432172
  0.6020414800189471  0.3650986482667147  0.4933503488536747
  0.6695391190385115  0.4081075329894269  0.5713314332723345
  0.5450026290491741  0.4948009560601912  0.4243148895183309
  0.6550106248906423  0.5098604654284693  0.3866227853645016
  0.6890304857288855  0.4325204743189155  0.4277879907267813
  0.7517552454169804  0.6321951213222272  0.3979513609606535
  0.8504726437951691  0.6330974060576544  0.4435366267467032
  0.8066190161533305  0.5074926775375025  0.4643416401688094
  0.7945219858257734  0.4923573445109770  0.5533541344113078
  0.8302411818278900  0.6077204829016148  0.5928160274617347
  0.8541652107216275  0.6894319773554052  0.5232291498326032
