C 
 1.0000000000000000
    10.7640339461680643    0.0000000000000000    0.0000000000000000
     0.0000000000000000   10.7640339461680625    0.0000000000000000
     0.0000000000000000    0.0000000000000000   16.0000000000000000
 C  
  68
Direct
  0.2841102304632442  0.0353665762629185  0.5237402817171861
  0.3305632068637065  0.1386118290626238  0.4766048820707547
  0.2948984085987413 -0.0776158778712575  0.4770019235589781
  0.3961808824087220  0.0843168967176189  0.4036590751797812
  0.3745742362914877 -0.0476651318744347  0.4039348782432904
  0.3613658785239574 -0.1692858697129817  0.5239172401963823
  0.4646573880673571 -0.2160851428297283  0.4769406523813410
  0.4781121492195349 -0.1323834497817567  0.4038504580825067
  0.4156040663641373 -0.1031752472995176  0.5966653924960409
  0.3683302060423301  0.0219929830556231  0.5965457980825916
  0.4529811670192752  0.1256229193042200  0.5962296747614281
  0.5475997922904737 -0.1248176189411963  0.5964932291787347
  0.6322261324101437 -0.0212383311234932  0.5962016568046419
  0.5849569545299712  0.1039504513685909  0.5960648366804232
  0.5776024095307893 -0.2049593564357831  0.5236383231805957
  0.5351831481040357  0.2158619600688624  0.4761325935406361
  0.4225128533303963  0.2051911581445295  0.5232126661990337
  0.6387730006109347  0.1694994292528972  0.5229535544989958
  0.7049403485200704  0.0774261279169773  0.4761390245926582
  0.7159864070967922 -0.0351954381040366  0.5231836401720859
  0.6693446939583992 -0.1388656776513219  0.4765218109110379
  0.5213303738678335  0.1315964224098852  0.4033660084832182
  0.6249032137742586  0.0469248448304477  0.4033702786088159
  0.6032628521134062 -0.0850744567696874  0.4036120951414229
  0.3503129620326441  0.4356770617866106  0.5221287353490718
  0.2553422898449201  0.3592326922652156  0.4861305770998333
  0.3960397483571515  0.5234779880674854  0.4623028464439590
  0.2226653007238180  0.4181213562230423  0.4051909305894625
  0.3084067455608297  0.5184655818769878  0.3906726948968524
  0.3879757665667822  0.6472358784388897  0.4945909912292487
  0.3204501415087464  0.7260073175845682  0.4384230953788881
  0.2624357881236081  0.6422002933980107  0.3760304681231789
  0.3115311073467138  0.6389729655070617  0.5715720168557610
  0.2885154222636715  0.5095658178004142  0.5884043196323749
  0.1629639411560786  0.4649922644401525  0.5967852455500323
  0.2089885512982528  0.7239368173966088  0.5631291124509706
  0.0834853113171598  0.6794002303092227  0.5715291793159043
  0.0604542334386672  0.5499734002838570  0.5883468106716221
  0.2201011258025941  0.7866095671997515  0.4807367600898337
  0.0400045328516357  0.3975344912188780  0.4860389685853140
  0.1448389709864356  0.3624672052994259  0.5358674737961022
 -0.0230456584923296  0.5018736556299429  0.5220295015527942
 -0.0355969753702368  0.6000533636753913  0.4622297676149892
  0.0146778687311716  0.7134614482096534  0.4945407036802775
  0.1050728602576773  0.7643837258477748  0.4383774178759892
  0.0909441574016664  0.4415194739337231  0.4051345654541015
  0.0449240628045094  0.5652568555587593  0.3905835025496555
  0.1307015017289273  0.6655892347373145  0.3760312857773077
  0.1016025916560741  0.0888109902434045  0.3760299017066496
  0.0425209659636597  0.2072482799859224  0.3938908902557018
  0.0064843177826479 -0.0046380376554184  0.3760282597253847
 -0.1108747015493365  0.0565682266121092  0.3939147686648689
 -0.0918395449989852  0.1906190000886368  0.4019079986459192
  0.0337827412704273 -0.0967834639746844  0.4406720880163955
 -0.0670375371298169 -0.0831258066274745  0.5012661160330490
 -0.1564792025051079  0.0078844075412401  0.4715768006070216
  0.1429784577969923 -0.0483488853046275  0.4834348311574828
  0.1168260228997100 -0.0216785978107740  0.5709062677877156
 -0.0175157309369472 -0.0383431844259472  0.5789168722778323
  0.1932893884712159  0.0599354116399221  0.4406520743133363
  0.1814843558734998  0.1610225000343734  0.5012372904328497
  0.1358860176999771  0.1123614387664853  0.5789116311080781
  0.0920671408803518  0.2520161000544167  0.4715375789926129
 -0.0087443785147464  0.2656832341934535  0.5321324527833518
  0.0185211935867885  0.1735467656587538  0.5967851376474697
 -0.0766004458783922  0.0800891697810448  0.5967793409711927
 -0.1682973256752985  0.1089824888211099  0.5321540802975341
 -0.1179745597507941  0.2172847183463225  0.4893831678412386
