Generated by VASPKIT code               
   1.00000000000000     
     9.8380754455558392    0.0608269259784015    0.0000000000000000
     0.0583229541257679   10.1225754019824379    0.0000000000000000
     0.0000000000000013    0.0000000000000013   19.7109622032732972
  C             
    68
Direct
  0.5536097493681208  0.9559191575943364  0.6175472969894568
  0.0341855792853132  0.5631084312283736  0.6105174899620531
  0.6687681886741680  0.0170111466739951  0.5823408927858201
  0.9548431280762389  0.6583945965480201  0.5785179044535322
  0.4464010573568075  0.0441588437611680  0.6175559269061286
  0.9657358006316036  0.4367773604058158  0.6104932987979556
  0.6313256783938189  0.1361045302308114  0.5519955625492304
  0.8243262383594850  0.6017467442077059  0.5513176109427008
  0.4843329297412561  0.1747485789068705  0.5775473545277297
  0.8302511675299450  0.4460969359128484  0.5713068246745318
  0.3312612227395372  0.9830506474048549  0.5823331819473545
  0.0450879951020353  0.3415145583990004  0.5785020653316063
  0.2860882799842878  0.0713136130644258  0.5274433985346271
  0.9742779362055776  0.2850155696707053  0.5202821324530428
  0.3896553580087664  0.1556859792907141  0.5166794268327040
  0.8606654391330295  0.3619648160805566  0.5103530142539956
  0.3686927437197421  0.8639675263399377  0.5519844597573241
  0.1756395268556171  0.3981670342913629  0.5513491352669430
  0.5156904116787088  0.8253032764900229  0.5775421760777114
  0.1697019307317807  0.5538216373217538  0.5713549379970436
  0.6103633321855978  0.8443587598297178  0.5166744260008158
  0.1393060290188573  0.6379832405306857  0.5104080712886400
  0.3371062064500658  0.8757023911288726  0.4781921803907581
  0.1708576671225455  0.3682379569067327  0.4734780990904366
  0.4348418761943725  0.8608569350993556  0.4281185797607903
  0.1567398285786545  0.4657907153128949  0.4133615520958709
  0.5769918788850000  0.8119070414385636  0.4409819564194667
  0.1742133556303229  0.6099333084678069  0.4368214787513771
  0.2738745655821184  0.0054875707082436  0.4629106095152041
  0.0469928468884144  0.2842485593223361  0.4568585027962991
  0.7261350254249809  0.9945935507595562  0.4629140401904366
  0.9530025671993461  0.7156781369973790  0.4568730155336310
  0.7139054778115966  0.9287653770680754  0.5274420829318769
  0.0256789544735360  0.7149305902604770  0.5203137847673128
  0.6653699390774321  0.9258590971664103  0.4078585043363395
  0.0371584232391758  0.6719133518745625  0.4030730387801116
  0.5675471261591686  0.0202226002452877  0.3843165706081096
  0.9664800459620846  0.5606664967951344  0.3744858828497387
  0.4324913568939137  0.9798800265002178  0.3843234409479184
  0.0335999321149491  0.4393191798997957  0.3744991977816874
  0.3346462774156705  0.0742295909474741  0.4078569092847054
  0.9629072151852650  0.3280358892726660  0.4030375289008752
  0.6629239979517341  0.1243878559310879  0.4782064139285138
  0.8291489159669657  0.6316846980618177  0.4734467586004268
  0.5651804545748134  0.1392199871989192  0.4281321785334622
  0.8432776874145443  0.5341831646603328  0.4133074945389910
  0.4230271470536772  0.1881379187303500  0.4409893638115888
  0.8257890465560505  0.3900256505194568  0.4367664099123345
  0.2939570126972214  0.4105072836769120  0.4356091051709380
  0.3341903428675947  0.5588883343220320  0.4447498854231199
  0.3151143617457910  0.3935113337658594  0.5805048655132753
  0.3305942504848383  0.5383349030089701  0.5824501103660378
  0.3832382362089780  0.5875126547660008  0.5133660490368777
  0.4511860688263952  0.3265336460135413  0.5859070807691733
  0.5344892451561196  0.4395810845773068  0.6194601036341926
  0.4655214946996179  0.5604045261122176  0.6194713565974204
  0.4904413435510376  0.3619212214554370  0.5136540842599323
  0.6167788389872998  0.4124965977305525  0.5133399823784548
  0.6693849199060277  0.4616412542438623  0.5824190417198343
  0.4275974992625827  0.3400731521870731  0.4403114969426404
  0.5286236716377417  0.4371514259498664  0.4077630363787517
  0.6657973294199995  0.4410879550364449  0.4447101852032467
  0.4713213835281779  0.5628327495804392  0.4077813741761861
  0.5723988710769281  0.6599361792936439  0.4403051100344051
  0.7060482353272887  0.5894663082347784  0.4355607058549233
  0.6848472304653921  0.6064594756321751  0.5804657294970496
  0.5488055349858769  0.6734749524984915  0.5859212094693738
  0.5095665905783922  0.6380743364568709  0.5136862497703537
 
  0.00000000E+00  0.00000000E+00  0.00000000E+00
  0.00000000E+00  0.00000000E+00  0.00000000E+00
  0.00000000E+00  0.00000000E+00  0.00000000E+00
  0.00000000E+00  0.00000000E+00  0.00000000E+00
  0.00000000E+00  0.00000000E+00  0.00000000E+00
  0.00000000E+00  0.00000000E+00  0.00000000E+00
  0.00000000E+00  0.00000000E+00  0.00000000E+00
  0.00000000E+00  0.00000000E+00  0.00000000E+00
  0.00000000E+00  0.00000000E+00  0.00000000E+00
  0.00000000E+00  0.00000000E+00  0.00000000E+00
  0.00000000E+00  0.00000000E+00  0.00000000E+00
  0.00000000E+00  0.00000000E+00  0.00000000E+00
  0.00000000E+00  0.00000000E+00  0.00000000E+00
  0.00000000E+00  0.00000000E+00  0.00000000E+00
  0.00000000E+00  0.00000000E+00  0.00000000E+00
  0.00000000E+00  0.00000000E+00  0.00000000E+00
  0.00000000E+00  0.00000000E+00  0.00000000E+00
  0.00000000E+00  0.00000000E+00  0.00000000E+00
  0.00000000E+00  0.00000000E+00  0.00000000E+00
  0.00000000E+00  0.00000000E+00  0.00000000E+00
  0.00000000E+00  0.00000000E+00  0.00000000E+00
  0.00000000E+00  0.00000000E+00  0.00000000E+00
  0.00000000E+00  0.00000000E+00  0.00000000E+00
  0.00000000E+00  0.00000000E+00  0.00000000E+00
  0.00000000E+00  0.00000000E+00  0.00000000E+00
  0.00000000E+00  0.00000000E+00  0.00000000E+00
  0.00000000E+00  0.00000000E+00  0.00000000E+00
  0.00000000E+00  0.00000000E+00  0.00000000E+00
  0.00000000E+00  0.00000000E+00  0.00000000E+00
  0.00000000E+00  0.00000000E+00  0.00000000E+00
  0.00000000E+00  0.00000000E+00  0.00000000E+00
  0.00000000E+00  0.00000000E+00  0.00000000E+00
  0.00000000E+00  0.00000000E+00  0.00000000E+00
  0.00000000E+00  0.00000000E+00  0.00000000E+00
  0.00000000E+00  0.00000000E+00  0.00000000E+00
  0.00000000E+00  0.00000000E+00  0.00000000E+00
  0.00000000E+00  0.00000000E+00  0.00000000E+00
  0.00000000E+00  0.00000000E+00  0.00000000E+00
  0.00000000E+00  0.00000000E+00  0.00000000E+00
  0.00000000E+00  0.00000000E+00  0.00000000E+00
  0.00000000E+00  0.00000000E+00  0.00000000E+00
  0.00000000E+00  0.00000000E+00  0.00000000E+00
  0.00000000E+00  0.00000000E+00  0.00000000E+00
  0.00000000E+00  0.00000000E+00  0.00000000E+00
  0.00000000E+00  0.00000000E+00  0.00000000E+00
  0.00000000E+00  0.00000000E+00  0.00000000E+00
  0.00000000E+00  0.00000000E+00  0.00000000E+00
  0.00000000E+00  0.00000000E+00  0.00000000E+00
  0.00000000E+00  0.00000000E+00  0.00000000E+00
  0.00000000E+00  0.00000000E+00  0.00000000E+00
  0.00000000E+00  0.00000000E+00  0.00000000E+00
  0.00000000E+00  0.00000000E+00  0.00000000E+00
  0.00000000E+00  0.00000000E+00  0.00000000E+00
  0.00000000E+00  0.00000000E+00  0.00000000E+00
  0.00000000E+00  0.00000000E+00  0.00000000E+00
  0.00000000E+00  0.00000000E+00  0.00000000E+00
  0.00000000E+00  0.00000000E+00  0.00000000E+00
  0.00000000E+00  0.00000000E+00  0.00000000E+00
  0.00000000E+00  0.00000000E+00  0.00000000E+00
  0.00000000E+00  0.00000000E+00  0.00000000E+00
  0.00000000E+00  0.00000000E+00  0.00000000E+00
  0.00000000E+00  0.00000000E+00  0.00000000E+00
  0.00000000E+00  0.00000000E+00  0.00000000E+00
  0.00000000E+00  0.00000000E+00  0.00000000E+00
  0.00000000E+00  0.00000000E+00  0.00000000E+00
  0.00000000E+00  0.00000000E+00  0.00000000E+00
  0.00000000E+00  0.00000000E+00  0.00000000E+00
  0.00000000E+00  0.00000000E+00  0.00000000E+00
