C                                       
   1.00000000000000     
    20.8590652524467863   -0.8204365536537469    0.0000000000000000
    -5.3130541512380516    8.5555588629595452    0.0000000000000000
     0.0000000000000000    0.0000000000000000   16.0000000000000000
  C             
   128
Direct
  0.3036451545583034  0.4628078091373045  0.6239331741585765
  0.2214727403075648  0.3878252267562679  0.6054282731561216
  0.3259326783662301  0.3560693400254384  0.6436896235512409
  0.1944546697492786  0.2282554836868309  0.5946873113233053
  0.2564573800631072  0.2069655104447203  0.6154791004832639
  0.3924706343730205  0.3857783303493966  0.5832945937714307
  0.3617233926233068  0.2300945062192912  0.5318723083545541
  0.2782696840131114  0.1574862564693229  0.5477148134992684
  0.3726322810175498  0.4596942769200003  0.5123408382337136
  0.3301164623067289  0.5103299712591567  0.5391932486664434
  0.2862032910600796  0.5476992730710006  0.4835608340287903
  0.3912380757248324  0.4468343335337761  0.4238611032315863
  0.3230587149400561  0.4231000421062109  0.3698019793940169
  0.2712886398821009  0.4655407066895452  0.4007409208470458
  0.3644703262575393  0.2735062577300818  0.4395231704864115
  0.1483054527398693  0.3043992808648908  0.4746468373331508
  0.2040399286715126  0.4563214308689555  0.5285628254355068
  0.1926907532925109  0.3410605369304411  0.3941504828571654
  0.1949635581785974  0.2034541288852937  0.3744102474424599
  0.2738261451371095  0.2567957894174351  0.3528096520407994
  0.2955635862457786  0.1680292610239345  0.4016984916761068
  0.1455482148011023  0.1613310831595035  0.5188604130393761
  0.1793723212634580  0.1219988585313708  0.4483956098999805
  0.2339573199636459  0.0797862540602373  0.4698333891550017
  0.5077775011551431  0.6769821777447594  0.5732635832925805
  0.5767051680981782  0.7824205038152007  0.6110681819992164
  0.5104879857571163  0.7203572821296137  0.4809017052640981
  0.6382724405998609  0.8706493909977286  0.5429086939483386
  0.5939446603603427  0.7929658568314579  0.4650217121269408
  0.4797622426270612  0.5646955429925193  0.4294642997736869
  0.5462887221757950  0.5943822340025394  0.3690456991548580
  0.6157586873687937  0.7434709417516395  0.3972595239037021
  0.4996082549829325  0.4907867697386687  0.5004128507306191
  0.4809990391929782  0.5036349966592237  0.5889037619252285
  0.5491799023535747  0.5273151300622571  0.6429402875671584
  0.5420885022866933  0.4400970442668971  0.4735306507812912
  0.5860022454548063  0.4027046835200228  0.5291499578197871
  0.6009449039156564  0.4848790582455337  0.6119640416284448
  0.5685710301556205  0.4876340082696761  0.3888038100140990
  0.6773007671570946  0.7469291776004758  0.6382738195280691
  0.5984457174976857  0.6936171258499929  0.6599082657354006
  0.6795478595125138  0.6093004078503735  0.6185385409921769
  0.7239026374312444  0.6459535817800568  0.5380281362806770
  0.6681753845260316  0.4940728007493436  0.4841219962263412
  0.6507395526420353  0.5625887472826350  0.4072608300843673
  0.6928592233747255  0.8283975856553180  0.5642951145654087
  0.7266515646925954  0.7890375454466981  0.4938275203063078
  0.6777570857673764  0.7221643428236699  0.4180129511216041
  0.4161625190236761  0.7955410324711512  0.4346524908600806
  0.4871560067045319  0.8385474531132704  0.4835907557086248
  0.4292488354189368  0.9182901812516078  0.3851854443501292
  0.5081693178120115  0.0582198564732097  0.4032781064931176
  0.5515233284263329  0.0187491649928233  0.4655161681924511
  0.3695688333742020  0.9485535343168539  0.4054371321644624
  0.4115389591680672  0.0992938578622453  0.4416824818026379
  0.4929761817875412  0.1622129634106337  0.4398276914396781
  0.3116158427452366  0.8273246136543854  0.4680861357220603
  0.3206156275574073  0.9316000301206852  0.5472384999719500
  0.3849971354069133  0.1118101836656506  0.5291731532512154
  0.3429325559017161  0.7276699573794780  0.4875118976608886
  0.3791731050177126  0.7881283061399413  0.5729301236329455
  0.3639661715188574  0.8921001092858357  0.6094889264353240
  0.4606189430102849  0.8510398541404096  0.5710832730546187
  0.5025806217427974  0.0018033252478315  0.6073159805959935
  0.4428855576447147  0.0320311197110551  0.6275778417664863
  0.4559925011989088  0.1548285136713152  0.5781173840436509
  0.5292262999948386  0.2227059275649427  0.5252424685875933
  0.5605400450930466  0.1230477143514079  0.5446745177261580
  0.8933740688163833  0.0306011568364945  0.6013800564877866
  0.8684869848627736  0.8704013369165468  0.6102989765978670
  0.8610871787854156  0.0629666602713565  0.5241411930221580
  0.8142385950264932  0.8906035581072300  0.4828281179335673
  0.8165260960292149  0.7622750501490937  0.5379589981289281
  0.9314787970563603  0.1447812354911023  0.4710392592693467
  0.9315652790457442  0.0731712887615515  0.3995751154046165
  0.8631049814048808  0.9086186566826611  0.4065248116428872
  0.0034044720275780  0.2321526246465953  0.5206257797332983
  0.0556554890284786  0.1880549350795060  0.4746961449246978
  0.0036611962464182  0.0798855003941028  0.4023805260792261
  0.9776043824591907  0.1318255968954493  0.5989274639014386
  0.0090239349776362  0.0416745408536451  0.6061039649365416
  0.0579546374922379  0.0597437908167988  0.5298265361261044
  0.9405824925595827  0.8771002425588326  0.6130734882976233
  0.9406992947559655  0.8055596495531782  0.5415907179594984
  0.0110864947777197  0.8873903511896052  0.4884866851639075
  0.9787734733212622  0.9196845205575255  0.4112629525406979
  0.8945336271524942  0.8184732824723131  0.4137020695314887
  0.8687753497810660  0.7181986562355090  0.4920118267098972
  0.0587229672788840  0.5058485802942719  0.5998881840266551
  0.1431854789632347  0.5944236457719000  0.6017136816022023
  0.0288913798280895  0.4064986251029485  0.5218926235459083
  0.1011025425810769  0.4833457284479784  0.4721038007112733
  0.1739666958144617  0.5615747958854053  0.5237967014789542
  0.9801246946257678  0.4623331375652721  0.4765558834845028
  0.0334973888219904  0.5625843843857772  0.4048139310620260
  0.1004921488645819  0.5505776216142175  0.3992837907683349
  0.9831968179643238  0.5939892732281589  0.5355717190467534
  0.0387882502437144  0.7711679315878315  0.4907026327213408
  0.0657352560065898  0.7257969205302559  0.4143508731184068
  0.0348077015281634  0.6090478897170888  0.6076604407946663
  0.1076767271381346  0.7675509048405961  0.6118850605655524
  0.1128808049396399  0.8496611345905779  0.5419735781908882
  0.1744510213325035  0.7552814335315687  0.6112729431051743
  0.2295686386454688  0.8488505605356976  0.5408496362097188
  0.1859949258369276  0.9085968382557597  0.4913099620790298
  0.1491741255123134  0.8093641746962231  0.4139232070045791
  0.1727332797864936  0.7080265321675766  0.4031422720939621
  0.2240374126696812  0.7270746944685872  0.4751735854727860
  0.8064760350719327  0.2246652175229761  0.5982852743776803
  0.7230431431236222  0.1411245678617381  0.5987650258327271
  0.8387315271236568  0.3878691041409983  0.6077951011994637
  0.7717501231329750  0.3999210862824184  0.6133701378529990
  0.6994912918175756  0.2424672034984993  0.6095497949859390
  0.8920928490396329  0.4880442990861726  0.5360397429080026
  0.8433041032355754  0.5438638281460978  0.4907130807123561
  0.7711017023532173  0.4670080850140577  0.5405048286134930
  0.8889987600760941  0.3563627422350049  0.4770368703918799
  0.8373438699427670  0.3412426030023979  0.4049807333081529
  0.8134596799484195  0.4444937394724714  0.4127373544172329
  0.8333851072897448  0.1791894362054728  0.5219524231049061
  0.7592610969969935  0.1006816883769703  0.4707085695284741
  0.7644771068397550  0.1827628686736557  0.4007775421475122
  0.6861721495218396  0.0418170059574554  0.5214038864176900
  0.6425780883544235  0.1015182338912012  0.4718503567087158
  0.6976964798011439  0.1950349704679390  0.4013832577286410
  0.7289818861649552  0.3558997121400306  0.4109451637254697
  0.6982252781455216  0.3887939496539504  0.4888569503728859
  0.6481383523139795  0.2233544922709946  0.5375302066244312
 
  0.00000000E+00  0.00000000E+00  0.00000000E+00
  0.00000000E+00  0.00000000E+00  0.00000000E+00
  0.00000000E+00  0.00000000E+00  0.00000000E+00
  0.00000000E+00  0.00000000E+00  0.00000000E+00
  0.00000000E+00  0.00000000E+00  0.00000000E+00
  0.00000000E+00  0.00000000E+00  0.00000000E+00
  0.00000000E+00  0.00000000E+00  0.00000000E+00
  0.00000000E+00  0.00000000E+00  0.00000000E+00
  0.00000000E+00  0.00000000E+00  0.00000000E+00
  0.00000000E+00  0.00000000E+00  0.00000000E+00
  0.00000000E+00  0.00000000E+00  0.00000000E+00
  0.00000000E+00  0.00000000E+00  0.00000000E+00
  0.00000000E+00  0.00000000E+00  0.00000000E+00
  0.00000000E+00  0.00000000E+00  0.00000000E+00
  0.00000000E+00  0.00000000E+00  0.00000000E+00
  0.00000000E+00  0.00000000E+00  0.00000000E+00
  0.00000000E+00  0.00000000E+00  0.00000000E+00
  0.00000000E+00  0.00000000E+00  0.00000000E+00
  0.00000000E+00  0.00000000E+00  0.00000000E+00
  0.00000000E+00  0.00000000E+00  0.00000000E+00
  0.00000000E+00  0.00000000E+00  0.00000000E+00
  0.00000000E+00  0.00000000E+00  0.00000000E+00
  0.00000000E+00  0.00000000E+00  0.00000000E+00
  0.00000000E+00  0.00000000E+00  0.00000000E+00
  0.00000000E+00  0.00000000E+00  0.00000000E+00
  0.00000000E+00  0.00000000E+00  0.00000000E+00
  0.00000000E+00  0.00000000E+00  0.00000000E+00
  0.00000000E+00  0.00000000E+00  0.00000000E+00
  0.00000000E+00  0.00000000E+00  0.00000000E+00
  0.00000000E+00  0.00000000E+00  0.00000000E+00
  0.00000000E+00  0.00000000E+00  0.00000000E+00
  0.00000000E+00  0.00000000E+00  0.00000000E+00
  0.00000000E+00  0.00000000E+00  0.00000000E+00
  0.00000000E+00  0.00000000E+00  0.00000000E+00
  0.00000000E+00  0.00000000E+00  0.00000000E+00
  0.00000000E+00  0.00000000E+00  0.00000000E+00
  0.00000000E+00  0.00000000E+00  0.00000000E+00
  0.00000000E+00  0.00000000E+00  0.00000000E+00
  0.00000000E+00  0.00000000E+00  0.00000000E+00
  0.00000000E+00  0.00000000E+00  0.00000000E+00
  0.00000000E+00  0.00000000E+00  0.00000000E+00
  0.00000000E+00  0.00000000E+00  0.00000000E+00
  0.00000000E+00  0.00000000E+00  0.00000000E+00
  0.00000000E+00  0.00000000E+00  0.00000000E+00
  0.00000000E+00  0.00000000E+00  0.00000000E+00
  0.00000000E+00  0.00000000E+00  0.00000000E+00
  0.00000000E+00  0.00000000E+00  0.00000000E+00
  0.00000000E+00  0.00000000E+00  0.00000000E+00
  0.00000000E+00  0.00000000E+00  0.00000000E+00
  0.00000000E+00  0.00000000E+00  0.00000000E+00
  0.00000000E+00  0.00000000E+00  0.00000000E+00
  0.00000000E+00  0.00000000E+00  0.00000000E+00
  0.00000000E+00  0.00000000E+00  0.00000000E+00
  0.00000000E+00  0.00000000E+00  0.00000000E+00
  0.00000000E+00  0.00000000E+00  0.00000000E+00
  0.00000000E+00  0.00000000E+00  0.00000000E+00
  0.00000000E+00  0.00000000E+00  0.00000000E+00
  0.00000000E+00  0.00000000E+00  0.00000000E+00
  0.00000000E+00  0.00000000E+00  0.00000000E+00
  0.00000000E+00  0.00000000E+00  0.00000000E+00
  0.00000000E+00  0.00000000E+00  0.00000000E+00
  0.00000000E+00  0.00000000E+00  0.00000000E+00
  0.00000000E+00  0.00000000E+00  0.00000000E+00
  0.00000000E+00  0.00000000E+00  0.00000000E+00
  0.00000000E+00  0.00000000E+00  0.00000000E+00
  0.00000000E+00  0.00000000E+00  0.00000000E+00
  0.00000000E+00  0.00000000E+00  0.00000000E+00
  0.00000000E+00  0.00000000E+00  0.00000000E+00
  0.00000000E+00  0.00000000E+00  0.00000000E+00
  0.00000000E+00  0.00000000E+00  0.00000000E+00
  0.00000000E+00  0.00000000E+00  0.00000000E+00
  0.00000000E+00  0.00000000E+00  0.00000000E+00
  0.00000000E+00  0.00000000E+00  0.00000000E+00
  0.00000000E+00  0.00000000E+00  0.00000000E+00
  0.00000000E+00  0.00000000E+00  0.00000000E+00
  0.00000000E+00  0.00000000E+00  0.00000000E+00
  0.00000000E+00  0.00000000E+00  0.00000000E+00
  0.00000000E+00  0.00000000E+00  0.00000000E+00
  0.00000000E+00  0.00000000E+00  0.00000000E+00
  0.00000000E+00  0.00000000E+00  0.00000000E+00
  0.00000000E+00  0.00000000E+00  0.00000000E+00
  0.00000000E+00  0.00000000E+00  0.00000000E+00
  0.00000000E+00  0.00000000E+00  0.00000000E+00
  0.00000000E+00  0.00000000E+00  0.00000000E+00
  0.00000000E+00  0.00000000E+00  0.00000000E+00
  0.00000000E+00  0.00000000E+00  0.00000000E+00
  0.00000000E+00  0.00000000E+00  0.00000000E+00
  0.00000000E+00  0.00000000E+00  0.00000000E+00
  0.00000000E+00  0.00000000E+00  0.00000000E+00
  0.00000000E+00  0.00000000E+00  0.00000000E+00
  0.00000000E+00  0.00000000E+00  0.00000000E+00
  0.00000000E+00  0.00000000E+00  0.00000000E+00
  0.00000000E+00  0.00000000E+00  0.00000000E+00
  0.00000000E+00  0.00000000E+00  0.00000000E+00
  0.00000000E+00  0.00000000E+00  0.00000000E+00
  0.00000000E+00  0.00000000E+00  0.00000000E+00
  0.00000000E+00  0.00000000E+00  0.00000000E+00
  0.00000000E+00  0.00000000E+00  0.00000000E+00
  0.00000000E+00  0.00000000E+00  0.00000000E+00
  0.00000000E+00  0.00000000E+00  0.00000000E+00
  0.00000000E+00  0.00000000E+00  0.00000000E+00
  0.00000000E+00  0.00000000E+00  0.00000000E+00
  0.00000000E+00  0.00000000E+00  0.00000000E+00
  0.00000000E+00  0.00000000E+00  0.00000000E+00
  0.00000000E+00  0.00000000E+00  0.00000000E+00
  0.00000000E+00  0.00000000E+00  0.00000000E+00
  0.00000000E+00  0.00000000E+00  0.00000000E+00
  0.00000000E+00  0.00000000E+00  0.00000000E+00
  0.00000000E+00  0.00000000E+00  0.00000000E+00
  0.00000000E+00  0.00000000E+00  0.00000000E+00
  0.00000000E+00  0.00000000E+00  0.00000000E+00
  0.00000000E+00  0.00000000E+00  0.00000000E+00
  0.00000000E+00  0.00000000E+00  0.00000000E+00
  0.00000000E+00  0.00000000E+00  0.00000000E+00
  0.00000000E+00  0.00000000E+00  0.00000000E+00
  0.00000000E+00  0.00000000E+00  0.00000000E+00
  0.00000000E+00  0.00000000E+00  0.00000000E+00
  0.00000000E+00  0.00000000E+00  0.00000000E+00
  0.00000000E+00  0.00000000E+00  0.00000000E+00
  0.00000000E+00  0.00000000E+00  0.00000000E+00
  0.00000000E+00  0.00000000E+00  0.00000000E+00
  0.00000000E+00  0.00000000E+00  0.00000000E+00
  0.00000000E+00  0.00000000E+00  0.00000000E+00
  0.00000000E+00  0.00000000E+00  0.00000000E+00
  0.00000000E+00  0.00000000E+00  0.00000000E+00
  0.00000000E+00  0.00000000E+00  0.00000000E+00
  0.00000000E+00  0.00000000E+00  0.00000000E+00
  0.00000000E+00  0.00000000E+00  0.00000000E+00
