C 
 1.0000000000000000
    18.5927895929961871    0.0000000000000000    0.0000000000000000
    -4.4380469593837528    7.2053678778222565    0.0000000000000000
     0.0000000000000000    0.0000000000000000   16.0000000000000000
 C  
 128
Direct
  0.2917300816448785  0.3196315654388599  0.6465197961395737
  0.2020123482275041  0.2104318499222996  0.6349678494797170
  0.3316924879461597  0.2322343601234241  0.6081821203102029
  0.1866245774683397  0.0666433543040911  0.5723022257839845
  0.2657691691788411  0.0800500295763166  0.5558548051901082
  0.3962532777311592  0.3569815082522531  0.5514890501235055
  0.3831506128106741  0.2752600185013708  0.4701435543152460
  0.2972822018101685  0.1062206214752097  0.4715974697565290
  0.3852257003268918  0.5174089914498051  0.5416155575678164
  0.3212961145308918  0.4945366494507452  0.5997508249843650
  0.2480578597223879  0.4942488705451029  0.5701830899794142
  0.3759769185172349  0.5400708686855308  0.4538474297303230
  0.3027836746040308  0.5398395193672335  0.4242866904719330
  0.2388331327440860  0.5169274711859249  0.4824215400703025
  0.3812284911959149  0.3941400126392815  0.4076571494783565
  0.1242053899054126  0.2315621882536273  0.5241019383321429
  0.1717577037763091  0.3190894709398249  0.5982649491674469
  0.1567491973081009  0.3562974496075214  0.4544165591377305
  0.1756778468626061  0.2747325076841342  0.3860805774350900
  0.2613295723656995  0.3937629945793296  0.3594093165716461
  0.3053763787796012  0.2965221608192763  0.3592350897716019
  0.1390160638239860  0.0795539219883386  0.5045012267774300
  0.1705401077525870  0.1059194174005042  0.4202437227175709
  0.2496834330879907  0.1192481853356817  0.4038092688955227
  0.4910988301116612  0.5562721242330744  0.6050134970913563
  0.5669554664419749  0.6536458492205354  0.6536128231044075
  0.4888845317063423  0.6753318353836807  0.5427833637366494
  0.6225776792830562  0.8310131437530426  0.6090512653812868
  0.5749938024323310  0.8442005859503191  0.5413419435197179
  0.4759067493042437  0.5938202157601833  0.4615442934425610
  0.5407148746420789  0.7186884546812904  0.4048844339275937
  0.6065566183780996  0.8707819339188592  0.4570911607791592
  0.4868791867592904  0.4332708196549406  0.4711888565818371
  0.4961641756459511  0.4103274341342085  0.5589460954816958
  0.5693058414943160  0.4103044902583469  0.5885889267495511
  0.5507329100085483  0.4561616471023854  0.4129874378049860
  0.6238356948089054  0.4560875181669567  0.4426068854085879
  0.6331372244384920  0.4331800969909865  0.5303763730221280
  0.5804511913561804  0.6313415089400700  0.3660732097370578
  0.6963004536532449  0.6752927095580841  0.6265350273798510
  0.6107962408822879  0.5562077736780097  0.6537034371793685
  0.7153384452944503  0.5936913545155381  0.5582112566713298
  0.7481057512545527  0.7184957315921106  0.4886472384042195
  0.7000863997143854  0.6311216681097438  0.4147258849997340
  0.6700608105498697  0.7402316923023888  0.3777590174955480
  0.7016983263839550  0.8442579284019378  0.5925086440639320
  0.7332488044954732  0.8706432499035058  0.5082611783561248
  0.6856590970605366  0.8839026904952266  0.4405580179697528
  0.4175905104687161 -0.2598009871520883  0.5576394106137780
  0.4774916785379610 -0.0983540310523198  0.6060665778597133
  0.4506119899991571 -0.2361912701070326  0.4744442072606421
  0.5307428152334369 -0.0602253021151845  0.4719075490403445
  0.5509993734206516  0.0257911791407963  0.5547341487680575
  0.3912728216829695 -0.2336842392111014  0.4152282438523282
  0.4364782572112941 -0.0454966861015076  0.3809599726777250
  0.5219825400338584  0.0580305271404646  0.4139255524685421
  0.3254218092946050 -0.2409743093948031  0.4674391858934877
  0.3212105446195101 -0.0749585992425675  0.4575347179271168
  0.3947000582509719  0.0491357594486381  0.4061884327439571
  0.3359079507773451 -0.2733003262605786  0.5547520997261493
  0.3502077819855919 -0.1072385432928800  0.5983292104193779
  0.3414458678219320  0.0110446342005607  0.5403599163581266
  0.4356964168954763 -0.0037600643150748  0.6312944062500777
  0.4808987759114438  0.1844271084934814  0.5970341362426479
  0.4215787915881341  0.1869831978297266  0.5378118733352768
  0.4546013662004463  0.2105842622155632  0.4546114794299165
  0.5362953861062307  0.2241007907351627  0.4575068511690136
  0.5467754197998140  0.1917928956947688  0.5448314112552602
 -0.1712723984570063 -0.0902623979476919  0.5658207800299095
 -0.1697081470381624 -0.2556557126558615  0.5451999370602449
 -0.1629141518426266  0.0061477504756045  0.4891904136037254
 -0.1562054520971771 -0.1001876112551342  0.4216229303726242
 -0.1639066905958331 -0.2696586400818670  0.4546055048441548
 -0.0866857817603103  0.1914612198099291  0.4926902615502789
 -0.0312767141310474  0.1889880158046507  0.4284976425103108
 -0.0745738344528481  0.0132073073359980  0.3839763496220372
 -0.0466738397335036  0.1947296628960729  0.5714713935667854
  0.0361821107341915  0.2198956220680487  0.5580769416604900
  0.0419819647159995  0.2059414250129454  0.4674894111309628
 -0.1007259758824294  0.0297545209935193  0.6211958339859991
 -0.0531462827696617 -0.0629190357857834  0.6287131974178009
  0.0284949985896439  0.0504567786722970  0.5910740922807405
 -0.0964509589150381 -0.2386776647929544  0.5842054161774847
 -0.0410419264121113 -0.2411602554820224  0.5200199838566054
  0.0351931361649096 -0.0558623880028548  0.5234996497402111
  0.0435481882573534  0.0405550006825827  0.4468657821413091
 -0.0270037640449590 -0.0794916805459009  0.3914868546838156
 -0.0810459370903850 -0.2444779343053762  0.4412217488117418
  0.0509473490451083  0.5690812804712150  0.5927325624987426
  0.1427037237445171  0.6721991695356867  0.5946250512657119
  0.0236306036825933  0.4128672044130898  0.5382895874857428
  0.0986704412038348  0.4203341453029351  0.5068113714830519
  0.1743739442850215  0.5775299455248591  0.5439722871678291
 -0.0246224834751582  0.4245059095187632  0.4688998665488419
  0.0268894670868489  0.4520005268650457  0.3949068206002483
  0.1006876991503085  0.4445808945525039  0.4178902602569152
 -0.0185899560830894  0.6017280420827232  0.4807769924033782
  0.0245862655337359  0.7271677020023501  0.4110982946934874
  0.0562285300242066  0.6324669289100218  0.3604462409611642
  0.0211874551578281  0.6864471477043662  0.5602182296456156
  0.0982470731592576  0.8600953567285762  0.5371764908243148
  0.1002787723258557  0.8843852555620284  0.4482538481408180
  0.1720258839671384  0.8526614594100886  0.5601706969095684
  0.2235410567555906  0.8801724549047251  0.4861822387569029
  0.1753049873601042  0.8918101831085429  0.4167783351050938
  0.1479832217843001  0.7355798077997530  0.3623352477525863
  0.1777559319255332  0.6182209269830485  0.3948540811752319
  0.2175431394034113  0.7029814855817121  0.4742944624950237
  0.8158698639689591  0.3177205930378173  0.6523196860666507
  0.7241140408451011  0.2146396388108938  0.6504151411246433
  0.8452588156197314  0.4982046224487440  0.6178535912858176
  0.7714899207125930  0.5056537064329046  0.5948126022697443
  0.6943848226819846  0.3320471235780018  0.6178524291958331
  0.8968251135752221  0.5256633069259243  0.5438931526793659
  0.8486383373302193  0.5373339130191196  0.4744637045375080
  0.7735895046081900  0.5299420535060267  0.5058896879537653
  0.8907743816299213  0.3484167533482371  0.5320389306127070
  0.8510444363737838  0.2636849622286081  0.4525845182991333
  0.8213431151028568  0.3811232895818476  0.4200236471675648
  0.8475391988898571  0.2230108830345107  0.6017136896879175
  0.7718653641258389  0.0658134567723384  0.5645436213874017
  0.7739506717989240  0.0900606329829333  0.4756149959163665
  0.6968354670726331  0.0584301423302715  0.5959797673425575
  0.6486453014608166  0.0700824159487833  0.5265528909776183
  0.7001951824752207  0.0975491404734368  0.4525807867355143
  0.7295891223938346  0.2780490792847848  0.4181162306666701
  0.6979067559448040  0.3727492622879851  0.4687270558792594
  0.6546619175051083  0.2473036318421931  0.5383964679576972
