Generated by VASPKIT code               
   1.00000000000000     
    18.9350855114115078    0.7167832871615422    0.0000000000000000
    -8.7914585840842001   15.8216439422729689    0.0000000000000000
     0.0000000000000013    0.0000000000000021   19.7166017340955584
   C 
   128
Direct
  0.4646141097951002  0.7128677071808340  0.5033929664137489
  0.5343758556843738  0.2874509037179038  0.5029776359506997
  0.4324830941682336  0.6461552060937521  0.5552502940441784
  0.5667165941000718  0.3542053638099389  0.5548299633753544
  0.4469095748113148  0.6797918292818252  0.4389544064236688
  0.5529736508355754  0.3204855230727972  0.4386151236161808
  0.3740090139384762  0.5605615388875975  0.5165266866026101
  0.6257258600372353  0.4401704207240513  0.5163105909453591
  0.3899645392925564  0.5909829154613178  0.4417235341537662
  0.6103673172540169  0.4089502649242363  0.4417979312426255
  0.4240294929916217  0.7277774513489845  0.3929541762752535
  0.5757171228957390  0.2723783522237326  0.3920838964729967
  0.3523365984337659  0.6682794661502953  0.3659728951676655
  0.6475699456531814  0.3311372577763620  0.3659311066368360
  0.3293642119932443  0.5852280287601985  0.3979947768994521
  0.6712198853461331  0.4140720992107561  0.3982664586943159
  0.4048643885226397  0.7900467807494778  0.4366466610765229
  0.5953148734602181  0.2109209037445012  0.4365363148506347
  0.4351216770336706  0.7775098151239703  0.5106224953377847
  0.5648911061041133  0.2235706935167912  0.5103642233728749
  0.3699145287702734  0.7359476046403941  0.5618235602856529
  0.6297829220133906  0.2652959418730703  0.5618412941881630
  0.3161948040852565  0.7506308665804298  0.4282459528930502
  0.6840391243748840  0.2500650197312737  0.4286328738763672
  0.2638815863091537  0.7259281028417064  0.4839503380945729
  0.7362454736803272  0.2743014069586707  0.4852017733215490
  0.2900597897506429  0.7212417958272539  0.5526865791813265
  0.7099039348089633  0.2809710677708708  0.5534081613213147
  0.2886594467974746  0.6889452238777878  0.3760282160492920
  0.7117135832087982  0.3101280371678925  0.3761669343043721
  0.2963911042924323  0.6018289342665852  0.5901156295345586
  0.7036665791579892  0.3996218448171973  0.5906001969130656
  0.3748931886989908  0.6668361681528552  0.5926762568782351
  0.6247396295749752  0.3342658883900995  0.5920684850802047
  0.2414371867283123  0.6354801084157842  0.5751595782449073
  0.7596830853955865  0.3667307353530518  0.5780457733859805
  0.1964683917082510  0.5918527565935463  0.5183392452960192
  0.8024225749013141  0.4087038482636700  0.5201305714720874
  0.1993585314376674  0.6457974664895048  0.4664849504266684
  0.7996799580904010  0.3539003609586331  0.4680393254069060
  0.2136115932487002  0.6145925332739282  0.3974350540750038
  0.7866807224966053  0.3842977983326037  0.3983612728643138
  0.2917053916327177  0.5443076602041259  0.5380796442047142
  0.7077916495707228  0.4566852377762203  0.5384415129930176
  0.2316073494347677  0.5372178246348440  0.4919132375683404
  0.7675479228393343  0.4621559975688569  0.4925444308467917
  0.2496023624289307  0.5572154279635910  0.4227748940370830
  0.7506841238366775  0.4420509379576671  0.4230568575631750
  0.9601426981172381  0.9867568477675874  0.5898933828129742
  0.5532169329804546  0.1009084151462574  0.5796132607671964
  0.9161404664798383  0.4869750750963604  0.4209381637217220
  0.5802971955575913  0.4846677265242931  0.6847128074085376
  0.0460058379990613  0.0285770813302335  0.5876650394322951
  0.6092154409650661  0.0741247745462275  0.5539656692271748
  0.9569834684774463  0.5709723172754195  0.4036277723096688
  0.5213315630698858  0.4043915669929419  0.6651901160448830
  0.9343144444527027  0.9075636577162385  0.5577293016748115
  0.4921548871744221  0.0360615094435914  0.6149285910783817
  0.9632348133686577  0.4565459429124914  0.4547071677039867
  0.5411144303174567  0.5268939566293369  0.7237607418341980
  0.0044542993911776  0.9009054980311433  0.5357901183816409
  0.5092663080411199  0.9651369481806995  0.6148166027726489
  0.0406156290143258  0.5251036676894216  0.4571428170617864
  0.4587698793651427  0.4733622004918985  0.7238358303994232
  0.0755655602021221  0.9746537487983105  0.5564270085908305
  0.5820989859009913  0.9879299959553620  0.5766904327491815
  0.0386891966814105  0.5999922605774870  0.4270120251020373
  0.4469297782561483  0.4002857163541478  0.6863545525823298
  0.8851322131539163  0.9025864550891072  0.4991264345200221
  0.4190664128870480  0.0131281229198166  0.5770735785995100
  0.9635950947102074  0.3876370701746481  0.4142275552803341
  0.5529104363483768  0.6000381494730007  0.6863735861982576
  0.9302764866969397  0.8980827080807074  0.4405659774820236
  0.3918866864119082  0.9269908834483829  0.5542569314457069
  0.0443469542995061  0.4210193193289697  0.3882311285678099
  0.4784824752361487  0.5958970209495433  0.6653853708661259
  0.0019423494745681  0.8950048262725829  0.4631366342690555
  0.4480073746398574  0.9003688741533225  0.5795860531081587
  0.0870600977718823  0.5014204426120870  0.4149948683403650
  0.4194982286115447  0.5156107474020075  0.6849838467172731
  0.8879850507727909  0.9842276985714804  0.4946548487579392
  0.4331791959606974  0.0650094151713603  0.5200223022814754
  0.9171334964003748  0.3801970202617468  0.3560584630234302
  0.5990277689087762  0.6034653834326633  0.6270842618975081
  0.9240347759284404  0.0253098341995468  0.4313161223652529
  0.4201210438144329  0.0109226212363112  0.4624750376787219
  0.9628212656099322  0.3985955070905973  0.2941832108614832
  0.5538296451371778  0.6008535362304244  0.5683536022885534
  0.9535952974508461  0.9713853727247681  0.4000873419592068
  0.3891729857341488  0.9237852104229560  0.4830069543071858
  0.0447296494789384  0.4295021432086230  0.3155375689712230
  0.4771955014328668  0.6036151567750565  0.5886369858200808
  0.9282607520113046  0.0351448828173488  0.5529844917894948
  0.5199189378403446  0.1302833405254304  0.5218625730162927
  0.8680402212366545  0.4288876198501370  0.3633709494202861
  0.6164879393729592  0.5332049745689318  0.6265014307834207
  0.9976544561559777  0.1049197762964269  0.5246247763516863
  0.5577274767920031  0.1140076649418660  0.4549524026426894
  0.9045355316372010  0.4916921001229468  0.3033773624900959
  0.5871076909525783  0.4850193182359561  0.5596736250215741
  0.9951521093596369  0.0990633069160722  0.4519662767018602
  0.4911929951032405  0.0351466923115353  0.4253660557561503
  0.9582220246372017  0.4712703135471230  0.2675936991286818
  0.5402569612412904  0.5276449819706457  0.5318448634591562
  0.0693252453511235  0.1018766215737870  0.5471936032787568
  0.6115037315789209  0.0772406602896609  0.4827670920680944
  0.9540404361997687  0.5744842499442271  0.3305015912662554
  0.5223826353811916  0.3968353735338184  0.5883836738560220
  0.1144762307063232  0.0973710755592805  0.4886299458111196
  0.5805018722573863  0.9900835053712811  0.4621872062500714
  0.0348124961052534  0.6086560986273355  0.3067349172291003
  0.4456650619806553  0.3995658609031025  0.5683417673215700
  0.0652892512675933  0.0923814150797000  0.4300430375307300
  0.5093628232370335  0.9659868780397503  0.4252291247877480
  0.0387243755510696  0.5415424599134937  0.2691709822574069
  0.4590864036734814  0.4728098284117976  0.5319503455377657
  0.0394504033852030  0.0131816283062776  0.3978687569901425
  0.4428960192821876  0.8870409231421164  0.4548929484928266
  0.0932013784306704  0.5159738790726820  0.2970780099379908
  0.4123896573709374  0.5154890837507722  0.5600496153234147
  0.0713422532063746  0.9647889300552279  0.4347514302649316
  0.4808833635778385  0.8707639494162578  0.5217187261142939
  0.1320529844654175  0.5690848371670825  0.3621783923179365
  0.3831959225354211  0.4671840603334516  0.6268084887376517
  0.1116130266394180  0.0157273913876566  0.4930965836631316
  0.5677706657901425  0.9359220126097370  0.5196345927863604
  0.0822977228765325  0.6168558688054304  0.3664836053512346
  0.4006711885012422  0.3968668914710705  0.6272002060348427
 
  0.00000000E+00  0.00000000E+00  0.00000000E+00
  0.00000000E+00  0.00000000E+00  0.00000000E+00
  0.00000000E+00  0.00000000E+00  0.00000000E+00
  0.00000000E+00  0.00000000E+00  0.00000000E+00
  0.00000000E+00  0.00000000E+00  0.00000000E+00
  0.00000000E+00  0.00000000E+00  0.00000000E+00
  0.00000000E+00  0.00000000E+00  0.00000000E+00
  0.00000000E+00  0.00000000E+00  0.00000000E+00
  0.00000000E+00  0.00000000E+00  0.00000000E+00
  0.00000000E+00  0.00000000E+00  0.00000000E+00
  0.00000000E+00  0.00000000E+00  0.00000000E+00
  0.00000000E+00  0.00000000E+00  0.00000000E+00
  0.00000000E+00  0.00000000E+00  0.00000000E+00
  0.00000000E+00  0.00000000E+00  0.00000000E+00
  0.00000000E+00  0.00000000E+00  0.00000000E+00
  0.00000000E+00  0.00000000E+00  0.00000000E+00
  0.00000000E+00  0.00000000E+00  0.00000000E+00
  0.00000000E+00  0.00000000E+00  0.00000000E+00
  0.00000000E+00  0.00000000E+00  0.00000000E+00
  0.00000000E+00  0.00000000E+00  0.00000000E+00
  0.00000000E+00  0.00000000E+00  0.00000000E+00
  0.00000000E+00  0.00000000E+00  0.00000000E+00
  0.00000000E+00  0.00000000E+00  0.00000000E+00
  0.00000000E+00  0.00000000E+00  0.00000000E+00
  0.00000000E+00  0.00000000E+00  0.00000000E+00
  0.00000000E+00  0.00000000E+00  0.00000000E+00
  0.00000000E+00  0.00000000E+00  0.00000000E+00
  0.00000000E+00  0.00000000E+00  0.00000000E+00
  0.00000000E+00  0.00000000E+00  0.00000000E+00
  0.00000000E+00  0.00000000E+00  0.00000000E+00
  0.00000000E+00  0.00000000E+00  0.00000000E+00
  0.00000000E+00  0.00000000E+00  0.00000000E+00
  0.00000000E+00  0.00000000E+00  0.00000000E+00
  0.00000000E+00  0.00000000E+00  0.00000000E+00
  0.00000000E+00  0.00000000E+00  0.00000000E+00
  0.00000000E+00  0.00000000E+00  0.00000000E+00
  0.00000000E+00  0.00000000E+00  0.00000000E+00
  0.00000000E+00  0.00000000E+00  0.00000000E+00
  0.00000000E+00  0.00000000E+00  0.00000000E+00
  0.00000000E+00  0.00000000E+00  0.00000000E+00
  0.00000000E+00  0.00000000E+00  0.00000000E+00
  0.00000000E+00  0.00000000E+00  0.00000000E+00
  0.00000000E+00  0.00000000E+00  0.00000000E+00
  0.00000000E+00  0.00000000E+00  0.00000000E+00
  0.00000000E+00  0.00000000E+00  0.00000000E+00
  0.00000000E+00  0.00000000E+00  0.00000000E+00
  0.00000000E+00  0.00000000E+00  0.00000000E+00
  0.00000000E+00  0.00000000E+00  0.00000000E+00
  0.00000000E+00  0.00000000E+00  0.00000000E+00
  0.00000000E+00  0.00000000E+00  0.00000000E+00
  0.00000000E+00  0.00000000E+00  0.00000000E+00
  0.00000000E+00  0.00000000E+00  0.00000000E+00
  0.00000000E+00  0.00000000E+00  0.00000000E+00
  0.00000000E+00  0.00000000E+00  0.00000000E+00
  0.00000000E+00  0.00000000E+00  0.00000000E+00
  0.00000000E+00  0.00000000E+00  0.00000000E+00
  0.00000000E+00  0.00000000E+00  0.00000000E+00
  0.00000000E+00  0.00000000E+00  0.00000000E+00
  0.00000000E+00  0.00000000E+00  0.00000000E+00
  0.00000000E+00  0.00000000E+00  0.00000000E+00
  0.00000000E+00  0.00000000E+00  0.00000000E+00
  0.00000000E+00  0.00000000E+00  0.00000000E+00
  0.00000000E+00  0.00000000E+00  0.00000000E+00
  0.00000000E+00  0.00000000E+00  0.00000000E+00
  0.00000000E+00  0.00000000E+00  0.00000000E+00
  0.00000000E+00  0.00000000E+00  0.00000000E+00
  0.00000000E+00  0.00000000E+00  0.00000000E+00
  0.00000000E+00  0.00000000E+00  0.00000000E+00
  0.00000000E+00  0.00000000E+00  0.00000000E+00
  0.00000000E+00  0.00000000E+00  0.00000000E+00
  0.00000000E+00  0.00000000E+00  0.00000000E+00
  0.00000000E+00  0.00000000E+00  0.00000000E+00
  0.00000000E+00  0.00000000E+00  0.00000000E+00
  0.00000000E+00  0.00000000E+00  0.00000000E+00
  0.00000000E+00  0.00000000E+00  0.00000000E+00
  0.00000000E+00  0.00000000E+00  0.00000000E+00
  0.00000000E+00  0.00000000E+00  0.00000000E+00
  0.00000000E+00  0.00000000E+00  0.00000000E+00
  0.00000000E+00  0.00000000E+00  0.00000000E+00
  0.00000000E+00  0.00000000E+00  0.00000000E+00
  0.00000000E+00  0.00000000E+00  0.00000000E+00
  0.00000000E+00  0.00000000E+00  0.00000000E+00
  0.00000000E+00  0.00000000E+00  0.00000000E+00
  0.00000000E+00  0.00000000E+00  0.00000000E+00
  0.00000000E+00  0.00000000E+00  0.00000000E+00
  0.00000000E+00  0.00000000E+00  0.00000000E+00
  0.00000000E+00  0.00000000E+00  0.00000000E+00
  0.00000000E+00  0.00000000E+00  0.00000000E+00
  0.00000000E+00  0.00000000E+00  0.00000000E+00
  0.00000000E+00  0.00000000E+00  0.00000000E+00
  0.00000000E+00  0.00000000E+00  0.00000000E+00
  0.00000000E+00  0.00000000E+00  0.00000000E+00
  0.00000000E+00  0.00000000E+00  0.00000000E+00
  0.00000000E+00  0.00000000E+00  0.00000000E+00
  0.00000000E+00  0.00000000E+00  0.00000000E+00
  0.00000000E+00  0.00000000E+00  0.00000000E+00
  0.00000000E+00  0.00000000E+00  0.00000000E+00
  0.00000000E+00  0.00000000E+00  0.00000000E+00
  0.00000000E+00  0.00000000E+00  0.00000000E+00
  0.00000000E+00  0.00000000E+00  0.00000000E+00
  0.00000000E+00  0.00000000E+00  0.00000000E+00
  0.00000000E+00  0.00000000E+00  0.00000000E+00
  0.00000000E+00  0.00000000E+00  0.00000000E+00
  0.00000000E+00  0.00000000E+00  0.00000000E+00
  0.00000000E+00  0.00000000E+00  0.00000000E+00
  0.00000000E+00  0.00000000E+00  0.00000000E+00
  0.00000000E+00  0.00000000E+00  0.00000000E+00
  0.00000000E+00  0.00000000E+00  0.00000000E+00
  0.00000000E+00  0.00000000E+00  0.00000000E+00
  0.00000000E+00  0.00000000E+00  0.00000000E+00
  0.00000000E+00  0.00000000E+00  0.00000000E+00
  0.00000000E+00  0.00000000E+00  0.00000000E+00
  0.00000000E+00  0.00000000E+00  0.00000000E+00
  0.00000000E+00  0.00000000E+00  0.00000000E+00
  0.00000000E+00  0.00000000E+00  0.00000000E+00
  0.00000000E+00  0.00000000E+00  0.00000000E+00
  0.00000000E+00  0.00000000E+00  0.00000000E+00
  0.00000000E+00  0.00000000E+00  0.00000000E+00
  0.00000000E+00  0.00000000E+00  0.00000000E+00
  0.00000000E+00  0.00000000E+00  0.00000000E+00
  0.00000000E+00  0.00000000E+00  0.00000000E+00
  0.00000000E+00  0.00000000E+00  0.00000000E+00
  0.00000000E+00  0.00000000E+00  0.00000000E+00
  0.00000000E+00  0.00000000E+00  0.00000000E+00
  0.00000000E+00  0.00000000E+00  0.00000000E+00
  0.00000000E+00  0.00000000E+00  0.00000000E+00
  0.00000000E+00  0.00000000E+00  0.00000000E+00
  0.00000000E+00  0.00000000E+00  0.00000000E+00
