C                                       
   1.00000000000000     
    10.5364410503087651    0.6365679654149340    0.0000000000000000
     0.6972769153118015   11.5144890665737947    0.0000000000000000
     0.0000000000000000    0.0000000000000000   16.0000000000000000
  C             
    88
Direct
  0.0378570056732442  0.4517492834531764  0.6281130677534532
  0.9464457312294836  0.5584499408878271  0.6257758198810960
  0.9804921817813944  0.3651270655868294  0.5863735289467591
  0.8230183395256995  0.5391709009516240  0.5737417193123194
  0.8724405787003047  0.4190358677882306  0.5407318153217082
  0.0676322904218587  0.2884560211015497  0.5304382060324916
  0.9810023532820304  0.2900741121656775  0.4386055104371906
  0.8773620337588232  0.3875263977300699  0.4561492363452935
  0.1560331454213041  0.3757852407836466  0.5098593675337488
  0.1683971703678701  0.4688888334594539  0.5783309610381928
  0.1216285493369345  0.5896296058971425  0.5441606244453573
  0.1479295880645999  0.4082217169772840  0.4285674786525157
  0.1734571982131594  0.5262108769592774  0.3967784268481554
  0.1301288432187300  0.6234115561866861  0.4626182602583806
  0.0578802953202511  0.3544639932685688  0.3798988388991659
  0.9236210344080030  0.7145788026491783  0.5216982775329504
  0.0051637648858024  0.6402605638596912  0.5816758036687577
  0.0194194867543031  0.7156365146184560  0.4367061973507456
  0.9655804285271710  0.6369331829713755  0.3771151866539941
  0.0504480549778882  0.5501868903040954  0.3384450098510693
  0.9842623560569070  0.4470262634966942  0.3408563275301146
  0.8351868640058011  0.6282227613396888  0.4973941090487252
  0.8603035309754906  0.5875475691036419  0.4153316462027518
  0.8613438718219636  0.4696406892446623  0.3875419091546830
  0.5378573844699229  0.9517490426414842  0.6281133964658873
  0.4464459719499007  0.0584489018786263  0.6257759586664624
  0.4804924579572402  0.8651266384152345  0.5863737654319023
  0.3230182776414128  0.0391697171069709  0.5737415580681122
  0.3724411886382449  0.9190353298672822  0.5407322279394574
  0.5676319212333543  0.7884559846519602  0.5304382920438198
  0.4810025913636625  0.7900730855483260  0.4386061279378557
  0.3773619958972916  0.8875255308609690  0.4561495261283536
  0.6560328881062326  0.8757847454766821  0.5098612794249265
  0.6683978988009426  0.9688885531386021  0.5783309226855515
  0.6216284794899620  0.0896289595024244  0.5441607067721609
  0.6479294118668188  0.9082214735776889  0.4285667564080965
  0.6734572403242480  0.0262098127466807  0.3967790756130921
  0.6301285764357634  0.1234113932946602  0.4626176748560087
  0.5578807101814817  0.8544628490556417  0.3798993131886355
  0.4236208422741147  0.2145778801031105  0.5216983426918608
  0.5051636124226440  0.1402599484758616  0.5816757720236686
  0.5194189792944224  0.2156365241407328  0.4367065118193388
  0.4655800683454089  0.1369330102453722  0.3771153755141448
  0.5504478799411747  0.0501862457583406  0.3384448802045563
  0.4842629305607927  0.9470256163564272  0.3408570822934576
  0.3351871385674145  0.1282221447219090  0.4973942495078533
  0.3603034964243949  0.0875464817004713  0.4153314744389435
  0.3613440935168795  0.9696397522280047  0.3875421814953731
  0.0908918291473341  0.1544730643462824  0.5485740169640106
  0.1722344017701612  0.0363068255000905  0.5816588959458431
  0.9550649371565237  0.1341143910657702  0.5764461739155623
  0.9357747932347623  0.0303118859632180  0.6231381608133612
  0.0555228086287786  0.9661595397870733  0.6263443002930724
  0.8948394991990213  0.1280077003096669  0.5014427633528984
  0.8479561406860423  0.0192745702642466  0.4935235699658129
  0.8205278831748203  0.9623262394528717  0.5803838474565206
  0.9633164088586412  0.1611946605947136  0.4248702625654984
  0.9366956607236919  0.0494892676414766  0.3669940289328628
  0.8212311750492217  0.9967847708073194  0.4017784135670295
  0.0916156939427873  0.1208243289605722  0.4572589999200074
  0.1422752120322452  0.0151348796923452  0.4267440012209704
  0.0455454867600312  0.9662683626078550  0.3782209131313812
  0.1742370519421622  0.9565907944673661  0.5027462221183896
  0.1092814310101439  0.8596185570374127  0.5063432829886056
  0.0317782337256534  0.8492624532216139  0.4279150704988148
  0.9041338380910354  0.9017461894292769  0.4597273692889069
  0.9005329657584458  0.8437271307109624  0.5471310416535394
  0.0358954056410154  0.8620073678860791  0.5774770485357078
  0.5908923119289249  0.6544708541882736  0.5485753522091558
  0.6722358152576748  0.5363068572154385  0.5816597301343049
  0.4550645672687210  0.6341129465166643  0.5764467805101041
  0.4357752993049059  0.5303103775442249  0.6231396520843111
  0.5555237499700805  0.4661572757891783  0.6263460576651512
  0.3948408318792089  0.6280075064609963  0.5014449160074140
  0.3479561432320387  0.5192729226194349  0.4935244965284444
  0.3205274911092893  0.4623254782129669  0.5803844983030980
  0.4633163457371646  0.6611938897089558  0.4248711774481986
  0.4366964432315208  0.5494887631723910  0.3669956516813037
  0.3212324305435818  0.4967845411055456  0.4017794397040347
  0.5916173056303460  0.6208230635627194  0.4572604099798472
  0.6422761412743245  0.5151347040897819  0.4267448360800661
  0.5455469100488712  0.4662681405512093  0.3782219066048350
  0.6742374282190567  0.4565899335221992  0.5027475239529610
  0.6092817924740326  0.3596181061696489  0.5063440278255031
  0.5317784854308943  0.3492623635756790  0.4279155043723428
  0.4041331119712082  0.4017461536412348  0.4597276727194044
  0.4005324426813144  0.3437266203912636  0.5471316524814566
  0.5358957922587729  0.3620056142193261  0.5774781129123346
 
  0.00000000E+00  0.00000000E+00  0.00000000E+00
  0.00000000E+00  0.00000000E+00  0.00000000E+00
  0.00000000E+00  0.00000000E+00  0.00000000E+00
  0.00000000E+00  0.00000000E+00  0.00000000E+00
  0.00000000E+00  0.00000000E+00  0.00000000E+00
  0.00000000E+00  0.00000000E+00  0.00000000E+00
  0.00000000E+00  0.00000000E+00  0.00000000E+00
  0.00000000E+00  0.00000000E+00  0.00000000E+00
  0.00000000E+00  0.00000000E+00  0.00000000E+00
  0.00000000E+00  0.00000000E+00  0.00000000E+00
  0.00000000E+00  0.00000000E+00  0.00000000E+00
  0.00000000E+00  0.00000000E+00  0.00000000E+00
  0.00000000E+00  0.00000000E+00  0.00000000E+00
  0.00000000E+00  0.00000000E+00  0.00000000E+00
  0.00000000E+00  0.00000000E+00  0.00000000E+00
  0.00000000E+00  0.00000000E+00  0.00000000E+00
  0.00000000E+00  0.00000000E+00  0.00000000E+00
  0.00000000E+00  0.00000000E+00  0.00000000E+00
  0.00000000E+00  0.00000000E+00  0.00000000E+00
  0.00000000E+00  0.00000000E+00  0.00000000E+00
  0.00000000E+00  0.00000000E+00  0.00000000E+00
  0.00000000E+00  0.00000000E+00  0.00000000E+00
  0.00000000E+00  0.00000000E+00  0.00000000E+00
  0.00000000E+00  0.00000000E+00  0.00000000E+00
  0.00000000E+00  0.00000000E+00  0.00000000E+00
  0.00000000E+00  0.00000000E+00  0.00000000E+00
  0.00000000E+00  0.00000000E+00  0.00000000E+00
  0.00000000E+00  0.00000000E+00  0.00000000E+00
  0.00000000E+00  0.00000000E+00  0.00000000E+00
  0.00000000E+00  0.00000000E+00  0.00000000E+00
  0.00000000E+00  0.00000000E+00  0.00000000E+00
  0.00000000E+00  0.00000000E+00  0.00000000E+00
  0.00000000E+00  0.00000000E+00  0.00000000E+00
  0.00000000E+00  0.00000000E+00  0.00000000E+00
  0.00000000E+00  0.00000000E+00  0.00000000E+00
  0.00000000E+00  0.00000000E+00  0.00000000E+00
  0.00000000E+00  0.00000000E+00  0.00000000E+00
  0.00000000E+00  0.00000000E+00  0.00000000E+00
  0.00000000E+00  0.00000000E+00  0.00000000E+00
  0.00000000E+00  0.00000000E+00  0.00000000E+00
  0.00000000E+00  0.00000000E+00  0.00000000E+00
  0.00000000E+00  0.00000000E+00  0.00000000E+00
  0.00000000E+00  0.00000000E+00  0.00000000E+00
  0.00000000E+00  0.00000000E+00  0.00000000E+00
  0.00000000E+00  0.00000000E+00  0.00000000E+00
  0.00000000E+00  0.00000000E+00  0.00000000E+00
  0.00000000E+00  0.00000000E+00  0.00000000E+00
  0.00000000E+00  0.00000000E+00  0.00000000E+00
  0.00000000E+00  0.00000000E+00  0.00000000E+00
  0.00000000E+00  0.00000000E+00  0.00000000E+00
  0.00000000E+00  0.00000000E+00  0.00000000E+00
  0.00000000E+00  0.00000000E+00  0.00000000E+00
  0.00000000E+00  0.00000000E+00  0.00000000E+00
  0.00000000E+00  0.00000000E+00  0.00000000E+00
  0.00000000E+00  0.00000000E+00  0.00000000E+00
  0.00000000E+00  0.00000000E+00  0.00000000E+00
  0.00000000E+00  0.00000000E+00  0.00000000E+00
  0.00000000E+00  0.00000000E+00  0.00000000E+00
  0.00000000E+00  0.00000000E+00  0.00000000E+00
  0.00000000E+00  0.00000000E+00  0.00000000E+00
  0.00000000E+00  0.00000000E+00  0.00000000E+00
  0.00000000E+00  0.00000000E+00  0.00000000E+00
  0.00000000E+00  0.00000000E+00  0.00000000E+00
  0.00000000E+00  0.00000000E+00  0.00000000E+00
  0.00000000E+00  0.00000000E+00  0.00000000E+00
  0.00000000E+00  0.00000000E+00  0.00000000E+00
  0.00000000E+00  0.00000000E+00  0.00000000E+00
  0.00000000E+00  0.00000000E+00  0.00000000E+00
  0.00000000E+00  0.00000000E+00  0.00000000E+00
  0.00000000E+00  0.00000000E+00  0.00000000E+00
  0.00000000E+00  0.00000000E+00  0.00000000E+00
  0.00000000E+00  0.00000000E+00  0.00000000E+00
  0.00000000E+00  0.00000000E+00  0.00000000E+00
  0.00000000E+00  0.00000000E+00  0.00000000E+00
  0.00000000E+00  0.00000000E+00  0.00000000E+00
  0.00000000E+00  0.00000000E+00  0.00000000E+00
  0.00000000E+00  0.00000000E+00  0.00000000E+00
  0.00000000E+00  0.00000000E+00  0.00000000E+00
  0.00000000E+00  0.00000000E+00  0.00000000E+00
  0.00000000E+00  0.00000000E+00  0.00000000E+00
  0.00000000E+00  0.00000000E+00  0.00000000E+00
  0.00000000E+00  0.00000000E+00  0.00000000E+00
  0.00000000E+00  0.00000000E+00  0.00000000E+00
  0.00000000E+00  0.00000000E+00  0.00000000E+00
  0.00000000E+00  0.00000000E+00  0.00000000E+00
  0.00000000E+00  0.00000000E+00  0.00000000E+00
  0.00000000E+00  0.00000000E+00  0.00000000E+00
  0.00000000E+00  0.00000000E+00  0.00000000E+00
