Generated by VASPKIT code               
   1.00000000000000     
    19.6397939351758843    0.1961473025033987    0.0000000000000000
    -9.6190692967109648   16.0330443030179701    0.0000000000000000
     0.0000000000000013    0.0000000000000021   19.7142576115739523
   C 
   108
Direct
  0.2626077787952994  0.5745841780153498  0.6071464624515528
  0.7373294653275195  0.4254984744729313  0.6074097426559604
  0.2911307805654388  0.5385921563067484  0.5621220139431884
  0.7088555433519801  0.4613837433057739  0.5622310761017673
  0.3281360915768374  0.6593635879530595  0.6153679747448990
  0.6717335060916625  0.3407269314721475  0.6155626713495295
  0.3774541970882055  0.5933620168650648  0.5432985316652861
  0.6225888898856553  0.4067049582803435  0.5433044203910242
  0.3954729788924141  0.6730990200488804  0.5754814188617772
  0.6044348018432117  0.3269881106351136  0.5755650113271997
  0.3102494902876813  0.7249694282963972  0.6092287096355449
  0.6895527672920423  0.2751014995761807  0.6095951844589749
  0.3772533084312144  0.7928932216645919  0.5647072375030433
  0.6226051095192204  0.2071352445641850  0.5649922099178468
  0.4162885602641211  0.7441683941703801  0.5364654218398357
  0.5836877280714035  0.2558992261310138  0.5366057510633695
  0.2417338785920293  0.6786103739176355  0.5655431629126326
  0.7581955729516423  0.3214365250944127  0.5659769150955825
  0.1964552822214145  0.5841352816804886  0.5700297717105016
  0.8035669649886330  0.4159272920774697  0.5703663183357364
  0.2071519910407815  0.5560431510771267  0.4998515409024407
  0.7928484457332985  0.4439592135010102  0.5001655408696806
  0.2560887036409483  0.7151008417551807  0.4997628232816780
  0.7439149725627416  0.2848989181526207  0.5002535893849682
  0.2418037140282507  0.6785607616400782  0.4340418274509474
  0.7582758277529749  0.3213988014378799  0.4344794255546276
  0.1964367913257021  0.5840724043441128  0.4296471084293287
  0.8035430625954376  0.4158682841353709  0.4299812742639872
  0.3330285991261377  0.7815500513156763  0.4998148514318643
  0.6669752175002159  0.2184513582476555  0.5001947760780681
  0.2911412950791927  0.5386085123141982  0.4377905768877497
  0.7088697116549199  0.4614118846460613  0.4378958850525692
  0.2469958000375385  0.5131801219335159  0.4999377963794629
  0.7530105417238957  0.4868237755393068  0.5000770772911380
  0.2626698639523539  0.5744974924838999  0.3926092717502101
  0.7374029793406436  0.4254254642952446  0.3928724592849520
  0.3282629330575517  0.6592668515982893  0.3844567527842884
  0.6718732866821853  0.3406429316395716  0.3846467642011575
  0.3104418615977380  0.7248937320240572  0.3904166673850327
  0.6897610866202939  0.2750392802793371  0.3907819626107454
  0.3773933590968994  0.7928638272255597  0.4350230969064626
  0.6227535534900639  0.2071136469494519  0.4353052784538747
  0.3774077878644633  0.5932874351241040  0.4567089328957863
  0.6225555120518962  0.4066432211298974  0.4567098745283502
  0.3955661908977319  0.6730124362424519  0.4244525808490351
  0.6045394706221288  0.3269062211127576  0.4245280195219365
  0.4163161155540820  0.7441069016514206  0.4634092815211162
  0.5837213474831344  0.2558344101621017  0.4635452165829577
  0.5674396952673177  0.1103264516219227  0.5649902570018455
  0.8959106164372699  0.4592147348252169  0.5657139628356944
  0.5695471080405810  0.4443984756683079  0.5407952195032664
  0.6118505642359935  0.0683829576461790  0.5373143078023404
  0.9345779985155289  0.5482673840661292  0.5374872863630884
  0.4827014182865312  0.4027000652683341  0.5596659632999774
  0.4950591873621377  0.0341630982832868  0.6017172664829857
  0.9679816010904290  0.4603804062345347  0.6021065406268846
  0.5971978862995613  0.5342403678220080  0.5592657311547953
  0.5046411517434564  0.9658157837597656  0.6016614335358952
  0.0322157267087562  0.5395586639688545  0.6020591227274323
  0.5351321049524884  0.5404018399093715  0.5928952983577318
  0.5785620244835386  0.9881590765383237  0.5619632854130074
  0.0105856430245055  0.5945643956279767  0.5621963426564349
  0.4656730007966416  0.4604124036582533  0.5931937406379433
  0.4212554166804736  0.0118113727531934  0.5617521397442999
  0.9895554170768861  0.4054033008995148  0.5621000902660711
  0.6139658656645537  0.5829001044343514  0.4995967457502530
  0.3880372975537014  0.9316086969273698  0.5370521404394140
  0.0655023296546915  0.4517185894907243  0.5372547324108012
  0.5648186989325907  0.6224645987390289  0.4996217203818318
  0.4323793573485943  0.8896656598221142  0.5648270756686884
  0.1041732059469496  0.5407601429715214  0.5654720147852288
  0.5177824823975570  0.5978167426568035  0.5592230690968236
  0.4436185441719118  0.0622931790870993  0.4999167584453161
  0.9415435703422759  0.3782301055191084  0.4999833413615491
  0.5966544879087010  0.5337045491618255  0.4401983616455283
  0.4214325962310284  0.0118545787649538  0.4380338322382897
  0.9894138451257675  0.4054349536996256  0.4377697202674113
  0.5343206304395949  0.5395687561831437  0.4067886320565535
  0.3881454280798522  0.9316283394288405  0.4626833026113957
  0.0654192064203158  0.4517324551676438  0.4624842402977833
  0.5172887989748887  0.5972822722892701  0.4403152236945402
  0.5234394599097598  0.1057389797046326  0.5000237153929987
  0.9003362136056410  0.4180171176172109  0.5000812451659797
  0.5692523967153065  0.4440695034648670  0.4591488491835278
  0.5676194696510279  0.1103431170444651  0.4351706776541278
  0.8958274992948390  0.4592426558639531  0.4345083266043090
  0.4822138586961415  0.4021645847373918  0.4407610329134499
  0.4953516546897276  0.0341963374537571  0.3983394939972982
  0.9677828708684757  0.4604470984272737  0.3979141707746550
  0.4648618701037037  0.4595799282013147  0.4070888760048064
  0.6119609080248480  0.0684039366603884  0.4629445423150642
  0.9345041392872275  0.5482842815434239  0.4627200189626279
  0.4351770079820341  0.3775194780232169  0.5003600658597307
  0.5787383040753298  0.9881997634323056  0.4382436246313048
  0.0104506955929295  0.5946034036592778  0.4378716907218845
  0.3860301326704629  0.4170806351212164  0.5003851991167991
  0.5049353589673018  0.9658500232881408  0.3982792334080756
  0.0320163541439769  0.5396161333569651  0.3978664737896267
  0.4027930283633481  0.4657412142000581  0.4407206129810248
  0.4325547807036187  0.8896818561837847  0.4350061599011710
  0.1040930162443772  0.5407841301609864  0.4342658916028626
  0.4304484672187527  0.5555896601268131  0.4591935600372423
  0.4765615958140756  0.8942781090111467  0.4999724603732432
  0.0996667338978199  0.5819780229771894  0.4998957699161721
  0.4307435387070768  0.5559134997745261  0.5408404831913955
  0.5563766594108657  0.9377221438561634  0.5000773012098421
  0.0584572419629055  0.6217696319961021  0.4999856177008226
  0.4033411190525058  0.4662786547327329  0.5597833441944573
 
  0.00000000E+00  0.00000000E+00  0.00000000E+00
  0.00000000E+00  0.00000000E+00  0.00000000E+00
  0.00000000E+00  0.00000000E+00  0.00000000E+00
  0.00000000E+00  0.00000000E+00  0.00000000E+00
  0.00000000E+00  0.00000000E+00  0.00000000E+00
  0.00000000E+00  0.00000000E+00  0.00000000E+00
  0.00000000E+00  0.00000000E+00  0.00000000E+00
  0.00000000E+00  0.00000000E+00  0.00000000E+00
  0.00000000E+00  0.00000000E+00  0.00000000E+00
  0.00000000E+00  0.00000000E+00  0.00000000E+00
  0.00000000E+00  0.00000000E+00  0.00000000E+00
  0.00000000E+00  0.00000000E+00  0.00000000E+00
  0.00000000E+00  0.00000000E+00  0.00000000E+00
  0.00000000E+00  0.00000000E+00  0.00000000E+00
  0.00000000E+00  0.00000000E+00  0.00000000E+00
  0.00000000E+00  0.00000000E+00  0.00000000E+00
  0.00000000E+00  0.00000000E+00  0.00000000E+00
  0.00000000E+00  0.00000000E+00  0.00000000E+00
  0.00000000E+00  0.00000000E+00  0.00000000E+00
  0.00000000E+00  0.00000000E+00  0.00000000E+00
  0.00000000E+00  0.00000000E+00  0.00000000E+00
  0.00000000E+00  0.00000000E+00  0.00000000E+00
  0.00000000E+00  0.00000000E+00  0.00000000E+00
  0.00000000E+00  0.00000000E+00  0.00000000E+00
  0.00000000E+00  0.00000000E+00  0.00000000E+00
  0.00000000E+00  0.00000000E+00  0.00000000E+00
  0.00000000E+00  0.00000000E+00  0.00000000E+00
  0.00000000E+00  0.00000000E+00  0.00000000E+00
  0.00000000E+00  0.00000000E+00  0.00000000E+00
  0.00000000E+00  0.00000000E+00  0.00000000E+00
  0.00000000E+00  0.00000000E+00  0.00000000E+00
  0.00000000E+00  0.00000000E+00  0.00000000E+00
  0.00000000E+00  0.00000000E+00  0.00000000E+00
  0.00000000E+00  0.00000000E+00  0.00000000E+00
  0.00000000E+00  0.00000000E+00  0.00000000E+00
  0.00000000E+00  0.00000000E+00  0.00000000E+00
  0.00000000E+00  0.00000000E+00  0.00000000E+00
  0.00000000E+00  0.00000000E+00  0.00000000E+00
  0.00000000E+00  0.00000000E+00  0.00000000E+00
  0.00000000E+00  0.00000000E+00  0.00000000E+00
  0.00000000E+00  0.00000000E+00  0.00000000E+00
  0.00000000E+00  0.00000000E+00  0.00000000E+00
  0.00000000E+00  0.00000000E+00  0.00000000E+00
  0.00000000E+00  0.00000000E+00  0.00000000E+00
  0.00000000E+00  0.00000000E+00  0.00000000E+00
  0.00000000E+00  0.00000000E+00  0.00000000E+00
  0.00000000E+00  0.00000000E+00  0.00000000E+00
  0.00000000E+00  0.00000000E+00  0.00000000E+00
  0.00000000E+00  0.00000000E+00  0.00000000E+00
  0.00000000E+00  0.00000000E+00  0.00000000E+00
  0.00000000E+00  0.00000000E+00  0.00000000E+00
  0.00000000E+00  0.00000000E+00  0.00000000E+00
  0.00000000E+00  0.00000000E+00  0.00000000E+00
  0.00000000E+00  0.00000000E+00  0.00000000E+00
  0.00000000E+00  0.00000000E+00  0.00000000E+00
  0.00000000E+00  0.00000000E+00  0.00000000E+00
  0.00000000E+00  0.00000000E+00  0.00000000E+00
  0.00000000E+00  0.00000000E+00  0.00000000E+00
  0.00000000E+00  0.00000000E+00  0.00000000E+00
  0.00000000E+00  0.00000000E+00  0.00000000E+00
  0.00000000E+00  0.00000000E+00  0.00000000E+00
  0.00000000E+00  0.00000000E+00  0.00000000E+00
  0.00000000E+00  0.00000000E+00  0.00000000E+00
  0.00000000E+00  0.00000000E+00  0.00000000E+00
  0.00000000E+00  0.00000000E+00  0.00000000E+00
  0.00000000E+00  0.00000000E+00  0.00000000E+00
  0.00000000E+00  0.00000000E+00  0.00000000E+00
  0.00000000E+00  0.00000000E+00  0.00000000E+00
  0.00000000E+00  0.00000000E+00  0.00000000E+00
  0.00000000E+00  0.00000000E+00  0.00000000E+00
  0.00000000E+00  0.00000000E+00  0.00000000E+00
  0.00000000E+00  0.00000000E+00  0.00000000E+00
  0.00000000E+00  0.00000000E+00  0.00000000E+00
  0.00000000E+00  0.00000000E+00  0.00000000E+00
  0.00000000E+00  0.00000000E+00  0.00000000E+00
  0.00000000E+00  0.00000000E+00  0.00000000E+00
  0.00000000E+00  0.00000000E+00  0.00000000E+00
  0.00000000E+00  0.00000000E+00  0.00000000E+00
  0.00000000E+00  0.00000000E+00  0.00000000E+00
  0.00000000E+00  0.00000000E+00  0.00000000E+00
  0.00000000E+00  0.00000000E+00  0.00000000E+00
  0.00000000E+00  0.00000000E+00  0.00000000E+00
  0.00000000E+00  0.00000000E+00  0.00000000E+00
  0.00000000E+00  0.00000000E+00  0.00000000E+00
  0.00000000E+00  0.00000000E+00  0.00000000E+00
  0.00000000E+00  0.00000000E+00  0.00000000E+00
  0.00000000E+00  0.00000000E+00  0.00000000E+00
  0.00000000E+00  0.00000000E+00  0.00000000E+00
  0.00000000E+00  0.00000000E+00  0.00000000E+00
  0.00000000E+00  0.00000000E+00  0.00000000E+00
  0.00000000E+00  0.00000000E+00  0.00000000E+00
  0.00000000E+00  0.00000000E+00  0.00000000E+00
  0.00000000E+00  0.00000000E+00  0.00000000E+00
  0.00000000E+00  0.00000000E+00  0.00000000E+00
  0.00000000E+00  0.00000000E+00  0.00000000E+00
  0.00000000E+00  0.00000000E+00  0.00000000E+00
  0.00000000E+00  0.00000000E+00  0.00000000E+00
  0.00000000E+00  0.00000000E+00  0.00000000E+00
  0.00000000E+00  0.00000000E+00  0.00000000E+00
  0.00000000E+00  0.00000000E+00  0.00000000E+00
  0.00000000E+00  0.00000000E+00  0.00000000E+00
  0.00000000E+00  0.00000000E+00  0.00000000E+00
  0.00000000E+00  0.00000000E+00  0.00000000E+00
  0.00000000E+00  0.00000000E+00  0.00000000E+00
  0.00000000E+00  0.00000000E+00  0.00000000E+00
  0.00000000E+00  0.00000000E+00  0.00000000E+00
  0.00000000E+00  0.00000000E+00  0.00000000E+00
  0.00000000E+00  0.00000000E+00  0.00000000E+00
