C 
 1.0000000000000000
    14.4352055039348208    0.0000000000000000    0.0000000000000000
     0.0000000000000000    4.7381777527435656    0.0000000000000000
     0.0000000000000000    0.0000000000000000   16.0000000000000000
 C  
  64
Direct
 -0.1557165354272299  0.6088908012479443  0.5380420263220218
 -0.1589297024304836  0.4510259911772461  0.4616944437230976
 -0.1170437597690113  0.4426776126569421  0.6041813782457692
 -0.1027526175054397  0.1935536971525196  0.4765840148393419
 -0.0770734735198153  0.1885507262751493  0.5635110271926620
 -0.0407450561721423  0.5866570068314465  0.6422269326427195
  0.0404709387554963  0.4125648165247682  0.6422099633773377
  0.0190740931086620  0.1700088024824836  0.5868670575996646
 -0.0192016013022635  0.8294815870509031  0.5869716176907568
 -0.0895362783734940  0.8430446380643211  0.5232570867903352
 -0.0637687114008474  0.8383071796120198  0.4363008742219912
  0.0769822150412213  0.8112476998387030  0.5637742785732265
  0.1027502112751421  0.8065927228278187  0.4768560313362522
  0.0324112650228373  0.8200984765825521  0.4131275333585172
  0.1168911490299457  0.5567823790984088  0.6043590536200627
 -0.0436921388862938  0.4292803068497244  0.3577699386990519
 -0.1137074906482513  0.6011343842701836  0.3956300493094884
  0.0439516586696471  0.5713224159401854  0.3577669112559887
  0.1138157271951210  0.3993980949405603  0.3957787711431424
  0.1589110319672241  0.5492701227264638  0.4619897163218534
  0.1557672140973164  0.3909889874888288  0.5382858623319206
 -0.0322811265822639  0.1802415163277646  0.4130022301334991
  0.0638818762990820  0.1619972654083691  0.4363202844726703
  0.0895411115558396  0.1568827686246962  0.5232670757938689
  0.6986387469821160  0.2633852052323442  0.4502398110627225
  0.7553633316236714  0.2573285609194318  0.5252418038181610
  0.6034063217200291  0.2667202704708593  0.4760126086405906
  0.6018002812691597  0.2626258645416826  0.5668175277322532
  0.6964162453109666  0.2688527298863662  0.5995387863716584
  0.5563741123509417  0.0169991497482583  0.4430026446290912
  0.5318409232101856 -0.1477392294826894  0.5170748202675918
  0.5574089361347329  0.0056131942183834  0.5922842048150238
  0.6294448855132281 -0.1456376683369419  0.4027368077774773
  0.6416592598710353 -0.4195711810026953  0.4424934022836518
  0.5826956192321664 -0.4080416617035400  0.5167671436579947
  0.7160785230425259  0.0114852749559113  0.3997828850644704
  0.7806514753660987 -0.1563467262797769  0.4497265300247405
  0.7362777866116639 -0.4133955858487337  0.4751990805054364
  0.8062169798802474 -0.0029724550538022  0.5249145464250486
  0.7816931694994980 -0.1677136927251872  0.5989847798824834
  0.7346553713860128 -0.4174510900333279  0.5659983646811252
  0.6394159448115541 -0.4141036554533926  0.5917696468762761
  0.6219839384809596 -0.1621851300052524  0.6422374600405905
  0.7086341130440801 -0.0051000453322244  0.6392845064247448
  0.3002703564425494 -0.2668706335092396  0.4491249258513447
  0.2444493904662731 -0.2606617351434530  0.5246756638822616
  0.3958049952991911 -0.2704581333276913  0.4739675662742143
  0.3984999879481194 -0.2663660912292887  0.5647515005568373
  0.3042798172256578 -0.2723409294104974  0.5983935321869910
  0.4425104292182471 -0.0208627364790603  0.4404997358568577
  0.4679767286721086  0.1438119631131063  0.5143275843774174
  0.4432673702589994 -0.0094709061802396  0.5897826141461096
  0.3690080939370035  0.1419672813230713  0.4009480540368145
  0.3573491252820178  0.4159339698532376  0.4408201674294324
  0.4171958254256575  0.4042493807936192  0.5145146345065083
  0.2822991983314013 -0.0149255298139956  0.3988398465619757
  0.2183764123337304  0.1530789870174719  0.4494094856508724
  0.2631262200241222  0.4100104083241413  0.4744466443051144
  0.1936692999336522 -0.0002257369038880  0.5248431241608416
  0.2191261987289010  0.1644518460007266  0.5986691220583283
  0.2658375078445634  0.4140635050764980  0.5652247845010281
  0.3613791259074687  0.4104636172912051  0.5900658414130772
  0.3793426398564737  0.1584999392991877  0.6403618830857974
  0.2926172306331994  0.0016450307169979  0.6382548057385236
