Generated by VASPKIT code               
   1.00000000000000     
    11.2081294799966642   -0.0011857909814291    0.0000000000000000
    -5.6055694271079011    8.7513975560346946    0.0000000000000000
     0.0000000000000013    0.0000000000000021   19.7164975942431830
   C 
    68
Direct
  0.3981368930355202  0.8308235396645642  0.3994287835426604
  0.5673023800030847  0.1691959989825875  0.3994546989070429
  0.4726406035850061  0.7533374833092310  0.4046733402677347
  0.5289805075763141  0.2717995513322933  0.3863361044955909
  0.2571744602417994  0.7281939593599986  0.3863460223335267
  0.7193154752226789  0.2467077491115290  0.4047121268317611
  0.3803754677987143  0.5907403551952157  0.3997488895026819
  0.6683597135766277  0.4247113658590607  0.3935671109849537
  0.2436118721687137  0.5752834534161977  0.3935468081205755
  0.7896713518719594  0.4092979885980981  0.3998040381983259
  0.1584166400774976  0.7453756488958021  0.4357753554780928
  0.7563119028798511  0.1969315632560509  0.4636292022007709
  0.0650355583462030  0.5774822005845479  0.4615670926550592
  0.8539989014488967  0.3322871417414177  0.4973242866580279
  0.1383810372147849  0.4964977816745488  0.4405396659893341
  0.9013169347782153  0.4826727144241474  0.4595358510923830
  0.2715471183839213  0.8289228652591234  0.4920836390626278
  0.6282511553761196  0.0927342484533327  0.5102586075347872
  0.4181255893287101  0.9143155959266025  0.4656563597393770
  0.5037001707333317  0.0856169858928197  0.4656591292093424
  0.5356210958232026  0.9073115314803530  0.5102375916354092
  0.4422905030204447  0.1708306340914305  0.4920527908796615
  0.2322558882655130  0.7494010477327109  0.5520715635554794
  0.6709306718150359  0.1986171687223006  0.5732533432892311
  0.3316044404359815  0.7337058608207840  0.5934328301249749
  0.5976977979644076  0.2662670335053150  0.5934063726464984
  0.4725049176869760  0.8014007088114425  0.5732346415469678
  0.4826566353618205  0.2505379446454512  0.5520284188281863
  0.1119005132119213  0.5991646661436789  0.5360518373211960
  0.8173619110855697  0.3335738035940778  0.5638484517218671
  0.5218189733887471  0.6678108424351450  0.4972377131214714
  0.4875458161368158  0.4225105935720137  0.4615192796292007
  0.5595051363431978  0.8031470773272034  0.4635731674664996
  0.4129757102318408  0.2546037841941953  0.4357228190582489
  0.4839546492529649  0.6664905421901608  0.5637875835186321
  0.5126413557050640  0.4007247324326855  0.5359916337235262
  0.3548838445495477  0.5232946423511393  0.5770586231728387
  0.6454352873113365  0.5109760701295940  0.5597963911240313
  0.2617535847322756  0.5638353073345286  0.5991693917886991
  0.6977762712391709  0.4361404439281387  0.5991840294368416
  0.1345004344397722  0.4889956768770460  0.5597818464556212
  0.8315247513068371  0.4767201951753179  0.5771287137213719
  0.4186812336081189  0.5173632713355971  0.4594723445894502
  0.6419319338393095  0.5035059190256632  0.4405449915931001
  0.2956266918673762  0.4239955502392334  0.5119632537734802
  0.7399947848078057  0.5916737501867004  0.4980086059829461
  0.1482866921741390  0.4083119323544082  0.4979712899363591
  0.8716506328628455  0.5760358681802629  0.5120238078582844
  0.0319631114365819  0.0848863930093984  0.5933827271916741
  0.1706094297139700  0.1360240907082471  0.5690127530918332
  0.9471271257966620  0.9151908424140345  0.5933999222397901
  0.0346749851955437  0.8641180948868055  0.5690240435709200
  0.1644848570767934  0.0000795411441956  0.5505882345019799
  0.8352325079267899  0.8656442655578260  0.5463115602575854
  0.8397101646962781  0.7644371194768453  0.4921301551541077
  0.9724750276684659  0.7564550989804957  0.5089556119743008
  0.8538471066189572  0.9999541765720181  0.5148798025720538
  0.8817006007952699  0.9999098418590293  0.4443092020196175
  0.8837456825408552  0.8651256769545768  0.4293966194875196
  0.9695210771491816  0.1343169890353693  0.5462816649145381
  0.0751964319956571  0.2355198267529559  0.4920838949099107
  0.0185093182525762  0.1347655093716540  0.4293551628918166
  0.2159779751864761  0.2435914758808337  0.5089103686520176
  0.2440405690277530  0.1542585200108135  0.4478516486501007
  0.1068226878296343  0.0845972086945892  0.4079952182742872
  0.0222531308627225  0.9153523996491870  0.4080231468614173
  0.0899079910235514  0.8457918689763986  0.4478959885477281
  0.2062343270902858  0.0001062703109795  0.4832754614769641
 
  0.00000000E+00  0.00000000E+00  0.00000000E+00
  0.00000000E+00  0.00000000E+00  0.00000000E+00
  0.00000000E+00  0.00000000E+00  0.00000000E+00
  0.00000000E+00  0.00000000E+00  0.00000000E+00
  0.00000000E+00  0.00000000E+00  0.00000000E+00
  0.00000000E+00  0.00000000E+00  0.00000000E+00
  0.00000000E+00  0.00000000E+00  0.00000000E+00
  0.00000000E+00  0.00000000E+00  0.00000000E+00
  0.00000000E+00  0.00000000E+00  0.00000000E+00
  0.00000000E+00  0.00000000E+00  0.00000000E+00
  0.00000000E+00  0.00000000E+00  0.00000000E+00
  0.00000000E+00  0.00000000E+00  0.00000000E+00
  0.00000000E+00  0.00000000E+00  0.00000000E+00
  0.00000000E+00  0.00000000E+00  0.00000000E+00
  0.00000000E+00  0.00000000E+00  0.00000000E+00
  0.00000000E+00  0.00000000E+00  0.00000000E+00
  0.00000000E+00  0.00000000E+00  0.00000000E+00
  0.00000000E+00  0.00000000E+00  0.00000000E+00
  0.00000000E+00  0.00000000E+00  0.00000000E+00
  0.00000000E+00  0.00000000E+00  0.00000000E+00
  0.00000000E+00  0.00000000E+00  0.00000000E+00
  0.00000000E+00  0.00000000E+00  0.00000000E+00
  0.00000000E+00  0.00000000E+00  0.00000000E+00
  0.00000000E+00  0.00000000E+00  0.00000000E+00
  0.00000000E+00  0.00000000E+00  0.00000000E+00
  0.00000000E+00  0.00000000E+00  0.00000000E+00
  0.00000000E+00  0.00000000E+00  0.00000000E+00
  0.00000000E+00  0.00000000E+00  0.00000000E+00
  0.00000000E+00  0.00000000E+00  0.00000000E+00
  0.00000000E+00  0.00000000E+00  0.00000000E+00
  0.00000000E+00  0.00000000E+00  0.00000000E+00
  0.00000000E+00  0.00000000E+00  0.00000000E+00
  0.00000000E+00  0.00000000E+00  0.00000000E+00
  0.00000000E+00  0.00000000E+00  0.00000000E+00
  0.00000000E+00  0.00000000E+00  0.00000000E+00
  0.00000000E+00  0.00000000E+00  0.00000000E+00
  0.00000000E+00  0.00000000E+00  0.00000000E+00
  0.00000000E+00  0.00000000E+00  0.00000000E+00
  0.00000000E+00  0.00000000E+00  0.00000000E+00
  0.00000000E+00  0.00000000E+00  0.00000000E+00
  0.00000000E+00  0.00000000E+00  0.00000000E+00
  0.00000000E+00  0.00000000E+00  0.00000000E+00
  0.00000000E+00  0.00000000E+00  0.00000000E+00
  0.00000000E+00  0.00000000E+00  0.00000000E+00
  0.00000000E+00  0.00000000E+00  0.00000000E+00
  0.00000000E+00  0.00000000E+00  0.00000000E+00
  0.00000000E+00  0.00000000E+00  0.00000000E+00
  0.00000000E+00  0.00000000E+00  0.00000000E+00
  0.00000000E+00  0.00000000E+00  0.00000000E+00
  0.00000000E+00  0.00000000E+00  0.00000000E+00
  0.00000000E+00  0.00000000E+00  0.00000000E+00
  0.00000000E+00  0.00000000E+00  0.00000000E+00
  0.00000000E+00  0.00000000E+00  0.00000000E+00
  0.00000000E+00  0.00000000E+00  0.00000000E+00
  0.00000000E+00  0.00000000E+00  0.00000000E+00
  0.00000000E+00  0.00000000E+00  0.00000000E+00
  0.00000000E+00  0.00000000E+00  0.00000000E+00
  0.00000000E+00  0.00000000E+00  0.00000000E+00
  0.00000000E+00  0.00000000E+00  0.00000000E+00
  0.00000000E+00  0.00000000E+00  0.00000000E+00
  0.00000000E+00  0.00000000E+00  0.00000000E+00
  0.00000000E+00  0.00000000E+00  0.00000000E+00
  0.00000000E+00  0.00000000E+00  0.00000000E+00
  0.00000000E+00  0.00000000E+00  0.00000000E+00
  0.00000000E+00  0.00000000E+00  0.00000000E+00
  0.00000000E+00  0.00000000E+00  0.00000000E+00
  0.00000000E+00  0.00000000E+00  0.00000000E+00
  0.00000000E+00  0.00000000E+00  0.00000000E+00
