C80 + C60 interpenetrating cages (overlap test case)
 1.0000000000000000
    13.5000000000000000    0.0000000000000000    0.0000000000000000
     0.0000000000000000   16.6999999999999993    0.0000000000000000
     0.0000000000000000    0.0000000000000000   20.0000000000000000
 C  
  280
Direct
  0.3361768481481481  0.7935970059880240  0.6149758685000001
  0.3934998111111110  0.7339898203592815  0.6510403685000000
  0.2824072185185185  0.7715269461077845  0.5587828685000000
  0.3935442555555555  0.6545898197604790  0.6296913685000001
  0.4845746259259259  0.6109742514970060  0.6291348685000000
  0.4844805518518518  0.7698844305389222  0.6718538685000001
  0.5729368481481480  0.7265616766467066  0.6749558685000001
  0.5729820333333333  0.6440736526946108  0.6527858685000001
  0.7542775888888887  0.5463778443113773  0.5370908690000000
  0.6658116629629629  0.5564832335329342  0.5723943685000000
  0.6657583296296296  0.6076179640718563  0.6308108685000001
  0.7541657370370369  0.6448976047904192  0.6496283685000001
  0.3362057370370370  0.8934329341317365  0.4996048685000000
  0.3934827740740741  0.9160814371257485  0.5581083685000000
  0.2824227740740740  0.8226167658682636  0.4997458685000000
  0.3934664777777778  0.8672299395209582  0.6145658685000001
  0.4844635148148148  0.8531053886227545  0.6490668685000001
  0.4844887000000000  0.9508676646706588  0.5360708690000000
  0.5729124037037037  0.9410011976047904  0.5714688690000000
  0.5728946259259259  0.8902598802395210  0.6301243685000001
  0.7541198111111110  0.7282688622754492  0.6720268685000000
  0.6656605518518518  0.7716143712574851  0.6748768685000001
  0.6656435148148148  0.8539520952095808  0.6523213685000000
  0.7540790703703703  0.8868940119760479  0.6285673685000001
  0.3363175888888888  0.7928772455089821  0.3846713685000001
  0.3936087000000000  0.8665029934131737  0.3847853685000000
  0.2824798111111111  0.7711622754491019  0.4409308685000000
  0.3935524037037036  0.9157113772455091  0.4410263685000000
  0.4845368481481481  0.9506299401197604  0.4629408690000000
  0.4846420333333333  0.8521389215568863  0.3503868685000000
  0.5730561074074074  0.8893958083832336  0.3691958685000000
  0.5729975888888889  0.9405239520958084  0.4276168690000001
  0.7540961074074073  0.9381682634730539  0.5692803685000001
  0.6656701814814814  0.9548203592814372  0.5357033685000000
  0.6657175888888889  0.9545730538922156  0.4633463685000000
  0.7541783296296296  0.9376850299401198  0.4298808690000000
  0.3363575888888889  0.6308964065868263  0.4290108685000000
  0.3937035148148148  0.6537694604790419  0.3706003685000000
  0.2825005518518518  0.6882718556886228  0.4636188685000000
  0.3936827740740740  0.7330329341317365  0.3489003685000001
  0.4846931444444444  0.7687706580838324  0.3279778685000000
  0.4847272185185185  0.6101383233532934  0.3714133685000001
  0.5731694407407407  0.6430616760479042  0.3476733685000000
  0.5731464777777777  0.7254023952095808  0.3251233685000000
  0.7542375888888888  0.8860029940119761  0.3708418685000000
  0.6658257370370371  0.8529167658682636  0.3472068685000000
  0.6658761074074073  0.7704257479041916  0.3250433685000000
  0.7543257370370370  0.7270790419161677  0.3281493685000000
  0.3362724037037036  0.6313431131736527  0.5713463685000000
  0.3936383296296296  0.5718736520958083  0.5351548690000000
  0.2824575888888888  0.6884988023952096  0.5364553690000000
  0.3936783296296296  0.5716520958083833  0.4655038685000000
  0.4847161074074074  0.5588520958083834  0.4306933685000000
  0.4846286999999999  0.5593029940119760  0.5700903685000001
  0.5730961074074074  0.5424245502994012  0.5366428685000000
  0.5731375888888888  0.5421856287425150  0.4642858685000000
  0.7543487000000000  0.6438634724550898  0.3509478685000000
  0.6659124037037036  0.6067311377245509  0.3698838685000000
  0.6659020333333333  0.5559952095808384  0.4285428685000001
  0.7543190703703703  0.5461257485029940  0.4639603685000000
  0.9026264777777777  0.7033592814371258  0.3850353685000000
  0.8453375888888888  0.6297335323353294  0.3854608685000001
  0.8453257370370370  0.5809000000000000  0.4419308685000000
  0.9563924037037036  0.7254514970059881  0.4412238690000000
  0.9025331444444443  0.8656359275449103  0.4286198685000001
  0.8452590703703703  0.8423712568862275  0.3702838685000000
  0.8453064777777778  0.7629622754491018  0.3489533685000000
  0.9563442555555555  0.8084916161676646  0.4635253685000000
  0.9024464777777776  0.8661395203592815  0.5709573685000000
  0.8451257370370371  0.9253664664670659  0.5344563685000000
  0.8451701814814814  0.9251227544910180  0.4648038685000001
  0.9562998111111111  0.8087508976047905  0.5363618685000000
  0.9024872185185184  0.7041748502994012  0.6153413685000001
  0.8451220333333332  0.7640221556886229  0.6510973685000000
  0.8451042555555555  0.8432802389221558  0.6293803685000001
  0.9563205518518518  0.7258712568862276  0.5590748685000001
  0.9025968481481481  0.6035718562874252  0.5004343685000000
  0.8452538851851851  0.5813107778443114  0.5590128690000000
  0.8452005518518518  0.6305395203592814  0.6152428685000001
  0.9563768481481481  0.6743898197604791  0.5002758685000001
  0.1882285600000000  0.7613316670658683  0.3495182775000000
  0.1334755548148148  0.7010895736526946  0.3855499670000000
  0.1913046185185185  0.6285276682634731  0.3855412765000000
  0.2798937637037037  0.7260023640718563  0.3272441255000000
  0.2817977288888888  0.6439235347305390  0.3495083785000000
  0.3663243903703703  0.7710130802395210  0.3272469075000000
  0.3644205933333333  0.8530872419161678  0.3495249045000000
  0.1863964200000000  0.8403604538922156  0.3709683810000000
  0.2761591207407407  0.8871047982035929  0.3709719525000000
  0.1297409562962963  0.8621943389221557  0.4292759360000000
  0.0789185429629630  0.7221104862275449  0.4416938750000000
  0.0770147229629629  0.8041888323353293  0.4639713490000000
  0.0800851392592592  0.6713791688622754  0.4999985785000000
  0.1924351985185185  0.5796777700598802  0.4416833070000000
  0.1357741311111111  0.6015115928143713  0.4999903180000000
  0.2841033066666666  0.5443429245508983  0.4639471405000000
  0.3700618940740740  0.6098985868263473  0.3709474970000000
  0.3712397103703703  0.5591629766467066  0.4292495700000000
  0.4579904651851852  0.7356811706586827  0.3495129850000001
  0.4598279266666666  0.6566458251497006  0.3709495965000000
  0.4549095570370370  0.8684814053892216  0.3855608570000000
  0.5127386422222222  0.7959207089820360  0.3855526260000000
  0.4537783281481481  0.9173227856287426  0.4417067780000000
  0.2749827274074074  0.9378284077844312  0.4292820920000001
  0.1844907400000000  0.9224332664670659  0.4653149920000000
  0.3621126059259259  0.9526523305389222  0.4639810775000000
  0.1844875274074074  0.9224330443113773  0.5347144960000000
  0.0770035962962963  0.8041892616766467  0.5360460935000000
  0.0788980088888889  0.7221070329341317  0.5583128780000001
  0.1297267940740740  0.8621940670658683  0.5707472505000001
  0.1334574881481481  0.7010811071856288  0.6144590940000001
  0.1924352837037037  0.5796852856287426  0.5582926385000001
  0.2841059333333333  0.5443538718562875  0.5360171940000000
  0.1912980948148148  0.6285320526946108  0.6144352670000001
  0.3712407555555555  0.5591790616766467  0.5707101430000000
  0.4617407407407407  0.5745526712574851  0.4652841760000000
  0.5164903399999999  0.6348033497005988  0.4292531825000001
  0.4617401362962962  0.5745550988023953  0.5346881120000000
  0.5672936281481481  0.7748927844311377  0.4416947080000000
  0.5692050437037036  0.6928113838323353  0.4639563970000000
  0.5104339481481481  0.8954880760479041  0.5000131705000000
  0.5661179074074073  0.8256187215568862  0.5000079075000000
  0.3621137029629630  0.9526531568862276  0.5360540835000001
  0.2749805844444444  0.9378282718562874  0.5707525880000001
  0.4537859377777777  0.9173303628742515  0.5583236430000000
  0.1863853992592592  0.8403570167664670  0.6290526789999999
  0.1882118133333333  0.7613193077844311  0.6504904295000000
  0.2761562918518518  0.8871034790419162  0.6290588790000000
  0.2817921333333333  0.6439312868263474  0.6504537790000001
  0.3700524266666667  0.6099142257485030  0.6290068805000000
  0.2798909081481481  0.7259993281437126  0.6727383630000001
  0.5164793177777778  0.6347992826347305  0.5707230255000000
  0.5692016096296296  0.6928128940119761  0.5360302530000001
  0.5672980311111111  0.7748922802395209  0.5583130885000001
  0.4598137422222222  0.6566539395209581  0.6290178525000001
  0.4549199400000000  0.8684825916167666  0.6144700430000001
  0.3644229888888889  0.8530853095808383  0.6505002715000000
  0.3663237459259259  0.7710046137724551  0.6727517205000000
  0.5127473888888888  0.7959185155688623  0.6144582515000000
  0.4579843577777777  0.7356770179640718  0.6504787165000000
  0.6638231518518518  0.2965910179640719  0.3850241315000000
  0.6065001888888888  0.2369838323353294  0.3489596315000000
  0.7175927814814814  0.2745209580838324  0.4412171315000000
  0.6064557444444444  0.1575838317365269  0.3703086315000000
  0.5154253740740740  0.1139682634730539  0.3708651315000000
  0.5155194481481481  0.2728784425149701  0.3281461315000000
  0.4270631518518518  0.2295556886227545  0.3250441315000000
  0.4270179666666666  0.1470676646706587  0.3472141315000000
  0.2457224111111111  0.0493718562874252  0.4629091310000000
  0.3341883370370370  0.0594772455089821  0.4276056315000000
  0.3342416703703703  0.1106119760479042  0.3691891315000000
  0.2458342629629629  0.1478916167664671  0.3503716315000001
  0.6637942629629630  0.3964269461077845  0.5003951315000000
  0.6065172259259258  0.4190754491017964  0.4418916315000000
  0.7175772259259259  0.3256107778443114  0.5002541315000001
  0.6065335222222221  0.3702239514970060  0.3854341315000001
  0.5155364851851851  0.3560994005988024  0.3509331315000000
  0.5155113000000000  0.4538616766467066  0.4639291310000000
  0.4270875962962962  0.4439952095808384  0.4285311310000000
  0.4271053740740740  0.3932538922155689  0.3698756315000000
  0.2458801888888888  0.2312628742514970  0.3279731315000001
  0.3343394481481481  0.2746083832335329  0.3251231315000001
  0.3343564851851852  0.3569461071856287  0.3476786315000000
  0.2459209296296296  0.3898880239520958  0.3714326315000001
  0.6636824111111110  0.2958712574850300  0.6153286315000001
  0.6063913000000000  0.3694970053892216  0.6152146315000000
  0.7175201888888888  0.2741562874251497  0.5590691315000000
  0.6064475962962962  0.4187053892215569  0.5589736315000000
  0.5154631518518518  0.4536239520958084  0.5370591310000000
  0.5153579666666667  0.3551329335329341  0.6496131315000000
  0.4269438925925926  0.3923898203592815  0.6308041315000001
  0.4270024111111111  0.4435179640718563  0.5723831309999999
  0.2459038925925925  0.4411622754491018  0.4307196315000000
  0.3343298185185185  0.4578143712574850  0.4642966315000000
  0.3342824111111111  0.4575670658682635  0.5366536315000000
  0.2458216703703704  0.4406790419161677  0.5701191310000001
  0.6636424111111111  0.1338904185628743  0.5709891315000001
  0.6062964851851852  0.1567634724550898  0.6293996315000001
  0.7174994481481480  0.1912658676646707  0.5363811315000001
  0.6063172259259259  0.2360269461077845  0.6510996315000001
  0.5153068555555556  0.2717646700598803  0.6720221315000000
  0.5152727814814814  0.1131323353293413  0.6285866315000000
  0.4268305592592592  0.1460556880239521  0.6523266315000000
  0.4268535222222222  0.2283964071856288  0.6748766315000001
  0.2457624111111111  0.3889970059880240  0.6291581315000001
  0.3341742629629629  0.3559107778443114  0.6527931315000001
  0.3341238925925926  0.2734197598802395  0.6749566315000001
  0.2456742629629629  0.2300730538922156  0.6718506315000000
  0.6637275962962962  0.1343371251497007  0.4286536315000000
  0.6063616703703704  0.0748676640718563  0.4648451310000001
  0.7175424111111111  0.1914928143712576  0.4635446310000000
  0.6063216703703703  0.0746461077844312  0.5344961315000000
  0.5152838925925926  0.0618461077844312  0.5693066315000000
  0.5153713000000000  0.0622970059880239  0.4299096315000000
  0.4269038925925925  0.0454185622754492  0.4633571315000000
  0.4268624111111111  0.0451796407185629  0.5357141315000000
  0.2456513000000000  0.1468574844311378  0.6490521315000001
  0.3340875962962963  0.1097251497005989  0.6301161315000000
  0.3340979666666666  0.0589892215568862  0.5714571315000000
  0.2456809296296296  0.0491197604790419  0.5360396315000000
  0.0973735222222222  0.2063532934131737  0.6149646315000000
  0.1546624111111111  0.1327275443113773  0.6145391314999999
  0.1546742629629629  0.0838940119760479  0.5580691315000000
  0.0436075962962963  0.2284455089820359  0.5587761310000000
  0.0974668555555555  0.3686299395209581  0.5713801315000000
  0.1547409296296296  0.3453652688622755  0.6297161315000001
  0.1546935222222222  0.2659562874251498  0.6510466315000001
  0.0436557444444444  0.3114856281437126  0.5364746315000000
  0.0975535222222222  0.3691335323353294  0.4290426315000000
  0.1548742629629629  0.4283604784431138  0.4655436315000001
  0.1548298185185185  0.4281167664670659  0.5351961315000000
  0.0437001888888889  0.3117449095808383  0.4636381315000001
  0.0975127814814814  0.2071688622754491  0.3846586315000000
  0.1548779666666667  0.2670161676646707  0.3489026315000001
  0.1548957444444444  0.3462742508982036  0.3706196315000000
  0.0436794481481481  0.2288652688622755  0.4409251315000000
  0.0974031518518518  0.1065658682634731  0.4995656315000000
  0.1547461148148148  0.0843047898203593  0.4409871310000000
  0.1547994481481481  0.1335335323353294  0.3847571315000000
  0.0436231518518518  0.1773838317365269  0.4997241315000001
  0.8117714399999999  0.2643256790419162  0.6504817225000000
  0.8665244451851851  0.2040835856287426  0.6144500330000000
  0.8086953814814815  0.1315216802395210  0.6144587235000000
  0.7201062362962962  0.2289963760479043  0.6727558745000000
  0.7182022711111110  0.1469175467065869  0.6504916215000001
  0.6336756096296295  0.2740070922155689  0.6727530925000000
  0.6355794066666666  0.3560812538922156  0.6504750955000000
  0.8136035799999999  0.3433544658682635  0.6290316190000000
  0.7238408792592591  0.3900988101796408  0.6290280475000001
  0.8702590437037037  0.3651883508982036  0.5707240640000001
  0.9210814570370370  0.2251044982035929  0.5583061250000000
  0.9229852770370369  0.3071828443113773  0.5360286510000000
  0.9199148607407407  0.1743731808383234  0.5000014215000000
  0.8075648014814814  0.0826717820359282  0.5583166930000000
  0.8642258688888889  0.1045056047904192  0.5000096820000001
  0.7158966933333333  0.0473369365269461  0.5360528595000000
  0.6299381059259258  0.1128925988023953  0.6290525030000000
  0.6287602896296296  0.0621569886227545  0.5707504300000000
  0.5420095348148147  0.2386751826347306  0.6504870150000001
  0.5401720733333333  0.1596398371257486  0.6290504035000000
  0.5450904429629628  0.3714754173652695  0.6144391430000000
  0.4872613577777777  0.2989147209580839  0.6144473740000000
  0.5462216718518518  0.4203167976047905  0.5582932220000000
  0.7250172725925925  0.4408224197604791  0.5707179080000000
  0.8155092599999999  0.4254272784431138  0.5346850080000001
  0.6378873940740740  0.4556463425149701  0.5360189225000001
  0.8155124725925925  0.4254270562874252  0.4652855040000001
  0.9229964037037037  0.3071832736526946  0.4639539065000000
  0.9211019911111111  0.2251010449101797  0.4416871220000000
  0.8702732059259258  0.3651880790419162  0.4292527495000000
  0.8665425118518517  0.2040751191616766  0.3855409060000000
  0.8075647162962962  0.0826792976047905  0.4417073615000000
  0.7158940666666667  0.0473478838323354  0.4639828060000000
  0.8087019051851850  0.1315260646706587  0.3855647330000000
  0.6287592444444444  0.0621730736526946  0.4292898570000001
  0.5382592592592592  0.0775466832335329  0.5347158240000000
  0.4835096599999999  0.1377973616766467  0.5707468175000000
  0.5382598637037037  0.0775491107784432  0.4653118880000000
  0.4327063718518518  0.2778867964071857  0.5583052920000000
  0.4307949562962963  0.1958053958083832  0.5360436030000000
  0.4895660518518518  0.3984820880239521  0.4999868295000000
  0.4338820925925925  0.3286127335329342  0.4999920925000000
  0.6378862970370370  0.4556471688622755  0.4639459165000000
  0.7250194155555555  0.4408222838323354  0.4292474120000000
  0.5462140622222221  0.4203243748502994  0.4416763570000000
  0.8136146007407407  0.3433510287425150  0.3709473210000001
  0.8117881866666666  0.2643133197604790  0.3495095705000000
  0.7238437081481481  0.3900974910179641  0.3709411210000000
  0.7182078666666666  0.1469252988023952  0.3495462210000000
  0.6299475733333333  0.1129082377245510  0.3709931195000000
  0.7201090918518518  0.2289933401197605  0.3272616370000000
  0.4835206822222222  0.1377932946107785  0.4292769745000000
  0.4307983903703703  0.1958069059880240  0.4639697470000000
  0.4327019688888889  0.2778862922155689  0.4416869115000000
  0.5401862577777777  0.1596479514970060  0.3709821475000000
  0.5450800600000000  0.3714766035928144  0.3855299570000000
  0.6355770111111110  0.3560793215568863  0.3494997285000001
  0.6336762540740740  0.2739986257485030  0.3272482795000000
  0.4872526111111111  0.2989125275449102  0.3855417485000001
  0.5420156422222222  0.2386710299401198  0.3495212835000001

