C                                       
   1.00000000000000     
    12.5779391785596282    0.2738760703422752    0.0000000000000000
     0.2775999159570826   12.3745360195497049    0.0000000000000000
     0.0000000000000000    0.0000000000000000   16.0000000000000000
  C             
   104
Direct
  0.6460724272889338  0.5144967222228669  0.4924652945792810
  0.5660583661109171  0.5501050615318662  0.5476605864841834
  0.6413310252655072  0.3939581657956819  0.4826399211796090
  0.4905678918596180  0.4677777016939430  0.5543877715873765
  0.5311890721531969  0.3724512099447734  0.5125048602077892
  0.6452418388536443  0.3800836450670576  0.3854904496306814
  0.5392491052967409  0.3290661838739193  0.3691346998065462
  0.4765311416444849  0.3359762986746231  0.4438619600870718
  0.6181327646233020  0.4909930204962857  0.3471729607234060
  0.6257108361383869  0.5667613664956741  0.4118813824883150
  0.5412986239611042  0.6443754179079830  0.4236844466005159
  0.5255257889543119  0.4916876235327121  0.2968118837742907
  0.4415441820915830  0.5725779715129093  0.3088822788667206
  0.4534792865781401  0.6535387411623453  0.3726706738760750
  0.4771182873557412  0.3854413734875966  0.3087078911676612
  0.3974291040514391  0.6411933537610461  0.5216079714581848
  0.5183150570585966  0.6568976257089812  0.5191554456146186
  0.3598385828016641  0.6607985670569458  0.4296849619573581
  0.2931306686623801  0.5642633780944545  0.4041404153797269
  0.3453968376866261  0.5155577103585094  0.3279993714665727
  0.3678927713521353  0.4026500242426928  0.3332220895807946
  0.3928255895451107  0.5188790345184848  0.5280803617044199
  0.3317929156690769  0.4770248597071279  0.4657968361755297
  0.3589359255549985  0.3681406797629581  0.4275848534164655
  0.1512174939413378  0.7609273002621493  0.6616722844340891
  0.1357997229374542  0.6511916157369898  0.6422281910932184
  0.0519656756591638  0.8110308502988849  0.6373821457632385
  0.9729298138638353  0.7268479430496833  0.6240440539960167
  0.0265547623098564  0.6276037667799487  0.6140957874045643
  0.0712574084769795  0.8672974722976065  0.5606611222095226
  0.0220996355593280  0.8418267400709668  0.4850324611724009
  0.9296365071648238  0.7670930964048930  0.4842844285418967
  0.1877408335837478  0.8640312210943240  0.5422171528691540
  0.2107220294931084  0.8357988742435635  0.4522515542243243
  0.0973056108055823  0.8112459139870041  0.4232086218797306
  0.2422720035939283  0.8022225735946950  0.6113876214039548
  0.2918086682066233  0.7026927584752598  0.5566664074385721
  0.2635024050990383  0.7262118506440012  0.4618680167786646
  0.2091251330404837  0.6213782441438964  0.5799148455848862
  0.1543153529990061  0.5831474094833652  0.5127665703576048
  0.1877868512721117  0.6327782013490152  0.4339263494712097
  0.0844588152234516  0.6943056001862691  0.4128530953190678
  0.9984164187903174  0.6615914254808164  0.4604289165545018
  0.0368615003507663  0.5701848497859263  0.5229312658535628
  0.8781238278260852  0.2329013672040208  0.5789033314473613
  0.9050769025068238  0.3446702900822095  0.5860477013676313
  0.9761988327221928  0.1846865891284560  0.5481074330004371
  0.0724095396031100  0.2543507831186611  0.5669343874301320
  0.0119381893307650  0.3629010592990650  0.5622908052430308
  0.9583142977829340  0.1620802763854241  0.4604384489481024
  0.0122335873334614  0.2119335440895428  0.3901902955562334
  0.0983749110398659  0.2890840604985201  0.4053109782407934
  0.8425058066506516  0.1775057221977806  0.4459034770977778
  0.8269438214424097  0.2430851650344261  0.3758055993712113
  0.9305010756732672  0.2666617932283621  0.3429522182211345
  0.7938247538300646  0.2253381755397559  0.5198897760620180
  0.7473455865059586  0.3369019872732789  0.4977769415900691
  0.7643388565863233  0.3449084296628435  0.3980756054558837
  0.8284460596657706  0.4067152363639159  0.5379267044620379
  0.8846892911146076  0.4597960658931984  0.4766270590255530
  0.8542038184140749  0.4257540703402655  0.3962431641718090
  0.9469029142793411  0.3774651506072737  0.3616599780338947
  0.0438702044232005  0.3925754434286695  0.4114332938285188
  0.0054840333609539  0.4545830630198409  0.4956488703179210
  0.2181488317095119  0.1171045265124402  0.6404151009172822
  0.3314471014390833  0.0904999665012426  0.6311403190817139
  0.1747200770534884  0.0309174044400478  0.5975788612246739
  0.2537118026595045  0.9322959764208180  0.5947588032152885
  0.3559265959253360  0.9895380584072526  0.5907624909302521
  0.1452685544595505  0.0685371664884354  0.5135963977115122
  0.1830889767877129  0.0320732951672830  0.4344612241748782
  0.2598212076656872  0.9379494895234884  0.4280146319152596
  0.1483693158050410  0.1886732256213843  0.5125235821853502
  0.1974689271852892  0.2315663110945029  0.4348021197013658
  0.2260867104835355  0.1229163431440635  0.3920781657288682
  0.1912844235877972  0.2230035488588164  0.5974294122887746
  0.2981173205934540  0.2587024243282790  0.5635378230880480
  0.3047851819269870  0.2724891830551693  0.4653850974476789
  0.3756088563894017  0.1787727404106464  0.5873089428557413
  0.4301204403444605  0.1287139730058720  0.5160458689435946
  0.3812481734814948  0.1748900923023093  0.4464778041470581
  0.3352271198449699  0.0953923842886589  0.3989285584201073
  0.3599081048759545  0.9852284190860132  0.4317377461870011
  0.4318162665276647  0.0034620208623749  0.5150770957774190
  0.7117962107204877  0.7900450803733169  0.6497228973781923
  0.6029421130480469  0.8089455244482301  0.6212110290012156
  0.7606970900294781  0.8925022965452590  0.6586011964208437
  0.6820754852975521  0.9739427740469634  0.6347014731838551
  0.5855023746348719  0.9207976870999971  0.6114567001229322
  0.8461928811203867  0.8900346225594922  0.5969241868529166
  0.8235936535487508  0.9675505233763964  0.5347169659359997
  0.7191633987957443  0.0232133818528315  0.5588646794736406
  0.8808906524147139  0.7713270108967003  0.5762945670171219
  0.8376312425612421  0.8132767118491503  0.4353674920144415
  0.8100822289180268  0.9275666398546486  0.4495656799568552
  0.7707480344230629  0.7298710866026380  0.5865725268010761
  0.7052853532493586  0.7146015073719502  0.5175951364146374
  0.7367338021447654  0.7673162341000425  0.4409843904915610
  0.5859324504070679  0.7498406060983965  0.5398149098256464
  0.5692735659862057  0.8455808341070438  0.4812809556198558
  0.6531845034666001  0.8511842666162921  0.4253181875031811
  0.7004256261711502  0.9542125969725407  0.4280683704117690
  0.6451949214112193  0.0137480188407620  0.4937818225198931
  0.5446660327235250  0.9534020250724051  0.5237961521105701
 
  0.00000000E+00  0.00000000E+00  0.00000000E+00
  0.00000000E+00  0.00000000E+00  0.00000000E+00
  0.00000000E+00  0.00000000E+00  0.00000000E+00
  0.00000000E+00  0.00000000E+00  0.00000000E+00
  0.00000000E+00  0.00000000E+00  0.00000000E+00
  0.00000000E+00  0.00000000E+00  0.00000000E+00
  0.00000000E+00  0.00000000E+00  0.00000000E+00
  0.00000000E+00  0.00000000E+00  0.00000000E+00
  0.00000000E+00  0.00000000E+00  0.00000000E+00
  0.00000000E+00  0.00000000E+00  0.00000000E+00
  0.00000000E+00  0.00000000E+00  0.00000000E+00
  0.00000000E+00  0.00000000E+00  0.00000000E+00
  0.00000000E+00  0.00000000E+00  0.00000000E+00
  0.00000000E+00  0.00000000E+00  0.00000000E+00
  0.00000000E+00  0.00000000E+00  0.00000000E+00
  0.00000000E+00  0.00000000E+00  0.00000000E+00
  0.00000000E+00  0.00000000E+00  0.00000000E+00
  0.00000000E+00  0.00000000E+00  0.00000000E+00
  0.00000000E+00  0.00000000E+00  0.00000000E+00
  0.00000000E+00  0.00000000E+00  0.00000000E+00
  0.00000000E+00  0.00000000E+00  0.00000000E+00
  0.00000000E+00  0.00000000E+00  0.00000000E+00
  0.00000000E+00  0.00000000E+00  0.00000000E+00
  0.00000000E+00  0.00000000E+00  0.00000000E+00
  0.00000000E+00  0.00000000E+00  0.00000000E+00
  0.00000000E+00  0.00000000E+00  0.00000000E+00
  0.00000000E+00  0.00000000E+00  0.00000000E+00
  0.00000000E+00  0.00000000E+00  0.00000000E+00
  0.00000000E+00  0.00000000E+00  0.00000000E+00
  0.00000000E+00  0.00000000E+00  0.00000000E+00
  0.00000000E+00  0.00000000E+00  0.00000000E+00
  0.00000000E+00  0.00000000E+00  0.00000000E+00
  0.00000000E+00  0.00000000E+00  0.00000000E+00
  0.00000000E+00  0.00000000E+00  0.00000000E+00
  0.00000000E+00  0.00000000E+00  0.00000000E+00
  0.00000000E+00  0.00000000E+00  0.00000000E+00
  0.00000000E+00  0.00000000E+00  0.00000000E+00
  0.00000000E+00  0.00000000E+00  0.00000000E+00
  0.00000000E+00  0.00000000E+00  0.00000000E+00
  0.00000000E+00  0.00000000E+00  0.00000000E+00
  0.00000000E+00  0.00000000E+00  0.00000000E+00
  0.00000000E+00  0.00000000E+00  0.00000000E+00
  0.00000000E+00  0.00000000E+00  0.00000000E+00
  0.00000000E+00  0.00000000E+00  0.00000000E+00
  0.00000000E+00  0.00000000E+00  0.00000000E+00
  0.00000000E+00  0.00000000E+00  0.00000000E+00
  0.00000000E+00  0.00000000E+00  0.00000000E+00
  0.00000000E+00  0.00000000E+00  0.00000000E+00
  0.00000000E+00  0.00000000E+00  0.00000000E+00
  0.00000000E+00  0.00000000E+00  0.00000000E+00
  0.00000000E+00  0.00000000E+00  0.00000000E+00
  0.00000000E+00  0.00000000E+00  0.00000000E+00
  0.00000000E+00  0.00000000E+00  0.00000000E+00
  0.00000000E+00  0.00000000E+00  0.00000000E+00
  0.00000000E+00  0.00000000E+00  0.00000000E+00
  0.00000000E+00  0.00000000E+00  0.00000000E+00
  0.00000000E+00  0.00000000E+00  0.00000000E+00
  0.00000000E+00  0.00000000E+00  0.00000000E+00
  0.00000000E+00  0.00000000E+00  0.00000000E+00
  0.00000000E+00  0.00000000E+00  0.00000000E+00
  0.00000000E+00  0.00000000E+00  0.00000000E+00
  0.00000000E+00  0.00000000E+00  0.00000000E+00
  0.00000000E+00  0.00000000E+00  0.00000000E+00
  0.00000000E+00  0.00000000E+00  0.00000000E+00
  0.00000000E+00  0.00000000E+00  0.00000000E+00
  0.00000000E+00  0.00000000E+00  0.00000000E+00
  0.00000000E+00  0.00000000E+00  0.00000000E+00
  0.00000000E+00  0.00000000E+00  0.00000000E+00
  0.00000000E+00  0.00000000E+00  0.00000000E+00
  0.00000000E+00  0.00000000E+00  0.00000000E+00
  0.00000000E+00  0.00000000E+00  0.00000000E+00
  0.00000000E+00  0.00000000E+00  0.00000000E+00
  0.00000000E+00  0.00000000E+00  0.00000000E+00
  0.00000000E+00  0.00000000E+00  0.00000000E+00
  0.00000000E+00  0.00000000E+00  0.00000000E+00
  0.00000000E+00  0.00000000E+00  0.00000000E+00
  0.00000000E+00  0.00000000E+00  0.00000000E+00
  0.00000000E+00  0.00000000E+00  0.00000000E+00
  0.00000000E+00  0.00000000E+00  0.00000000E+00
  0.00000000E+00  0.00000000E+00  0.00000000E+00
  0.00000000E+00  0.00000000E+00  0.00000000E+00
  0.00000000E+00  0.00000000E+00  0.00000000E+00
  0.00000000E+00  0.00000000E+00  0.00000000E+00
  0.00000000E+00  0.00000000E+00  0.00000000E+00
  0.00000000E+00  0.00000000E+00  0.00000000E+00
  0.00000000E+00  0.00000000E+00  0.00000000E+00
  0.00000000E+00  0.00000000E+00  0.00000000E+00
  0.00000000E+00  0.00000000E+00  0.00000000E+00
  0.00000000E+00  0.00000000E+00  0.00000000E+00
  0.00000000E+00  0.00000000E+00  0.00000000E+00
  0.00000000E+00  0.00000000E+00  0.00000000E+00
  0.00000000E+00  0.00000000E+00  0.00000000E+00
  0.00000000E+00  0.00000000E+00  0.00000000E+00
  0.00000000E+00  0.00000000E+00  0.00000000E+00
  0.00000000E+00  0.00000000E+00  0.00000000E+00
  0.00000000E+00  0.00000000E+00  0.00000000E+00
  0.00000000E+00  0.00000000E+00  0.00000000E+00
  0.00000000E+00  0.00000000E+00  0.00000000E+00
  0.00000000E+00  0.00000000E+00  0.00000000E+00
  0.00000000E+00  0.00000000E+00  0.00000000E+00
  0.00000000E+00  0.00000000E+00  0.00000000E+00
  0.00000000E+00  0.00000000E+00  0.00000000E+00
  0.00000000E+00  0.00000000E+00  0.00000000E+00
  0.00000000E+00  0.00000000E+00  0.00000000E+00
