C                                       
   1.00000000000000     
    16.4122899544406948    0.1251012549696581    0.0000000000000000
    -8.0871496447292888   13.1306427173133073    0.0000000000000000
     0.0000000000000000    0.0000000000000000   16.0000000000000000
  C             
   128
Direct
  0.2160108177524984  0.5610623170124488  0.6117541220200979
  0.1615116975263434  0.5097554954892086  0.5382001611204633
  0.2895987184066297  0.5366629554465395  0.6211043101321452
  0.2222229225951109  0.4823344446324276  0.4776387760032682
  0.2975454497732352  0.4941316672111002  0.5380897510548177
  0.3736372287102845  0.6218887945088810  0.6456015339143635
  0.4476699283147786  0.6319034330894071  0.5855622002784047
  0.3911269772434309  0.5627653715971102  0.5134255514259638
  0.3573374175490318  0.7068056918711977  0.6239935986970364
  0.2554470317009183  0.6648603949214339  0.6069634615823343
  0.2155785615402043  0.6911093335355885  0.5320170199490929
  0.4260301937595554  0.7720599516902534  0.5687114806933884
  0.4047558387483019  0.8136638464880485  0.4909478135585314
  0.2982178627844101  0.7607904634383975  0.4712072193405428
  0.4948229976898595  0.7390971559967655  0.5493701685781575
  0.1980042672420066  0.5943636040770568  0.3986778667859831
  0.1515403790247964  0.5919606252451662  0.4861753592556661
  0.2790980628006595  0.7049762309482880  0.3894613434601372
  0.3672718572603469  0.7120100764834730  0.3701693110989267
  0.4452765414909030  0.7781840634308302  0.4196159324265919
  0.4991388220171886  0.7298050689879034  0.4524551035838324
  0.2618155161339349  0.5539538202120230  0.4085209377451290
  0.3537849230075764  0.6102915365591802  0.3808837370012769
  0.4241361980337983  0.6180978579235126  0.4370903644448737
  0.8653908147649032  0.0064092561075193  0.4685075098753169
  0.8526188752867044  0.9117948411306900  0.4282303527290107
  0.8991055607360074  0.0114162674793208  0.5521356538277796
  0.9250578380924176  0.8967758197980559  0.4781991685549746
  0.9232869523030725  0.9219567313866558  0.5683054633644021
  0.9722785852941699  0.1048757208681356  0.5819453592022389
  0.0483393219247344  0.0937109219122436  0.6145576283755075
  0.0255909278921239  0.9900928434165170  0.5961672434611568
  0.0208780949393026  0.2053197913852466  0.5341911506116451
  0.8905331064529675  0.0808847379210951  0.4074566928094727
  0.9524777552358914  0.0613727320254333  0.3553290411568998
  0.1138644683115557  0.2113661896173039  0.5173536766633228
  0.1220488958942506  0.1735356051150973  0.4367700877981384
  0.0569982357711045  0.1150255649272308  0.3648828899757071
  0.1405671213870524  0.1679403252961355  0.5842893106060290
  0.9886298945341357  0.9377419269172782  0.3524852590921411
  0.9105805249841685  0.9515330795419785  0.3468423097790663
  0.0764267225981592  0.0340789506453938  0.3503907497065845
  0.1405501806362577  0.0368413342810619  0.4099447156910475
  0.1751039200926321  0.1261559069968095  0.4558378089324635
  0.1872558060580876  0.1125116001209195  0.5475861875777593
  0.9947741470627469  0.8946659488455722  0.4336019546342840
  0.0962108522383387  0.9431707383099504  0.4700782810616753
  0.0999360553981165  0.0022842775351679  0.5490747220978784
  0.6887971243248234  0.2409861955181068  0.5402434735606015
  0.7214955109165042  0.3291540080380030  0.5853758395381010
  0.7259685507526614  0.2674316100079036  0.4499719911456672
  0.7768675591816054  0.3820201481114522  0.4487887060811334
  0.7903668148740253  0.4273602675771097  0.5391720635419992
  0.6400643045371857  0.2400318706188916  0.3961722226146058
  0.6456607967894433  0.3291211674891580  0.3685179514851594
  0.7313711064756510  0.4216051515468484  0.3946639793635190
  0.5546308944227490  0.1841660703154364  0.4479888436265719
  0.4963112705020116  0.2385385737357109  0.4445054333755679
  0.5587258228265373  0.3288735966587858  0.3930129173367928
  0.5822643344475732  0.1837331163436481  0.5412325336784792
  0.5449338787374183  0.2413770873602414  0.5940961932382122
  0.4892493912462288  0.2752216605325836  0.5360811821328905
  0.6399433811312403  0.3333799260526650  0.6181234225539876
  0.6485531747353077  0.4177494989730522  0.5834799628050666
  0.5598327117869309  0.4006378463334731  0.5350239857599601
  0.5951546805244052  0.4051870998807747  0.4488891141691471
  0.6977373116677702  0.4792725252441647  0.4488869205467078
  0.7433348249545834  0.4891612965076111  0.5380940869589073
  0.4335495245233628  0.9209484952438294  0.4948140050150651
  0.4435936862318808  0.9735254567046616  0.5735252099363425
  0.4097042921927243  0.9728540641790610  0.4365057584744416
  0.4618393470367060  0.0811842260812267  0.4632064871548611
  0.4882499095630563  0.0827784976664795  0.5569265982871578
  0.3132313037116806  0.9474256909047286  0.4148687238932026
  0.3159916905257191  0.0459873154265788  0.4245313654754561
  0.4048589121723511  0.1338308535573844  0.4559610721852504
  0.2259773237498171  0.8676516468330510  0.4502435105442551
  0.1778228399743107  0.9188895790491266  0.4951766244104737
  0.2533859405720974  0.0275447500718761  0.4854004861011993
  0.2400554248100442  0.7997765114235410  0.5106051004292134
  0.2673875979840375  0.8710335389123534  0.5844682901698646
  0.2118971988065204  0.9167284995918845  0.5847776186388730
  0.3605069454975243  0.9443169884758820  0.6203744559410370
  0.3576146118396441  0.0344215508929509  0.6468412311020242
  0.2697869549414548  0.0185947486356838  0.6199675679870448
  0.2756136114974831  0.0987435736463030  0.5587648972332286
  0.3898957520855612  0.1673828861672053  0.5455067302203060
  0.4386682684317815  0.1277498683394616  0.6068577147891152
  0.0966488383784061  0.4913073975052991  0.3866690192730642
  0.0450663378064613  0.5210373227329648  0.4534271646398387
  0.0218471340889424  0.4237738291881977  0.3269825937474137
  0.9324784912936808  0.4124112371378519  0.3506435171020397
  0.9453593756284040  0.4854312590478024  0.4166076993537292
  0.0120243283964067  0.3255348849974228  0.3310847090979238
  0.9140808518522163  0.2497468094977889  0.3397226124304707
  0.8614231375149644  0.2971560065648106  0.3519814943873014
  0.0673299306785395  0.3154642038779245  0.3934570797613471
  0.9987422711295206  0.2386532788419679  0.4529331394276824
  0.9011094848714147  0.1814595444445473  0.4147067345685143
  0.1192890223486542  0.4120418731786767  0.4374773048597839
  0.0704885244390728  0.4033820238921179  0.5240348127789701
  0.9998946292123746  0.2903223612870393  0.5388231548673313
  0.0063486009391706  0.4389347586404824  0.5155166748773645
  0.9122891175101813  0.3753097797612392  0.5287186151005715
  0.8994058064592875  0.2745782424997660  0.5332950224741687
  0.8399536243349029  0.2043337462148351  0.4707963065337186
  0.7938579432902597  0.2416752665948592  0.4182498359793215
  0.8707719570917363  0.4307421585121067  0.4860392975729369
  0.5512205521978898  0.5798630523036963  0.5190044210732473
  0.5906786454537462  0.5161777734192462  0.5455296515832001
  0.6023022687365331  0.6483157815811488  0.4550241218792648
  0.6826894789574230  0.6429225930039523  0.4346502892724995
  0.6870905618788897  0.5659711224941834  0.4821932492439879
  0.6133377240166800  0.7508059940107005  0.4650070113234949
  0.7511939728987960  0.8227566451759525  0.4618484588576611
  0.7637590117133708  0.7335394458352058  0.4547499244844752
  0.5953321989584289  0.7527224956470761  0.5598662962199491
  0.6843313466538200  0.7988463768020579  0.6082627524184484
  0.7596548743748790  0.8307155568159927  0.5551910231572532
  0.5417053127932100  0.6375763498542475  0.5910190802588028
  0.6028674434662172  0.6334533820563061  0.6577815182080718
  0.6871725410309724  0.7324271662021571  0.6704981598104245
  0.6341374803697457  0.5698808286322153  0.6285199886677665
  0.7379477625648142  0.6310012517241402  0.6259725600051025
  0.7733563209140205  0.7299029667215505  0.6567229307956558
  0.8335450711002549  0.8073025993100350  0.5873386040025780
  0.8212844025044701  0.7280371893065850  0.5174362435378553
  0.7709134746961821  0.6121781902666126  0.5459958699933343
 
  0.00000000E+00  0.00000000E+00  0.00000000E+00
  0.00000000E+00  0.00000000E+00  0.00000000E+00
  0.00000000E+00  0.00000000E+00  0.00000000E+00
  0.00000000E+00  0.00000000E+00  0.00000000E+00
  0.00000000E+00  0.00000000E+00  0.00000000E+00
  0.00000000E+00  0.00000000E+00  0.00000000E+00
  0.00000000E+00  0.00000000E+00  0.00000000E+00
  0.00000000E+00  0.00000000E+00  0.00000000E+00
  0.00000000E+00  0.00000000E+00  0.00000000E+00
  0.00000000E+00  0.00000000E+00  0.00000000E+00
  0.00000000E+00  0.00000000E+00  0.00000000E+00
  0.00000000E+00  0.00000000E+00  0.00000000E+00
  0.00000000E+00  0.00000000E+00  0.00000000E+00
  0.00000000E+00  0.00000000E+00  0.00000000E+00
  0.00000000E+00  0.00000000E+00  0.00000000E+00
  0.00000000E+00  0.00000000E+00  0.00000000E+00
  0.00000000E+00  0.00000000E+00  0.00000000E+00
  0.00000000E+00  0.00000000E+00  0.00000000E+00
  0.00000000E+00  0.00000000E+00  0.00000000E+00
  0.00000000E+00  0.00000000E+00  0.00000000E+00
  0.00000000E+00  0.00000000E+00  0.00000000E+00
  0.00000000E+00  0.00000000E+00  0.00000000E+00
  0.00000000E+00  0.00000000E+00  0.00000000E+00
  0.00000000E+00  0.00000000E+00  0.00000000E+00
  0.00000000E+00  0.00000000E+00  0.00000000E+00
  0.00000000E+00  0.00000000E+00  0.00000000E+00
  0.00000000E+00  0.00000000E+00  0.00000000E+00
  0.00000000E+00  0.00000000E+00  0.00000000E+00
  0.00000000E+00  0.00000000E+00  0.00000000E+00
  0.00000000E+00  0.00000000E+00  0.00000000E+00
  0.00000000E+00  0.00000000E+00  0.00000000E+00
  0.00000000E+00  0.00000000E+00  0.00000000E+00
  0.00000000E+00  0.00000000E+00  0.00000000E+00
  0.00000000E+00  0.00000000E+00  0.00000000E+00
  0.00000000E+00  0.00000000E+00  0.00000000E+00
  0.00000000E+00  0.00000000E+00  0.00000000E+00
  0.00000000E+00  0.00000000E+00  0.00000000E+00
  0.00000000E+00  0.00000000E+00  0.00000000E+00
  0.00000000E+00  0.00000000E+00  0.00000000E+00
  0.00000000E+00  0.00000000E+00  0.00000000E+00
  0.00000000E+00  0.00000000E+00  0.00000000E+00
  0.00000000E+00  0.00000000E+00  0.00000000E+00
  0.00000000E+00  0.00000000E+00  0.00000000E+00
  0.00000000E+00  0.00000000E+00  0.00000000E+00
  0.00000000E+00  0.00000000E+00  0.00000000E+00
  0.00000000E+00  0.00000000E+00  0.00000000E+00
  0.00000000E+00  0.00000000E+00  0.00000000E+00
  0.00000000E+00  0.00000000E+00  0.00000000E+00
  0.00000000E+00  0.00000000E+00  0.00000000E+00
  0.00000000E+00  0.00000000E+00  0.00000000E+00
  0.00000000E+00  0.00000000E+00  0.00000000E+00
  0.00000000E+00  0.00000000E+00  0.00000000E+00
  0.00000000E+00  0.00000000E+00  0.00000000E+00
  0.00000000E+00  0.00000000E+00  0.00000000E+00
  0.00000000E+00  0.00000000E+00  0.00000000E+00
  0.00000000E+00  0.00000000E+00  0.00000000E+00
  0.00000000E+00  0.00000000E+00  0.00000000E+00
  0.00000000E+00  0.00000000E+00  0.00000000E+00
  0.00000000E+00  0.00000000E+00  0.00000000E+00
  0.00000000E+00  0.00000000E+00  0.00000000E+00
  0.00000000E+00  0.00000000E+00  0.00000000E+00
  0.00000000E+00  0.00000000E+00  0.00000000E+00
  0.00000000E+00  0.00000000E+00  0.00000000E+00
  0.00000000E+00  0.00000000E+00  0.00000000E+00
  0.00000000E+00  0.00000000E+00  0.00000000E+00
  0.00000000E+00  0.00000000E+00  0.00000000E+00
  0.00000000E+00  0.00000000E+00  0.00000000E+00
  0.00000000E+00  0.00000000E+00  0.00000000E+00
  0.00000000E+00  0.00000000E+00  0.00000000E+00
  0.00000000E+00  0.00000000E+00  0.00000000E+00
  0.00000000E+00  0.00000000E+00  0.00000000E+00
  0.00000000E+00  0.00000000E+00  0.00000000E+00
  0.00000000E+00  0.00000000E+00  0.00000000E+00
  0.00000000E+00  0.00000000E+00  0.00000000E+00
  0.00000000E+00  0.00000000E+00  0.00000000E+00
  0.00000000E+00  0.00000000E+00  0.00000000E+00
  0.00000000E+00  0.00000000E+00  0.00000000E+00
  0.00000000E+00  0.00000000E+00  0.00000000E+00
  0.00000000E+00  0.00000000E+00  0.00000000E+00
  0.00000000E+00  0.00000000E+00  0.00000000E+00
  0.00000000E+00  0.00000000E+00  0.00000000E+00
  0.00000000E+00  0.00000000E+00  0.00000000E+00
  0.00000000E+00  0.00000000E+00  0.00000000E+00
  0.00000000E+00  0.00000000E+00  0.00000000E+00
  0.00000000E+00  0.00000000E+00  0.00000000E+00
  0.00000000E+00  0.00000000E+00  0.00000000E+00
  0.00000000E+00  0.00000000E+00  0.00000000E+00
  0.00000000E+00  0.00000000E+00  0.00000000E+00
  0.00000000E+00  0.00000000E+00  0.00000000E+00
  0.00000000E+00  0.00000000E+00  0.00000000E+00
  0.00000000E+00  0.00000000E+00  0.00000000E+00
  0.00000000E+00  0.00000000E+00  0.00000000E+00
  0.00000000E+00  0.00000000E+00  0.00000000E+00
  0.00000000E+00  0.00000000E+00  0.00000000E+00
  0.00000000E+00  0.00000000E+00  0.00000000E+00
  0.00000000E+00  0.00000000E+00  0.00000000E+00
  0.00000000E+00  0.00000000E+00  0.00000000E+00
  0.00000000E+00  0.00000000E+00  0.00000000E+00
  0.00000000E+00  0.00000000E+00  0.00000000E+00
  0.00000000E+00  0.00000000E+00  0.00000000E+00
  0.00000000E+00  0.00000000E+00  0.00000000E+00
  0.00000000E+00  0.00000000E+00  0.00000000E+00
  0.00000000E+00  0.00000000E+00  0.00000000E+00
  0.00000000E+00  0.00000000E+00  0.00000000E+00
  0.00000000E+00  0.00000000E+00  0.00000000E+00
  0.00000000E+00  0.00000000E+00  0.00000000E+00
  0.00000000E+00  0.00000000E+00  0.00000000E+00
  0.00000000E+00  0.00000000E+00  0.00000000E+00
  0.00000000E+00  0.00000000E+00  0.00000000E+00
  0.00000000E+00  0.00000000E+00  0.00000000E+00
  0.00000000E+00  0.00000000E+00  0.00000000E+00
  0.00000000E+00  0.00000000E+00  0.00000000E+00
  0.00000000E+00  0.00000000E+00  0.00000000E+00
  0.00000000E+00  0.00000000E+00  0.00000000E+00
  0.00000000E+00  0.00000000E+00  0.00000000E+00
  0.00000000E+00  0.00000000E+00  0.00000000E+00
  0.00000000E+00  0.00000000E+00  0.00000000E+00
  0.00000000E+00  0.00000000E+00  0.00000000E+00
  0.00000000E+00  0.00000000E+00  0.00000000E+00
  0.00000000E+00  0.00000000E+00  0.00000000E+00
  0.00000000E+00  0.00000000E+00  0.00000000E+00
  0.00000000E+00  0.00000000E+00  0.00000000E+00
  0.00000000E+00  0.00000000E+00  0.00000000E+00
  0.00000000E+00  0.00000000E+00  0.00000000E+00
  0.00000000E+00  0.00000000E+00  0.00000000E+00
  0.00000000E+00  0.00000000E+00  0.00000000E+00
  0.00000000E+00  0.00000000E+00  0.00000000E+00
  0.00000000E+00  0.00000000E+00  0.00000000E+00
