C                                       
   1.00000000000000     
    14.6989532139021399   -0.2370480663899147    0.0000000000000000
    -3.2679846856556831    9.2881423755859558    0.0000000000000000
     0.0000000000000000    0.0000000000000000   16.0000000000000000
  C             
   104
Direct
  0.1125846734082995  0.9405934829440550  0.5190367171941379
  0.1718228343670743  0.0423136065277550  0.4510854240126422
  0.0902311051768755  0.0319416516508015  0.5836536814557828
  0.1629907205024483  0.1930338516389941  0.4660869326606942
  0.1083020208724339  0.1675092275691594  0.5498493170017392
  0.9875402005449695  0.9786593110193846  0.6081737391906082
  0.9513340281716379  0.0989928824267488  0.6070506554749661
  0.0248013961075018  0.2036190651021227  0.5637913554679808
  0.9396570869785781  0.8881136427604215  0.5424157002754439
  0.0100647938923365  0.8732436775614006  0.4835366853056588
  0.0107704206079017  0.8990774215939276  0.3980387002636937
  0.8515578937817585  0.9229490035939507  0.5138806641434714
  0.8686058668421625  0.9735960971074553  0.4252353918418272
  0.9346421189061154  0.9495039774855967  0.3631765231045239
  0.8581708228468272  0.0721093157438001  0.5607581894704798
  0.0805077640351481  0.1075589155748405  0.3343668613845065
  0.1067085207311001  0.9946626245833416  0.3705715102846817
  0.9764283346308474  0.0746009946567465  0.3141176190910121
  0.9383956265336654  0.1956198905585952  0.3508161797660750
  0.8775459870745490  0.1147405139469702  0.4203327811268641
  0.8831985051048857  0.2027339402950311  0.4994252644127509
  0.1028227160858380  0.2210623499215198  0.3966569814203502
  0.0244612709400542  0.2619473643076855  0.4108782225296511
  0.9953896880388923  0.2894588653499392  0.5002198820143540
  0.8817323818345673  0.5696369944299330  0.4906356521770705
  0.8129660650886079  0.4397147314130678  0.5285606695857108
  0.8324143579509611  0.6419319208395212  0.4453362402769319
  0.7293999763013735  0.5651853013579718  0.4596408039071866
  0.7198302770734324  0.4386886161812107  0.5112940413127174
  0.8572230946633300  0.6529654580534486  0.3562975403374998
  0.7645874963052677  0.5658871191069462  0.3169384153067489
  0.6920552307174482  0.5187223986979436  0.3809480473563042
  0.9222952673783861  0.5754553661457643  0.3459789333066326
  0.8720743444729335  0.4419171705740380  0.3004786016186219
  0.7733814137555690  0.4377702149043622  0.2840685797260271
  0.9531077900562289  0.5369824286875028  0.4326338404128875
  0.8904745098848172  0.3819197426547216  0.4180879820465535
  0.8703679792657583  0.2994340851972324  0.3397819307064606
  0.8248332754450030  0.3070533610723906  0.4888108679359922
  0.7243839621928162  0.2098651259823391  0.4547210637222591
  0.7501326778428115  0.2270005826335068  0.3590891736872670
  0.7016110579602599  0.3087224962935922  0.3209896406863365
  0.6344524144849835  0.3604469422696661  0.3813766710644149
  0.6569450851834374  0.3012258003043476  0.4671098055919935
  0.4699192290446425  0.2507249600285887  0.6288880464748282
  0.4085796474987584  0.3304298012810558  0.6565799558258310
  0.5444848586579124  0.3307809663971458  0.5781757576826492
  0.5421020787045954  0.4777917934575458  0.5666740588275784
  0.4519899233952616  0.4835635785000691  0.6173018864169278
  0.5509233857175249  0.2562977045802126  0.4973914688994616
  0.5293650349031479  0.3473958164360087  0.4228588423747827
  0.5250708764675686  0.4963112064772609  0.4699110345644221
  0.4624266435277182  0.1059249033285093  0.5008194264058061
  0.3855725157935025  0.1273253830069014  0.4401552151947120
  0.4226958054981012  0.2624879088484861  0.4039072925995099
  0.4135849812065882  0.1256795623088058  0.5805680190028821
  0.3188786618773133  0.1199003198187441  0.5750552477657062
  0.2862947637306218  0.1117237524992163  0.4821569426781382
  0.3189641702726843  0.2508293604697724  0.6204851566787856
  0.2871285502353931  0.3403383190785720  0.5613494813124821
  0.2732858882784587  0.2631551698809106  0.4765251339948675
  0.3619634964793984  0.3469865209734387  0.4257937175531807
  0.4184301948154762  0.4671701597346999  0.4678259292328859
  0.3766739864855667  0.4764703122939983  0.5514433977566817
  0.5993666551442953  0.0581329491197448  0.5602475573855262
  0.6858611199966230  0.0651823981817010  0.5060000353080447
  0.6074108796865528  0.0181093018504791  0.6417562989947171
  0.6941412988465229  0.9873575787252208  0.6548594778841073
  0.7488167265585788  0.0106554862546122  0.5733540756024303
  0.5195181437534906  0.9003625238385846  0.6648188803412378
  0.5522120212731638  0.7848544817122477  0.6841395562738065
  0.6582911492301023  0.8360638190569882  0.6718067535498904
  0.4433496272522907  0.8723565358122427  0.5930717840964339
  0.4643483061510311  0.7364889885733388  0.5667873838786782
  0.5061285351181765  0.6554375862872420  0.6289381110315141
  0.5006055157977635  0.9837095831667657  0.5213620999058569
  0.5336857920752572  0.8884476069444542  0.4630218331331703
  0.5014724034475582  0.7416826022508629  0.4872942628182153
  0.6374699195594843  0.9288831475939716  0.4554116234399935
  0.6672476884226898  0.8115462900172028  0.4684423777491802
  0.5793809039259930  0.6744784772279305  0.4833988739707419
  0.5955732000276014  0.6414562539629260  0.5806871491659328
  0.6865907417269708  0.7508605757797027  0.6118933192006717
  0.7407143892423914  0.8519929155146350  0.5406145818823349
  0.2981249641098539  0.6403545827938797  0.4837302395309745
  0.2061558796832499  0.5586969901710915  0.4470185095111445
  0.3158897263800532  0.5685106528445180  0.5612351350649692
  0.2205854922347990  0.4310582526659177  0.5732093430097153
  0.1600888135284617  0.4493567802557493  0.5014542082695006
  0.3091335843718373  0.6665404024949535  0.6297238370735628
  0.2265419733696744  0.6127732757309642  0.6765293915522018
  0.1672111316685405  0.4714282108098053  0.6444214273882882
  0.3253000212103372  0.8156450140437456  0.5936792889468596
  0.2250355694183883  0.8351059415997933  0.6193047612467317
  0.1746369078787173  0.7153823912288285  0.6673645399739182
  0.2952658206764480  0.7756224258752266  0.5027634891269273
  0.2038175487714463  0.7795807088694978  0.4760786830096586
  0.1531801372669694  0.8281148898944216  0.5440277783128707
  0.1478629805444100  0.6494383126472730  0.4380052363846432
  0.0499107275354086  0.5799781777565846  0.4793041016625099
  0.0676753844586624  0.6859743342094428  0.5547729961946286
  0.0806501095582768  0.6276061889028087  0.6300356356972361
  0.0801926631114312  0.4835368266117636  0.6162644877811572
  0.0579893820746268  0.4428471227343457  0.5243294091775422
 
  0.00000000E+00  0.00000000E+00  0.00000000E+00
  0.00000000E+00  0.00000000E+00  0.00000000E+00
  0.00000000E+00  0.00000000E+00  0.00000000E+00
  0.00000000E+00  0.00000000E+00  0.00000000E+00
  0.00000000E+00  0.00000000E+00  0.00000000E+00
  0.00000000E+00  0.00000000E+00  0.00000000E+00
  0.00000000E+00  0.00000000E+00  0.00000000E+00
  0.00000000E+00  0.00000000E+00  0.00000000E+00
  0.00000000E+00  0.00000000E+00  0.00000000E+00
  0.00000000E+00  0.00000000E+00  0.00000000E+00
  0.00000000E+00  0.00000000E+00  0.00000000E+00
  0.00000000E+00  0.00000000E+00  0.00000000E+00
  0.00000000E+00  0.00000000E+00  0.00000000E+00
  0.00000000E+00  0.00000000E+00  0.00000000E+00
  0.00000000E+00  0.00000000E+00  0.00000000E+00
  0.00000000E+00  0.00000000E+00  0.00000000E+00
  0.00000000E+00  0.00000000E+00  0.00000000E+00
  0.00000000E+00  0.00000000E+00  0.00000000E+00
  0.00000000E+00  0.00000000E+00  0.00000000E+00
  0.00000000E+00  0.00000000E+00  0.00000000E+00
  0.00000000E+00  0.00000000E+00  0.00000000E+00
  0.00000000E+00  0.00000000E+00  0.00000000E+00
  0.00000000E+00  0.00000000E+00  0.00000000E+00
  0.00000000E+00  0.00000000E+00  0.00000000E+00
  0.00000000E+00  0.00000000E+00  0.00000000E+00
  0.00000000E+00  0.00000000E+00  0.00000000E+00
  0.00000000E+00  0.00000000E+00  0.00000000E+00
  0.00000000E+00  0.00000000E+00  0.00000000E+00
  0.00000000E+00  0.00000000E+00  0.00000000E+00
  0.00000000E+00  0.00000000E+00  0.00000000E+00
  0.00000000E+00  0.00000000E+00  0.00000000E+00
  0.00000000E+00  0.00000000E+00  0.00000000E+00
  0.00000000E+00  0.00000000E+00  0.00000000E+00
  0.00000000E+00  0.00000000E+00  0.00000000E+00
  0.00000000E+00  0.00000000E+00  0.00000000E+00
  0.00000000E+00  0.00000000E+00  0.00000000E+00
  0.00000000E+00  0.00000000E+00  0.00000000E+00
  0.00000000E+00  0.00000000E+00  0.00000000E+00
  0.00000000E+00  0.00000000E+00  0.00000000E+00
  0.00000000E+00  0.00000000E+00  0.00000000E+00
  0.00000000E+00  0.00000000E+00  0.00000000E+00
  0.00000000E+00  0.00000000E+00  0.00000000E+00
  0.00000000E+00  0.00000000E+00  0.00000000E+00
  0.00000000E+00  0.00000000E+00  0.00000000E+00
  0.00000000E+00  0.00000000E+00  0.00000000E+00
  0.00000000E+00  0.00000000E+00  0.00000000E+00
  0.00000000E+00  0.00000000E+00  0.00000000E+00
  0.00000000E+00  0.00000000E+00  0.00000000E+00
  0.00000000E+00  0.00000000E+00  0.00000000E+00
  0.00000000E+00  0.00000000E+00  0.00000000E+00
  0.00000000E+00  0.00000000E+00  0.00000000E+00
  0.00000000E+00  0.00000000E+00  0.00000000E+00
  0.00000000E+00  0.00000000E+00  0.00000000E+00
  0.00000000E+00  0.00000000E+00  0.00000000E+00
  0.00000000E+00  0.00000000E+00  0.00000000E+00
  0.00000000E+00  0.00000000E+00  0.00000000E+00
  0.00000000E+00  0.00000000E+00  0.00000000E+00
  0.00000000E+00  0.00000000E+00  0.00000000E+00
  0.00000000E+00  0.00000000E+00  0.00000000E+00
  0.00000000E+00  0.00000000E+00  0.00000000E+00
  0.00000000E+00  0.00000000E+00  0.00000000E+00
  0.00000000E+00  0.00000000E+00  0.00000000E+00
  0.00000000E+00  0.00000000E+00  0.00000000E+00
  0.00000000E+00  0.00000000E+00  0.00000000E+00
  0.00000000E+00  0.00000000E+00  0.00000000E+00
  0.00000000E+00  0.00000000E+00  0.00000000E+00
  0.00000000E+00  0.00000000E+00  0.00000000E+00
  0.00000000E+00  0.00000000E+00  0.00000000E+00
  0.00000000E+00  0.00000000E+00  0.00000000E+00
  0.00000000E+00  0.00000000E+00  0.00000000E+00
  0.00000000E+00  0.00000000E+00  0.00000000E+00
  0.00000000E+00  0.00000000E+00  0.00000000E+00
  0.00000000E+00  0.00000000E+00  0.00000000E+00
  0.00000000E+00  0.00000000E+00  0.00000000E+00
  0.00000000E+00  0.00000000E+00  0.00000000E+00
  0.00000000E+00  0.00000000E+00  0.00000000E+00
  0.00000000E+00  0.00000000E+00  0.00000000E+00
  0.00000000E+00  0.00000000E+00  0.00000000E+00
  0.00000000E+00  0.00000000E+00  0.00000000E+00
  0.00000000E+00  0.00000000E+00  0.00000000E+00
  0.00000000E+00  0.00000000E+00  0.00000000E+00
  0.00000000E+00  0.00000000E+00  0.00000000E+00
  0.00000000E+00  0.00000000E+00  0.00000000E+00
  0.00000000E+00  0.00000000E+00  0.00000000E+00
  0.00000000E+00  0.00000000E+00  0.00000000E+00
  0.00000000E+00  0.00000000E+00  0.00000000E+00
  0.00000000E+00  0.00000000E+00  0.00000000E+00
  0.00000000E+00  0.00000000E+00  0.00000000E+00
  0.00000000E+00  0.00000000E+00  0.00000000E+00
  0.00000000E+00  0.00000000E+00  0.00000000E+00
  0.00000000E+00  0.00000000E+00  0.00000000E+00
  0.00000000E+00  0.00000000E+00  0.00000000E+00
  0.00000000E+00  0.00000000E+00  0.00000000E+00
  0.00000000E+00  0.00000000E+00  0.00000000E+00
  0.00000000E+00  0.00000000E+00  0.00000000E+00
  0.00000000E+00  0.00000000E+00  0.00000000E+00
  0.00000000E+00  0.00000000E+00  0.00000000E+00
  0.00000000E+00  0.00000000E+00  0.00000000E+00
  0.00000000E+00  0.00000000E+00  0.00000000E+00
  0.00000000E+00  0.00000000E+00  0.00000000E+00
  0.00000000E+00  0.00000000E+00  0.00000000E+00
  0.00000000E+00  0.00000000E+00  0.00000000E+00
  0.00000000E+00  0.00000000E+00  0.00000000E+00
  0.00000000E+00  0.00000000E+00  0.00000000E+00
