C                                       
   1.00000000000000     
    17.0867817324473599    0.3380005928129035    0.0000000000000000
     0.2056709090948600   10.6706611270649159    0.0000000000000000
     0.0000000000000000    0.0000000000000000   16.0000000000000000
  C             
   128
Direct
  0.2004514136461333  0.4768299528405092  0.5800168994044663
  0.1466142471110471  0.5204631719089938  0.5078529412534523
  0.2773367797309121  0.4203512374658067  0.5455837809065578
  0.2049195258992738  0.5199187341437456  0.4303073360217717
  0.2780053642156156  0.4770268960863936  0.4591384166929434
  0.3456601062490942  0.4784706932886386  0.5943974486826402
  0.3946748503759306  0.5442953942995402  0.5270238886587272
  0.3451881749253145  0.5437201040945832  0.4480461967968604
  0.3017360504902201  0.5916993540140717  0.6404187470541737
  0.2207513843933705  0.5885648432304209  0.6261628331999860
  0.1745245729395987  0.7024304185794875  0.5931182199888471
  0.3292441969134524  0.7064196658321544  0.6035991556433061
  0.2844090060593488  0.8078008088804268  0.5686201740663586
  0.1973808497448379  0.8325998892235588  0.5621471236776695
  0.3893948791724161  0.6775956479178826  0.5464419673863227
  0.1407914913014688  0.7138113226108688  0.4386290646537774
  0.1516116982890961  0.6529493929121871  0.5212581122714823
  0.1876440342243645  0.8202435648373445  0.4649327309545828
  0.2589365230157044  0.8279971567088925  0.4271408103806973
  0.3240824200238185  0.8486289416366536  0.4920018056492014
  0.3873601196761154  0.7516328925686269  0.4685783515158217
  0.2021517508143967  0.6365905093311315  0.3893454944588817
  0.2715417369429954  0.7089026205090053  0.3826052328108472
  0.3454463904922094  0.6607857574080094  0.4090848824550268
  0.6368624542611366  0.0975663183948216  0.5262207915374087
  0.6261683322122786  0.2297316646551904  0.5564984403534563
  0.6502772808863128  0.0913303276107748  0.4370601979142348
  0.6775125307702958  0.2847270283651465  0.4839965856069776
  0.6833214681352954  0.2082795793373566  0.4116059695716475
  0.7005353461963134  0.9898394217964621  0.4230322933566471
  0.7661036442236593  0.0328876548218201  0.3783534201983382
  0.7596426848875125  0.1732217925267472  0.3743351216223748
  0.7217571348603975  0.9234598606317068  0.5080061469553044
  0.6858014465569668  0.0198340471598069  0.5708918741788207
  0.7196754044728487  0.1008645187636855  0.6344620812155877
  0.8142456576340669  0.9232890032016867  0.5003442982488551
  0.8380970288564588  0.0280098906813270  0.5615937820461030
  0.8038481563225710  0.1058648461428860  0.6297673018249791
  0.8346005964338744  0.9911816184863600  0.4146927092344913
  0.7540132255514466  0.2965380459165012  0.6046382448433039
  0.6860343426483657  0.2264856252343890  0.6283224853141044
  0.8286867884087010  0.2355683997990323  0.6214466172960811
  0.8769989973712005  0.2482391748899763  0.5384726666147541
  0.8627520964812599  0.1197205118303751  0.5127665312439683
  0.8848755042693903  0.1014687996825992  0.4269859274855163
  0.7486864959742682  0.3261593171381301  0.5184896158782191
  0.8258195962082855  0.3233454638060124  0.4712950433087277
  0.8292146147458453  0.2205213965479064  0.4015084882390790
  0.9305447217619495  0.5256982025482552  0.5756827186576764
  0.8594512116400359  0.6071393744918062  0.5716012217327228
  0.0023664849499279  0.5942398005149054  0.5722546038185177
  0.9736134578830474  0.7189522403834966  0.5633259084514671
  0.8874816367221940  0.7263716421648621  0.5661807960487241
  0.0551618851804005  0.5488886476539327  0.4968014457102812
  0.0533677898658142  0.6766336536718497  0.4378221235930806
  0.9986124527578991  0.7678906789589616  0.4850739251647339
  0.0027018311011744  0.4531322140246525  0.4545228570939031
  0.9724001470725172  0.5185969523160898  0.3757517716793788
  0.0006432200404895  0.6394703265463929  0.3656243263858348
  0.9292186544017699  0.4616798187931128  0.5028115583643875
  0.8558225068638667  0.4613445941373043  0.4542930172771324
  0.8867331933277064  0.5240983841646802  0.3755882876064344
  0.8083822751601696  0.5730958326931043  0.4951205429738503
  0.8094044261288165  0.6972822411666579  0.4406483222123326
  0.8613104948423927  0.6515370302173259  0.3684411662237589
  0.9306226791988288  0.7227187463846900  0.3649885697344390
  0.9310815136465873  0.7988166070426642  0.4372299734474880
  0.8565107298639371  0.7965546981547450  0.4908572753555377
  0.5188447410151348  0.1466310042513903  0.4852204161342316
  0.5330027256263175  0.2424468907993007  0.5551469445998030
  0.4968617753903747  0.0265158938432126  0.5148917310913150
  0.4744473117524876  0.0412185262970286  0.5976862437720899
  0.4879718046947494  0.1716537367577403  0.6230951035639126
  0.4385835567674294  0.9661169298015485  0.4578870026635731
  0.3632711035518687  0.9671975828572097  0.5161806178998478
  0.3930313138964210  0.0120464239462619  0.6037678269869108
  0.4167899753368199  0.0827984879847268  0.4039499408146265
  0.3448770989493951  0.1395655876675029  0.4285953971118349
  0.3037156444109608  0.0726042108071694  0.4979538782434014
  0.4731294939898660  0.1826428219580314  0.4183807253295445
  0.4351478856929492  0.2966352367865810  0.4494951246302373
  0.3570423229801197  0.2664235542922144  0.4552105269315689
  0.4678529342734415  0.3530052949594633  0.5318788652708781
  0.3944412367753874  0.3405250271633675  0.5937243559222173
  0.3243160797568419  0.2954332288439107  0.5394658879034578
  0.2961133172764038  0.1722341543214719  0.5707468256053501
  0.3565194916112425  0.1252343671029042  0.6311622146635731
  0.4145965496214937  0.2231945702212760  0.6430009455027788
  0.1734051099927001  0.0918294956752514  0.4249795775507856
  0.1030726283649018  0.0323273447104693  0.4125912446627033
  0.2133160167917707  0.0556446419960787  0.5058433980636015
  0.1547761388857562  0.9619734750138080  0.5551967925008552
  0.0870658179645699  0.9644945166532360  0.4867126718204344
  0.2068090424810128  0.1724128221737708  0.5648506466379579
  0.1424870406013294  0.1565381948088994  0.6280916532425418
  0.1118882797789780  0.0398556277786577  0.6204045003370789
  0.1668012004130138  0.2663031320892606  0.5061982177036743
  0.0953057520491798  0.3123746076230260  0.5386715863598445
  0.0781535099295258  0.2493713000582759  0.6127865073076809
  0.1543299154932154  0.2221035119706439  0.4245807044346306
  0.0704603707054619  0.2414612894269584  0.4061788874990064
  0.0304043809071980  0.3195911735965307  0.4730780108079299
  0.0394510214966975  0.1260196483249798  0.3971717282338346
  0.9722569449391812  0.1085196490148997  0.4549569934154612
  0.9672871151300299  0.2307263463887599  0.5175118873373046
  0.0082725618413615  0.1873709013373182  0.5969800116326867
  0.0278377678325434  0.0579556785648622  0.5985206217069871
  0.0139669667070434  0.0112108203018895  0.5170842304605394
  0.4631489941880254  0.8119475389923678  0.4474767642873164
  0.4770685626192219  0.4960739471334336  0.5189921951412700
  0.5292258404488290  0.7954139742865743  0.5126618321575624
  0.5545469172413720  0.7030963919789577  0.5714077756476430
  0.5348088819114273  0.5705549530339461  0.5725722766072612
  0.5977057992931633  0.8377231559719583  0.4706651960366717
  0.6764843363681452  0.8012829075270717  0.5085774623779807
  0.6430475168582221  0.7105112780538687  0.5737367260708787
  0.5924427758799723  0.7976247815638995  0.3872205878990673
  0.6588063236904899  0.7159517605486241  0.3711303738868783
  0.7190086055688704  0.7121050540269785  0.4422958534207724
  0.5155249485056247  0.7408354070360046  0.3807798292470745
  0.5386594040426184  0.6079650094203783  0.3811990894236898
  0.6262158032667696  0.5981649599201198  0.3661149711150034
  0.5239312663940953  0.5085648971947869  0.4386978923450700
  0.6021587414638745  0.4654668869322797  0.4697200289851677
  0.6635624451526205  0.5138304504332427  0.4233285054366696
  0.7194828119063703  0.5789820878291360  0.4835444706861327
  0.6708943491326931  0.5895417872592786  0.5600304474624174
  0.6073380375875845  0.5075066882271209  0.5558086632057927
 
  0.00000000E+00  0.00000000E+00  0.00000000E+00
  0.00000000E+00  0.00000000E+00  0.00000000E+00
  0.00000000E+00  0.00000000E+00  0.00000000E+00
  0.00000000E+00  0.00000000E+00  0.00000000E+00
  0.00000000E+00  0.00000000E+00  0.00000000E+00
  0.00000000E+00  0.00000000E+00  0.00000000E+00
  0.00000000E+00  0.00000000E+00  0.00000000E+00
  0.00000000E+00  0.00000000E+00  0.00000000E+00
  0.00000000E+00  0.00000000E+00  0.00000000E+00
  0.00000000E+00  0.00000000E+00  0.00000000E+00
  0.00000000E+00  0.00000000E+00  0.00000000E+00
  0.00000000E+00  0.00000000E+00  0.00000000E+00
  0.00000000E+00  0.00000000E+00  0.00000000E+00
  0.00000000E+00  0.00000000E+00  0.00000000E+00
  0.00000000E+00  0.00000000E+00  0.00000000E+00
  0.00000000E+00  0.00000000E+00  0.00000000E+00
  0.00000000E+00  0.00000000E+00  0.00000000E+00
  0.00000000E+00  0.00000000E+00  0.00000000E+00
  0.00000000E+00  0.00000000E+00  0.00000000E+00
  0.00000000E+00  0.00000000E+00  0.00000000E+00
  0.00000000E+00  0.00000000E+00  0.00000000E+00
  0.00000000E+00  0.00000000E+00  0.00000000E+00
  0.00000000E+00  0.00000000E+00  0.00000000E+00
  0.00000000E+00  0.00000000E+00  0.00000000E+00
  0.00000000E+00  0.00000000E+00  0.00000000E+00
  0.00000000E+00  0.00000000E+00  0.00000000E+00
  0.00000000E+00  0.00000000E+00  0.00000000E+00
  0.00000000E+00  0.00000000E+00  0.00000000E+00
  0.00000000E+00  0.00000000E+00  0.00000000E+00
  0.00000000E+00  0.00000000E+00  0.00000000E+00
  0.00000000E+00  0.00000000E+00  0.00000000E+00
  0.00000000E+00  0.00000000E+00  0.00000000E+00
  0.00000000E+00  0.00000000E+00  0.00000000E+00
  0.00000000E+00  0.00000000E+00  0.00000000E+00
  0.00000000E+00  0.00000000E+00  0.00000000E+00
  0.00000000E+00  0.00000000E+00  0.00000000E+00
  0.00000000E+00  0.00000000E+00  0.00000000E+00
  0.00000000E+00  0.00000000E+00  0.00000000E+00
  0.00000000E+00  0.00000000E+00  0.00000000E+00
  0.00000000E+00  0.00000000E+00  0.00000000E+00
  0.00000000E+00  0.00000000E+00  0.00000000E+00
  0.00000000E+00  0.00000000E+00  0.00000000E+00
  0.00000000E+00  0.00000000E+00  0.00000000E+00
  0.00000000E+00  0.00000000E+00  0.00000000E+00
  0.00000000E+00  0.00000000E+00  0.00000000E+00
  0.00000000E+00  0.00000000E+00  0.00000000E+00
  0.00000000E+00  0.00000000E+00  0.00000000E+00
  0.00000000E+00  0.00000000E+00  0.00000000E+00
  0.00000000E+00  0.00000000E+00  0.00000000E+00
  0.00000000E+00  0.00000000E+00  0.00000000E+00
  0.00000000E+00  0.00000000E+00  0.00000000E+00
  0.00000000E+00  0.00000000E+00  0.00000000E+00
  0.00000000E+00  0.00000000E+00  0.00000000E+00
  0.00000000E+00  0.00000000E+00  0.00000000E+00
  0.00000000E+00  0.00000000E+00  0.00000000E+00
  0.00000000E+00  0.00000000E+00  0.00000000E+00
  0.00000000E+00  0.00000000E+00  0.00000000E+00
  0.00000000E+00  0.00000000E+00  0.00000000E+00
  0.00000000E+00  0.00000000E+00  0.00000000E+00
  0.00000000E+00  0.00000000E+00  0.00000000E+00
  0.00000000E+00  0.00000000E+00  0.00000000E+00
  0.00000000E+00  0.00000000E+00  0.00000000E+00
  0.00000000E+00  0.00000000E+00  0.00000000E+00
  0.00000000E+00  0.00000000E+00  0.00000000E+00
  0.00000000E+00  0.00000000E+00  0.00000000E+00
  0.00000000E+00  0.00000000E+00  0.00000000E+00
  0.00000000E+00  0.00000000E+00  0.00000000E+00
  0.00000000E+00  0.00000000E+00  0.00000000E+00
  0.00000000E+00  0.00000000E+00  0.00000000E+00
  0.00000000E+00  0.00000000E+00  0.00000000E+00
  0.00000000E+00  0.00000000E+00  0.00000000E+00
  0.00000000E+00  0.00000000E+00  0.00000000E+00
  0.00000000E+00  0.00000000E+00  0.00000000E+00
  0.00000000E+00  0.00000000E+00  0.00000000E+00
  0.00000000E+00  0.00000000E+00  0.00000000E+00
  0.00000000E+00  0.00000000E+00  0.00000000E+00
  0.00000000E+00  0.00000000E+00  0.00000000E+00
  0.00000000E+00  0.00000000E+00  0.00000000E+00
  0.00000000E+00  0.00000000E+00  0.00000000E+00
  0.00000000E+00  0.00000000E+00  0.00000000E+00
  0.00000000E+00  0.00000000E+00  0.00000000E+00
  0.00000000E+00  0.00000000E+00  0.00000000E+00
  0.00000000E+00  0.00000000E+00  0.00000000E+00
  0.00000000E+00  0.00000000E+00  0.00000000E+00
  0.00000000E+00  0.00000000E+00  0.00000000E+00
  0.00000000E+00  0.00000000E+00  0.00000000E+00
  0.00000000E+00  0.00000000E+00  0.00000000E+00
  0.00000000E+00  0.00000000E+00  0.00000000E+00
  0.00000000E+00  0.00000000E+00  0.00000000E+00
  0.00000000E+00  0.00000000E+00  0.00000000E+00
  0.00000000E+00  0.00000000E+00  0.00000000E+00
  0.00000000E+00  0.00000000E+00  0.00000000E+00
  0.00000000E+00  0.00000000E+00  0.00000000E+00
  0.00000000E+00  0.00000000E+00  0.00000000E+00
  0.00000000E+00  0.00000000E+00  0.00000000E+00
  0.00000000E+00  0.00000000E+00  0.00000000E+00
  0.00000000E+00  0.00000000E+00  0.00000000E+00
  0.00000000E+00  0.00000000E+00  0.00000000E+00
  0.00000000E+00  0.00000000E+00  0.00000000E+00
  0.00000000E+00  0.00000000E+00  0.00000000E+00
  0.00000000E+00  0.00000000E+00  0.00000000E+00
  0.00000000E+00  0.00000000E+00  0.00000000E+00
  0.00000000E+00  0.00000000E+00  0.00000000E+00
  0.00000000E+00  0.00000000E+00  0.00000000E+00
  0.00000000E+00  0.00000000E+00  0.00000000E+00
  0.00000000E+00  0.00000000E+00  0.00000000E+00
  0.00000000E+00  0.00000000E+00  0.00000000E+00
  0.00000000E+00  0.00000000E+00  0.00000000E+00
  0.00000000E+00  0.00000000E+00  0.00000000E+00
  0.00000000E+00  0.00000000E+00  0.00000000E+00
  0.00000000E+00  0.00000000E+00  0.00000000E+00
  0.00000000E+00  0.00000000E+00  0.00000000E+00
  0.00000000E+00  0.00000000E+00  0.00000000E+00
  0.00000000E+00  0.00000000E+00  0.00000000E+00
  0.00000000E+00  0.00000000E+00  0.00000000E+00
  0.00000000E+00  0.00000000E+00  0.00000000E+00
  0.00000000E+00  0.00000000E+00  0.00000000E+00
  0.00000000E+00  0.00000000E+00  0.00000000E+00
  0.00000000E+00  0.00000000E+00  0.00000000E+00
  0.00000000E+00  0.00000000E+00  0.00000000E+00
  0.00000000E+00  0.00000000E+00  0.00000000E+00
  0.00000000E+00  0.00000000E+00  0.00000000E+00
  0.00000000E+00  0.00000000E+00  0.00000000E+00
  0.00000000E+00  0.00000000E+00  0.00000000E+00
  0.00000000E+00  0.00000000E+00  0.00000000E+00
  0.00000000E+00  0.00000000E+00  0.00000000E+00
  0.00000000E+00  0.00000000E+00  0.00000000E+00
  0.00000000E+00  0.00000000E+00  0.00000000E+00
