Generated by VASPKIT code               
   1.00000000000000     
    17.0221978369805385    0.1343554951393619    0.0000000000000000
    -8.3869601371258327   14.8126440112268796    0.0000000000000000
     0.0000000000000013    0.0000000000000022   19.7173749825456923
   C 
   128
Direct
  0.5804638701523785  0.3634429027046551  0.5502507399357981
  0.0408423627333789  0.9257171539884865  0.5919557427671762
  0.5413355788010961  0.3231243482495572  0.4839835295106667
  0.0380238633531746  0.9973598087759328  0.6233613354546605
  0.5985085753043151  0.2985880689289289  0.5863542534555535
  0.9510696272462198  0.8606202724300260  0.5721892066127694
  0.5451537382730010  0.2430731019929908  0.4827577251330766
  0.9450494285954889  0.9849756404664660  0.6166193860503810
  0.5640834989881398  0.2082123779979455  0.5487303355297612
  0.8925726937062564  0.9020014198505137  0.5833709469251644
  0.6920317531340956  0.3386211321509052  0.5883738863243408
  0.9493435578474063  0.8457675606082447  0.5021772216218636
  0.7237431986645007  0.2829066946748213  0.5599516193961094
  0.8698337942705265  0.8444123215649242  0.4666934948443000
  0.6529403565464165  0.2070792039101192  0.5301191602130899
  0.8512595120328470  0.9009134200558861  0.5202586190962322
  0.7298144659830541  0.4243567265125918  0.5482643789971533
  0.0331196542396341  0.9111058181670302  0.4735598348267871
  0.6609972812385365  0.4486752604358415  0.5491287204059034
  0.1009888148844951  0.9584186816243658  0.5288529299262024
  0.6252745678419274  0.4395089522936928  0.3909391817502978
  0.1456705325585190  0.0687825323899318  0.5293213152810736
  0.7711361108541368  0.4120541915768570  0.4898537230665596
  0.0142439120487836  0.9565345992190970  0.4222828354415284
  0.7583541660035209  0.4067318928464942  0.4147644010378073
  0.0519064458037874  0.0551733462533264  0.4256608059573210
  0.6929832626686832  0.4141597481619996  0.3716932069400798
  0.1097636120944543  0.1097246108483176  0.4765459023491303
  0.7945593379512488  0.3390664916260135  0.5093951705556634
  0.9171551763437762  0.9155933766549040  0.4122958211868379
  0.5579884328610234  0.2846535798640559  0.3744342700390249
  0.0503628071135864  0.1242017641003841  0.5753495739640115
  0.5508081581314457  0.3542332431259112  0.4134166951700422
  0.0998324829862014  0.0815279063336902  0.5930411387611514
  0.6415873678594508  0.3224828281587619  0.3433085423978284
  0.0701026367785360  0.1689473324431106  0.5081777271771699
  0.6836768445313837  0.2695696060422890  0.3600575072746608
  0.9777193640809259  0.1314642416527931  0.4715420491173603
  0.7638133634150464  0.3250185521085314  0.3929381079903393
  0.9758463173190961  0.0713355017668533  0.4160671407808394
  0.7764285527302803  0.2740146392879126  0.4503908773321399
  0.8978569727044885  0.9866348206811608  0.4201259551588095
  0.5368537033706033  0.1986331935796457  0.4134948523519384
  0.9548349374066589  0.0654192575590216  0.5852107261509900
  0.6255447977088693  0.1943843683113684  0.4054477624640356
  0.9111613296891434  0.0626953352330801  0.5230983004001502
  0.6774520879663868  0.1975248625989323  0.4616324270609269
  0.8591558911224126  0.9791781242661770  0.4903400449530082
  0.2654597555475391  0.5783577917686387  0.6147846164087838
  0.6416079246258803  0.5918527122025878  0.5763994279460292
  0.4065376924448501  0.0319344427658308  0.5972098446017569
  0.9378327873365961  0.3535990738580068  0.5753181093631738
  0.2501699882919439  0.6524413135736893  0.6096779713069438
  0.7067378605415513  0.6851214930880545  0.5645257448795959
  0.3164097225134341  0.0257420769908947  0.6044976409593730
  0.9471716593236650  0.2744081285723539  0.5649893642995920
  0.3590418650078107  0.6139111791932166  0.6337175099644270
  0.6669463356805565  0.5331010450282463  0.5302949434397703
  0.4710924580222908  0.1191942741385859  0.5541986227892082
  0.8930375683057576  0.3660514147374627  0.5136133273473575
  0.4024266936199226  0.7099928783259131  0.6419275409383332
  0.7486923731212798  0.6053479503612493  0.4930159536667702
  0.3982984637091889  0.1452748946995897  0.5370034661751291
  0.8736827267697436  0.2845941070134614  0.4625729721664200
  0.3349268753228287  0.7358541645372512  0.6288098960010728
  0.7732904837870791  0.6910869513178639  0.5175422374650296
  0.3167511675173031  0.1004591744785301  0.5715844953955056
  0.9117187120033492  0.2338265105697985  0.5031135340107866
  0.4039223246903774  0.5951695794718717  0.5805874192842353
  0.5984550219485314  0.5118393634823946  0.4759948420277098
  0.4723939945142988  0.0743294835179285  0.4876358104016205
  0.9697438618494516  0.4477826506053404  0.4796012487153192
  0.4858380344273030  0.6804080235336585  0.5567646768583714
  0.6350752562310333  0.5286180898503190  0.4059074129966618
  0.4440351346075317  0.1118796477141402  0.4278482277910243
  0.9969367641571978  0.4228051604129419  0.4180032239253819
  0.4776159315877067  0.7531921657264107  0.5953861768695319
  0.7291319981900628  0.6045775008356316  0.4209805284029571
  0.3835597034031082  0.1418906236799771  0.4659818348087299
  0.9461534203915321  0.3260147045447823  0.4095946551301566
  0.3423684125616759  0.5510411064563954  0.5273757473489269
  0.5282114398765287  0.5296204585388935  0.4900417265190526
  0.4304451558694851  0.9839227333603517  0.4901221583544952
  0.0460495949121480  0.4868117576739621  0.5230457215405693
  0.3692253914602617  0.6062014363133272  0.4691980610540725
  0.5298414437571850  0.5838114641542163  0.4323461528173951
  0.3614764398806258  0.9496082180651584  0.4363029283618047
  0.1299867237139480  0.5005763111998647  0.4848509937627696
  0.4631582275958621  0.6866804278259124  0.4788243730833841
  0.5894937046023259  0.5866551627959851  0.3812660526775105
  0.3643585703784282  0.0209110430939461  0.3985625293468260
  0.0912029202598106  0.4512929349995503  0.4193250674304281
  0.2473745580633775  0.5258016325675356  0.5476016181430481
  0.5627810151531634  0.5858356356828125  0.5501059096549596
  0.3870415927691866  0.9561894318487418  0.5573197373038283
  0.0272972197506078  0.4265153814721643  0.5793736433125787
  0.2203299032228543  0.5839667047897095  0.4984755557767926
  0.5688600513215505  0.6750732900619170  0.5377472846974456
  0.2906312268745808  0.9057315689844359  0.5431954082349435
  0.0894491532767177  0.3910652553492753  0.5786240338517459
  0.3039126519691422  0.6320131631337489  0.4537656637318648
  0.5452500764218158  0.6754568758636523  0.4559218898129913
  0.2755672515890737  0.9002433619714481  0.4713279938220580
  0.1609765595605666  0.4384359590609890  0.5269618172028245
  0.2268938113197549  0.6613900592672763  0.5413424634841206
  0.6674849723085572  0.7391859651893284  0.5431173159341753
  0.2441080558141167  0.9443146031190395  0.5773546056100045
  0.0424222639677510  0.2981894638524452  0.5701448209093911
  0.2994132366109028  0.7439796234118745  0.5172341983516731
  0.7003259658574805  0.7666595002380419  0.4756586123307827
  0.1933731391648763  0.9661737254428644  0.5222347312157041
  0.0749751645351893  0.2666027705268803  0.5092203686766510
  0.3463255176109001  0.7274143840273481  0.4633860944012227
  0.6352775671693891  0.7366971524980883  0.4231993338533044
  0.2193507036818829  0.9381171326710529  0.4549270424982126
  0.1380091639518284  0.3584700581340670  0.4778131218437025
  0.4398108285303195  0.7627193781636663  0.4816553239635439
  0.6586010540099494  0.6800333706362380  0.3822715288966236
  0.2762175509299141  0.0153140935284029  0.4152836697294475
  0.0963446377169106  0.3687012911448520  0.4199747934045917
  0.4515060782566280  0.7994963367154710  0.5480675428256347
  0.7450887178437569  0.6899125532733379  0.4000671199449002
  0.2916789607886443  0.0930528028535420  0.4530685294214720
  0.0059035967035115  0.2917652536957860  0.4100958151969181
  0.3638990609408665  0.7910168602980363  0.5704599019088832
  0.7834561688567589  0.7560712451450655  0.4598647015668789
  0.2396960563425523  0.0726552270413521  0.5206295226244961
  0.9832730848165951  0.2226584491908028  0.4649383843507024
 
  0.00000000E+00  0.00000000E+00  0.00000000E+00
  0.00000000E+00  0.00000000E+00  0.00000000E+00
  0.00000000E+00  0.00000000E+00  0.00000000E+00
  0.00000000E+00  0.00000000E+00  0.00000000E+00
  0.00000000E+00  0.00000000E+00  0.00000000E+00
  0.00000000E+00  0.00000000E+00  0.00000000E+00
  0.00000000E+00  0.00000000E+00  0.00000000E+00
  0.00000000E+00  0.00000000E+00  0.00000000E+00
  0.00000000E+00  0.00000000E+00  0.00000000E+00
  0.00000000E+00  0.00000000E+00  0.00000000E+00
  0.00000000E+00  0.00000000E+00  0.00000000E+00
  0.00000000E+00  0.00000000E+00  0.00000000E+00
  0.00000000E+00  0.00000000E+00  0.00000000E+00
  0.00000000E+00  0.00000000E+00  0.00000000E+00
  0.00000000E+00  0.00000000E+00  0.00000000E+00
  0.00000000E+00  0.00000000E+00  0.00000000E+00
  0.00000000E+00  0.00000000E+00  0.00000000E+00
  0.00000000E+00  0.00000000E+00  0.00000000E+00
  0.00000000E+00  0.00000000E+00  0.00000000E+00
  0.00000000E+00  0.00000000E+00  0.00000000E+00
  0.00000000E+00  0.00000000E+00  0.00000000E+00
  0.00000000E+00  0.00000000E+00  0.00000000E+00
  0.00000000E+00  0.00000000E+00  0.00000000E+00
  0.00000000E+00  0.00000000E+00  0.00000000E+00
  0.00000000E+00  0.00000000E+00  0.00000000E+00
  0.00000000E+00  0.00000000E+00  0.00000000E+00
  0.00000000E+00  0.00000000E+00  0.00000000E+00
  0.00000000E+00  0.00000000E+00  0.00000000E+00
  0.00000000E+00  0.00000000E+00  0.00000000E+00
  0.00000000E+00  0.00000000E+00  0.00000000E+00
  0.00000000E+00  0.00000000E+00  0.00000000E+00
  0.00000000E+00  0.00000000E+00  0.00000000E+00
  0.00000000E+00  0.00000000E+00  0.00000000E+00
  0.00000000E+00  0.00000000E+00  0.00000000E+00
  0.00000000E+00  0.00000000E+00  0.00000000E+00
  0.00000000E+00  0.00000000E+00  0.00000000E+00
  0.00000000E+00  0.00000000E+00  0.00000000E+00
  0.00000000E+00  0.00000000E+00  0.00000000E+00
  0.00000000E+00  0.00000000E+00  0.00000000E+00
  0.00000000E+00  0.00000000E+00  0.00000000E+00
  0.00000000E+00  0.00000000E+00  0.00000000E+00
  0.00000000E+00  0.00000000E+00  0.00000000E+00
  0.00000000E+00  0.00000000E+00  0.00000000E+00
  0.00000000E+00  0.00000000E+00  0.00000000E+00
  0.00000000E+00  0.00000000E+00  0.00000000E+00
  0.00000000E+00  0.00000000E+00  0.00000000E+00
  0.00000000E+00  0.00000000E+00  0.00000000E+00
  0.00000000E+00  0.00000000E+00  0.00000000E+00
  0.00000000E+00  0.00000000E+00  0.00000000E+00
  0.00000000E+00  0.00000000E+00  0.00000000E+00
  0.00000000E+00  0.00000000E+00  0.00000000E+00
  0.00000000E+00  0.00000000E+00  0.00000000E+00
  0.00000000E+00  0.00000000E+00  0.00000000E+00
  0.00000000E+00  0.00000000E+00  0.00000000E+00
  0.00000000E+00  0.00000000E+00  0.00000000E+00
  0.00000000E+00  0.00000000E+00  0.00000000E+00
  0.00000000E+00  0.00000000E+00  0.00000000E+00
  0.00000000E+00  0.00000000E+00  0.00000000E+00
  0.00000000E+00  0.00000000E+00  0.00000000E+00
  0.00000000E+00  0.00000000E+00  0.00000000E+00
  0.00000000E+00  0.00000000E+00  0.00000000E+00
  0.00000000E+00  0.00000000E+00  0.00000000E+00
  0.00000000E+00  0.00000000E+00  0.00000000E+00
  0.00000000E+00  0.00000000E+00  0.00000000E+00
  0.00000000E+00  0.00000000E+00  0.00000000E+00
  0.00000000E+00  0.00000000E+00  0.00000000E+00
  0.00000000E+00  0.00000000E+00  0.00000000E+00
  0.00000000E+00  0.00000000E+00  0.00000000E+00
  0.00000000E+00  0.00000000E+00  0.00000000E+00
  0.00000000E+00  0.00000000E+00  0.00000000E+00
  0.00000000E+00  0.00000000E+00  0.00000000E+00
  0.00000000E+00  0.00000000E+00  0.00000000E+00
  0.00000000E+00  0.00000000E+00  0.00000000E+00
  0.00000000E+00  0.00000000E+00  0.00000000E+00
  0.00000000E+00  0.00000000E+00  0.00000000E+00
  0.00000000E+00  0.00000000E+00  0.00000000E+00
  0.00000000E+00  0.00000000E+00  0.00000000E+00
  0.00000000E+00  0.00000000E+00  0.00000000E+00
  0.00000000E+00  0.00000000E+00  0.00000000E+00
  0.00000000E+00  0.00000000E+00  0.00000000E+00
  0.00000000E+00  0.00000000E+00  0.00000000E+00
  0.00000000E+00  0.00000000E+00  0.00000000E+00
  0.00000000E+00  0.00000000E+00  0.00000000E+00
  0.00000000E+00  0.00000000E+00  0.00000000E+00
  0.00000000E+00  0.00000000E+00  0.00000000E+00
  0.00000000E+00  0.00000000E+00  0.00000000E+00
  0.00000000E+00  0.00000000E+00  0.00000000E+00
  0.00000000E+00  0.00000000E+00  0.00000000E+00
  0.00000000E+00  0.00000000E+00  0.00000000E+00
  0.00000000E+00  0.00000000E+00  0.00000000E+00
  0.00000000E+00  0.00000000E+00  0.00000000E+00
  0.00000000E+00  0.00000000E+00  0.00000000E+00
  0.00000000E+00  0.00000000E+00  0.00000000E+00
  0.00000000E+00  0.00000000E+00  0.00000000E+00
  0.00000000E+00  0.00000000E+00  0.00000000E+00
  0.00000000E+00  0.00000000E+00  0.00000000E+00
  0.00000000E+00  0.00000000E+00  0.00000000E+00
  0.00000000E+00  0.00000000E+00  0.00000000E+00
  0.00000000E+00  0.00000000E+00  0.00000000E+00
  0.00000000E+00  0.00000000E+00  0.00000000E+00
  0.00000000E+00  0.00000000E+00  0.00000000E+00
  0.00000000E+00  0.00000000E+00  0.00000000E+00
  0.00000000E+00  0.00000000E+00  0.00000000E+00
  0.00000000E+00  0.00000000E+00  0.00000000E+00
  0.00000000E+00  0.00000000E+00  0.00000000E+00
  0.00000000E+00  0.00000000E+00  0.00000000E+00
  0.00000000E+00  0.00000000E+00  0.00000000E+00
  0.00000000E+00  0.00000000E+00  0.00000000E+00
  0.00000000E+00  0.00000000E+00  0.00000000E+00
  0.00000000E+00  0.00000000E+00  0.00000000E+00
  0.00000000E+00  0.00000000E+00  0.00000000E+00
  0.00000000E+00  0.00000000E+00  0.00000000E+00
  0.00000000E+00  0.00000000E+00  0.00000000E+00
  0.00000000E+00  0.00000000E+00  0.00000000E+00
  0.00000000E+00  0.00000000E+00  0.00000000E+00
  0.00000000E+00  0.00000000E+00  0.00000000E+00
  0.00000000E+00  0.00000000E+00  0.00000000E+00
  0.00000000E+00  0.00000000E+00  0.00000000E+00
  0.00000000E+00  0.00000000E+00  0.00000000E+00
  0.00000000E+00  0.00000000E+00  0.00000000E+00
  0.00000000E+00  0.00000000E+00  0.00000000E+00
  0.00000000E+00  0.00000000E+00  0.00000000E+00
  0.00000000E+00  0.00000000E+00  0.00000000E+00
  0.00000000E+00  0.00000000E+00  0.00000000E+00
  0.00000000E+00  0.00000000E+00  0.00000000E+00
  0.00000000E+00  0.00000000E+00  0.00000000E+00
  0.00000000E+00  0.00000000E+00  0.00000000E+00
  0.00000000E+00  0.00000000E+00  0.00000000E+00
