C                                       
   1.00000000000000     
    11.9027929408490341   -0.0341768584102379    0.0000000000000000
    -0.0372779351374177    9.8885045659514219    0.0000000000000000
     0.0000000000000000    0.0000000000000000   16.0000000000000000
   C 
    68
Direct
  0.3220715814474753  0.1803785333025752  0.6067533091673639
  0.2568863278731188  0.0521932665450466  0.5747627343688998
  0.4314691574871242  0.1321743906250061  0.6152313357175648
  0.3189919018299604  0.9331581228971253  0.5899348907780984
  0.4283595176415091  0.9810450744738959  0.6108511310962154
  0.5357218583135590  0.1718405445855811  0.5711374271748366
  0.5736310933741768  0.0604694461452292  0.5302937013791242
  0.5151572049305501  0.9403451980594428  0.5606703210015472
  0.4014863866889641  0.2469342310111663  0.4371733114153522
  0.2743429334260984  0.2428274734062089  0.4352417171242456
  0.2306293212319119  0.1073227878668849  0.4174283740394971
  0.4582144042577657  0.1354080237193518  0.4026729852966987
  0.3970488730946816  0.0361671605738903  0.3509203338398253
  0.2793166068480836  0.0207284438754737  0.3547056342695218
  0.5551796545755279  0.0570132531434745  0.4405038943571739
  0.2292839526711921  0.8903486023912366  0.4659428506041244
  0.2109199703951327  0.0287951634060676  0.4898690950387730
  0.2643698210436573  0.8807165323550420  0.3839886592858164
  0.3719006084640730  0.8144927644375984  0.3889213062836562
  0.4528833026600752  0.9044690319765145  0.3602419490808498
  0.5419729095727503  0.9194524414449676  0.4182691546949541
  0.2951749899828317  0.8114708011274337  0.5305522252332667
  0.4009923218626553  0.7596041654280922  0.4749087753359378
  0.5140244999490889  0.8348405790176884  0.4976285284550092
  0.9160207681736529  0.3639590384066279  0.5138141353914084
  0.9223235739276282  0.4992513183982273  0.4652649492952991
  0.0147448891455041  0.2906706858878972  0.4730897507040170
  0.0292100931667519  0.5078030207339131  0.4178144515467638
  0.0796163465169266  0.3820713663183602  0.4177883552412454
  0.0903325172139864  0.2500978101437449  0.5335703845033229
  0.2082067108673306  0.2805683204279071  0.5126545982712781
  0.2033242176448124  0.3735756967848525  0.4357955253915997
  0.0671790970028537  0.3191044799128667  0.6128413969034878
  0.9673953737911566  0.4010957712313591  0.5976632209806261
  0.9671745824417767  0.5398578950653832  0.6089160627949272
  0.1674335458780718  0.3741247210051545  0.6425979951973133
  0.1714437156959720  0.5193152946757890  0.6518708354652526
  0.0704933638728266  0.6032989490455437  0.6361948957173991
  0.2700606334674107  0.3228715386080731  0.5893584955548073
  0.0257880901360828  0.6946975882574549  0.5095051313759182
  0.9215286869098812  0.6152957428483868  0.5289599734957827
  0.1002674537385734  0.7102088649460926  0.5821743010676420
  0.2227167700398798  0.6920225535963470  0.5577046265310855
  0.2636755329580596  0.5751183518592142  0.6112242296075412
  0.3206894435379544  0.4688946046969477  0.5574422899786667
  0.0866895680409360  0.6281398992928949  0.4463349365461796
  0.2005394650411896  0.6128421177661395  0.4764163079433179
  0.2530986914778808  0.4924839274068301  0.4748057010829645
  0.7162994304308132  0.5769703370115163  0.5811902331645634
  0.7810299142335339  0.6259837843780899  0.5093847031053251
  0.7203302134796391  0.4317160735341116  0.5841011215170094
  0.7804853540204552  0.3713350053741302  0.5094426261842462
  0.7994804362480010  0.4998296349760868  0.4519355061081145
  0.6080203041589852  0.3930232975759574  0.5931452084709682
  0.5724880985447003  0.2945999997906515  0.5290225957061099
  0.6766228973584443  0.3016561508731713  0.4697322873484239
  0.5347485074653621  0.5043902184228501  0.5967568215865460
  0.4403361933201673  0.4889948261800242  0.5325094489608987
  0.4734719885192428  0.3608666662978129  0.4757385025926131
  0.6035551656299888  0.6227761352082072  0.5897906148528040
  0.5755483775500776  0.7047807531408740  0.5152243383863855
  0.4682140473654001  0.6203309647222286  0.4767260952684782
  0.6787914010355042  0.6893042115239445  0.4619696622073591
  0.6455737185742906  0.6106095211627461  0.3934850786312400
  0.5273896368767204  0.5647735001956991  0.4010995491866196
  0.5326533422480489  0.4257333326258493  0.4044146156672701
  0.6466968563747674  0.3779652712301692  0.3991010950995806
  0.7168598186698282  0.4946459783723950  0.3854668553450921
 
  0.00000000E+00  0.00000000E+00  0.00000000E+00
  0.00000000E+00  0.00000000E+00  0.00000000E+00
  0.00000000E+00  0.00000000E+00  0.00000000E+00
  0.00000000E+00  0.00000000E+00  0.00000000E+00
  0.00000000E+00  0.00000000E+00  0.00000000E+00
  0.00000000E+00  0.00000000E+00  0.00000000E+00
  0.00000000E+00  0.00000000E+00  0.00000000E+00
  0.00000000E+00  0.00000000E+00  0.00000000E+00
  0.00000000E+00  0.00000000E+00  0.00000000E+00
  0.00000000E+00  0.00000000E+00  0.00000000E+00
  0.00000000E+00  0.00000000E+00  0.00000000E+00
  0.00000000E+00  0.00000000E+00  0.00000000E+00
  0.00000000E+00  0.00000000E+00  0.00000000E+00
  0.00000000E+00  0.00000000E+00  0.00000000E+00
  0.00000000E+00  0.00000000E+00  0.00000000E+00
  0.00000000E+00  0.00000000E+00  0.00000000E+00
  0.00000000E+00  0.00000000E+00  0.00000000E+00
  0.00000000E+00  0.00000000E+00  0.00000000E+00
  0.00000000E+00  0.00000000E+00  0.00000000E+00
  0.00000000E+00  0.00000000E+00  0.00000000E+00
  0.00000000E+00  0.00000000E+00  0.00000000E+00
  0.00000000E+00  0.00000000E+00  0.00000000E+00
  0.00000000E+00  0.00000000E+00  0.00000000E+00
  0.00000000E+00  0.00000000E+00  0.00000000E+00
  0.00000000E+00  0.00000000E+00  0.00000000E+00
  0.00000000E+00  0.00000000E+00  0.00000000E+00
  0.00000000E+00  0.00000000E+00  0.00000000E+00
  0.00000000E+00  0.00000000E+00  0.00000000E+00
  0.00000000E+00  0.00000000E+00  0.00000000E+00
  0.00000000E+00  0.00000000E+00  0.00000000E+00
  0.00000000E+00  0.00000000E+00  0.00000000E+00
  0.00000000E+00  0.00000000E+00  0.00000000E+00
  0.00000000E+00  0.00000000E+00  0.00000000E+00
  0.00000000E+00  0.00000000E+00  0.00000000E+00
  0.00000000E+00  0.00000000E+00  0.00000000E+00
  0.00000000E+00  0.00000000E+00  0.00000000E+00
  0.00000000E+00  0.00000000E+00  0.00000000E+00
  0.00000000E+00  0.00000000E+00  0.00000000E+00
  0.00000000E+00  0.00000000E+00  0.00000000E+00
  0.00000000E+00  0.00000000E+00  0.00000000E+00
  0.00000000E+00  0.00000000E+00  0.00000000E+00
  0.00000000E+00  0.00000000E+00  0.00000000E+00
  0.00000000E+00  0.00000000E+00  0.00000000E+00
  0.00000000E+00  0.00000000E+00  0.00000000E+00
  0.00000000E+00  0.00000000E+00  0.00000000E+00
  0.00000000E+00  0.00000000E+00  0.00000000E+00
  0.00000000E+00  0.00000000E+00  0.00000000E+00
  0.00000000E+00  0.00000000E+00  0.00000000E+00
  0.00000000E+00  0.00000000E+00  0.00000000E+00
  0.00000000E+00  0.00000000E+00  0.00000000E+00
  0.00000000E+00  0.00000000E+00  0.00000000E+00
  0.00000000E+00  0.00000000E+00  0.00000000E+00
  0.00000000E+00  0.00000000E+00  0.00000000E+00
  0.00000000E+00  0.00000000E+00  0.00000000E+00
  0.00000000E+00  0.00000000E+00  0.00000000E+00
  0.00000000E+00  0.00000000E+00  0.00000000E+00
  0.00000000E+00  0.00000000E+00  0.00000000E+00
  0.00000000E+00  0.00000000E+00  0.00000000E+00
  0.00000000E+00  0.00000000E+00  0.00000000E+00
  0.00000000E+00  0.00000000E+00  0.00000000E+00
  0.00000000E+00  0.00000000E+00  0.00000000E+00
  0.00000000E+00  0.00000000E+00  0.00000000E+00
  0.00000000E+00  0.00000000E+00  0.00000000E+00
  0.00000000E+00  0.00000000E+00  0.00000000E+00
  0.00000000E+00  0.00000000E+00  0.00000000E+00
  0.00000000E+00  0.00000000E+00  0.00000000E+00
  0.00000000E+00  0.00000000E+00  0.00000000E+00
  0.00000000E+00  0.00000000E+00  0.00000000E+00
