C                                       
   1.00000000000000     
    13.4769425578519186   -0.6821996340901563    0.0000000000000000
    -7.3276774283564761   11.7075584254729730    0.0000000000000000
     0.0000000000000000    0.0000000000000000   16.0000000000000000
  C             
   108
Direct
  0.2468168032612578  0.7663664393301232  0.5674791639971786
  0.1923954065372570  0.7008067027366178  0.4892223819813026
  0.2524350662247047  0.6805147767857300  0.6213396465526835
  0.1708427793305922  0.5943949290545619  0.4865217346296074
  0.1886363447021404  0.5543305605014842  0.5685828978148304
  0.3753038310225500  0.7220645460929966  0.6286032265040258
  0.3938854910802438  0.6249455739411541  0.6210522285862294
  0.3027651084086311  0.5639942042063385  0.5637556234856883
  0.4527825345857509  0.8312401233413058  0.5772707673558095
  0.3771849662439510  0.8642411616379041  0.5379076496088437
  0.3706802319213117  0.8741845694124816  0.4303569472334534
  0.5368584975776890  0.8414901416635242  0.5220177932119381
  0.5015820570923164  0.8167113000358803  0.4361435317562347
  0.4403941632687257  0.8394146702937855  0.3824711288411235
  0.5002669133181248  0.6347099368968998  0.5852280652722331
  0.2373785421747951  0.6792163350378055  0.3534534672407265
  0.2462776819875865  0.7594779810192649  0.4109722326100808
  0.3608610065478630  0.7232830737209608  0.3380912658556069
  0.3912439601282286  0.6436368275050588  0.3554433314215471
  0.4931327771434984  0.7050079142363281  0.4180539189988096
  0.4622585846900808  0.6007895868857784  0.4854214802687668
  0.1787014847416863  0.5591463496988482  0.3984571426535204
  0.2816928641674512  0.5385165110519584  0.3994525812369487
  0.3235192529086697  0.5234481231767664  0.4875914508031650
  0.6541147553556280  0.2201399171546899  0.6352145726966507
  0.5370598107860863  0.1818665867774951  0.5849551157733943
  0.7007120052048290  0.3364890556609388  0.6539338427835700
  0.5572765423129067  0.3064167391670526  0.5657641828980030
  0.6376563334832607  0.3907782132490848  0.6249247081504337
  0.8203048471564647  0.4213317590317281  0.6220810477378237
  0.8355216172286943  0.5253049372524768  0.5862702008238416
  0.7280920384182594  0.5187481433288812  0.6092613500774596
  0.8491725433349135  0.3662819393400395  0.5682674377586111
  0.7655311989393918  0.2330415344392841  0.5717741235757792
  0.6927861184257629  0.2021805379196417  0.4913038848892088
  0.9183897952114849  0.4374976212634488  0.4929328542355296
  0.8388963562707042  0.3795329544020908  0.4171697076631490
  0.7498051842156016  0.2483779790048411  0.4051197529601831
  0.8999209829040271  0.5439121641121648  0.5047235683880301
  0.5313911161100702  0.2037711599976847  0.4276735362116569
  0.5792626467480594  0.1727595865739499  0.4996668676315603
  0.6354143196208131  0.2506032510276910  0.3630889297010794
  0.6841802408343874  0.3705584894194142  0.3627144674665129
  0.8140071304200998  0.4490429565480851  0.3765407432710964
  0.8454379247978142  0.5467212597531678  0.4306849675775790
  0.5612200762512044  0.3213513978842819  0.4753461893930408
  0.6367241359000522  0.4165201587685753  0.4238724173614006
  0.7355681317063648  0.5483145431132008  0.4380313753169581
  0.3902746033382693  0.1071239571779621  0.4270149105925356
  0.3656967576310811  0.1331220855389381  0.5125943261729924
  0.2676207494247939  0.0869953048605018  0.3882115556928493
  0.2152079462112207  0.1410234207396238  0.4433577449987286
  0.2796885496776421  0.1551340052044576  0.5222815354900194
  0.1768128148786932  0.9659878963756963  0.3835386374029496
  0.0545532350838273  0.9184821987183150  0.4262704304373627
  0.0859962265701009  0.0332300998796874  0.4667582765983292
  0.2207044602403015  0.9065193337995373  0.4241232195091004
  0.1509977542378026  0.8379296171584394  0.4901503064132711
  0.0453812122326628  0.8357958165761495  0.4984105463270712
  0.3509016537601154  0.9753571771663312  0.4449708583676326
  0.3530576184889757  0.9619988514438373  0.5429330299678730
  0.2212845981445619  0.8627921226793931  0.5692770401455514
  0.3893574792186124  0.0794823069636554  0.5844236856172620
  0.2634888724018130  0.0386400410887615  0.6305387442410815
  0.1771582183443099  0.9186321472314765  0.6230915396992467
  0.0613546970829777  0.8924231537980278  0.5854854674056242
  0.0800777128806276  0.0110992129282607  0.5654473592393220
  0.2094455701028976  0.0991213063164601  0.5952996441083085
  0.0948877619747810  0.4108980535626705  0.5470968760023667
  0.0055886231419595  0.2855431961488598  0.5865273554235159
  0.0099603891720370  0.3973457279295150  0.4770737133347505
  0.9135503674128960  0.2706250253500896  0.4760844595728391
  0.8657377399190357  0.2061004729282653  0.5555111005300494
  0.0733144247270723  0.4175399823011614  0.3909025436924068
  0.9755323287479004  0.3000171215474323  0.3422619801004092
  0.8551165351211915  0.2224262672098530  0.3940936420142259
  0.1786304043428755  0.4021995805779036  0.4013017448787343
  0.1472470912647004  0.2879062032808966  0.3694798246525821
  0.0262111621634713  0.2316777690188558  0.3419895188516572
  0.1960861297176484  0.3975303557469446  0.4962238507370410
  0.1669642414604451  0.2820257982253861  0.5168427600037604
  0.1583394409199918  0.2164447138560234  0.4375647427147237
  0.0549356520108402  0.2218067782243647  0.5620823314518452
  0.9714124325649766  0.1160376981184788  0.5246014819776890
  0.0279196305862349  0.1030499689534277  0.4479273253251948
  0.9531477762529118  0.1211709445582014  0.3859766131301187
  0.8561116811772984  0.1177470632309247  0.4225922765282056
  0.8415938333272587  0.0854916120243381  0.5169072984897389
  0.6090961937272059  0.6251105743604207  0.5624671920247536
  0.7185601910301268  0.6212669599016067  0.5884989930430565
  0.5937052360207811  0.6276025752999641  0.4687190048531260
  0.7078958044630511  0.6403063077734328  0.4235496219351912
  0.7762965376255919  0.6446260675612462  0.5024995403970914
  0.6197716186543560  0.7487269682839173  0.4417784875983902
  0.7354291267824273  0.8191200849650349  0.4007055718406384
  0.7877158548472699  0.7602881869529845  0.3826483223306825
  0.6340940996716461  0.8243492276772342  0.5271784326085946
  0.7630309829654156  0.9458342914953662  0.5323889923729165
  0.8068346650514222  0.9169562928369184  0.4564252845663249
  0.6267345258810638  0.7419106602849622  0.5918260402685283
  0.7453664060207705  0.8025301478906300  0.6349835742071190
  0.8204128906871209  0.9192240763363181  0.6040112120143498
  0.8008236136878374  0.7405064973980302  0.6351620053253979
  0.9186603494158055  0.8180984143526405  0.5918207577806109
  0.9321714151454797  0.9347718684263805  0.5713688531955363
  0.8968940143207359  0.9114768073450740  0.4810596696450894
  0.9104579612010586  0.8323419929880940  0.4284437083707777
  0.9034886642722362  0.7564544875535850  0.5025646676769531
 
  0.00000000E+00  0.00000000E+00  0.00000000E+00
  0.00000000E+00  0.00000000E+00  0.00000000E+00
  0.00000000E+00  0.00000000E+00  0.00000000E+00
  0.00000000E+00  0.00000000E+00  0.00000000E+00
  0.00000000E+00  0.00000000E+00  0.00000000E+00
  0.00000000E+00  0.00000000E+00  0.00000000E+00
  0.00000000E+00  0.00000000E+00  0.00000000E+00
  0.00000000E+00  0.00000000E+00  0.00000000E+00
  0.00000000E+00  0.00000000E+00  0.00000000E+00
  0.00000000E+00  0.00000000E+00  0.00000000E+00
  0.00000000E+00  0.00000000E+00  0.00000000E+00
  0.00000000E+00  0.00000000E+00  0.00000000E+00
  0.00000000E+00  0.00000000E+00  0.00000000E+00
  0.00000000E+00  0.00000000E+00  0.00000000E+00
  0.00000000E+00  0.00000000E+00  0.00000000E+00
  0.00000000E+00  0.00000000E+00  0.00000000E+00
  0.00000000E+00  0.00000000E+00  0.00000000E+00
  0.00000000E+00  0.00000000E+00  0.00000000E+00
  0.00000000E+00  0.00000000E+00  0.00000000E+00
  0.00000000E+00  0.00000000E+00  0.00000000E+00
  0.00000000E+00  0.00000000E+00  0.00000000E+00
  0.00000000E+00  0.00000000E+00  0.00000000E+00
  0.00000000E+00  0.00000000E+00  0.00000000E+00
  0.00000000E+00  0.00000000E+00  0.00000000E+00
  0.00000000E+00  0.00000000E+00  0.00000000E+00
  0.00000000E+00  0.00000000E+00  0.00000000E+00
  0.00000000E+00  0.00000000E+00  0.00000000E+00
  0.00000000E+00  0.00000000E+00  0.00000000E+00
  0.00000000E+00  0.00000000E+00  0.00000000E+00
  0.00000000E+00  0.00000000E+00  0.00000000E+00
  0.00000000E+00  0.00000000E+00  0.00000000E+00
  0.00000000E+00  0.00000000E+00  0.00000000E+00
  0.00000000E+00  0.00000000E+00  0.00000000E+00
  0.00000000E+00  0.00000000E+00  0.00000000E+00
  0.00000000E+00  0.00000000E+00  0.00000000E+00
  0.00000000E+00  0.00000000E+00  0.00000000E+00
  0.00000000E+00  0.00000000E+00  0.00000000E+00
  0.00000000E+00  0.00000000E+00  0.00000000E+00
  0.00000000E+00  0.00000000E+00  0.00000000E+00
  0.00000000E+00  0.00000000E+00  0.00000000E+00
  0.00000000E+00  0.00000000E+00  0.00000000E+00
  0.00000000E+00  0.00000000E+00  0.00000000E+00
  0.00000000E+00  0.00000000E+00  0.00000000E+00
  0.00000000E+00  0.00000000E+00  0.00000000E+00
  0.00000000E+00  0.00000000E+00  0.00000000E+00
  0.00000000E+00  0.00000000E+00  0.00000000E+00
  0.00000000E+00  0.00000000E+00  0.00000000E+00
  0.00000000E+00  0.00000000E+00  0.00000000E+00
  0.00000000E+00  0.00000000E+00  0.00000000E+00
  0.00000000E+00  0.00000000E+00  0.00000000E+00
  0.00000000E+00  0.00000000E+00  0.00000000E+00
  0.00000000E+00  0.00000000E+00  0.00000000E+00
  0.00000000E+00  0.00000000E+00  0.00000000E+00
  0.00000000E+00  0.00000000E+00  0.00000000E+00
  0.00000000E+00  0.00000000E+00  0.00000000E+00
  0.00000000E+00  0.00000000E+00  0.00000000E+00
  0.00000000E+00  0.00000000E+00  0.00000000E+00
  0.00000000E+00  0.00000000E+00  0.00000000E+00
  0.00000000E+00  0.00000000E+00  0.00000000E+00
  0.00000000E+00  0.00000000E+00  0.00000000E+00
  0.00000000E+00  0.00000000E+00  0.00000000E+00
  0.00000000E+00  0.00000000E+00  0.00000000E+00
  0.00000000E+00  0.00000000E+00  0.00000000E+00
  0.00000000E+00  0.00000000E+00  0.00000000E+00
  0.00000000E+00  0.00000000E+00  0.00000000E+00
  0.00000000E+00  0.00000000E+00  0.00000000E+00
  0.00000000E+00  0.00000000E+00  0.00000000E+00
  0.00000000E+00  0.00000000E+00  0.00000000E+00
  0.00000000E+00  0.00000000E+00  0.00000000E+00
  0.00000000E+00  0.00000000E+00  0.00000000E+00
  0.00000000E+00  0.00000000E+00  0.00000000E+00
  0.00000000E+00  0.00000000E+00  0.00000000E+00
  0.00000000E+00  0.00000000E+00  0.00000000E+00
  0.00000000E+00  0.00000000E+00  0.00000000E+00
  0.00000000E+00  0.00000000E+00  0.00000000E+00
  0.00000000E+00  0.00000000E+00  0.00000000E+00
  0.00000000E+00  0.00000000E+00  0.00000000E+00
  0.00000000E+00  0.00000000E+00  0.00000000E+00
  0.00000000E+00  0.00000000E+00  0.00000000E+00
  0.00000000E+00  0.00000000E+00  0.00000000E+00
  0.00000000E+00  0.00000000E+00  0.00000000E+00
  0.00000000E+00  0.00000000E+00  0.00000000E+00
  0.00000000E+00  0.00000000E+00  0.00000000E+00
  0.00000000E+00  0.00000000E+00  0.00000000E+00
  0.00000000E+00  0.00000000E+00  0.00000000E+00
  0.00000000E+00  0.00000000E+00  0.00000000E+00
  0.00000000E+00  0.00000000E+00  0.00000000E+00
  0.00000000E+00  0.00000000E+00  0.00000000E+00
  0.00000000E+00  0.00000000E+00  0.00000000E+00
  0.00000000E+00  0.00000000E+00  0.00000000E+00
  0.00000000E+00  0.00000000E+00  0.00000000E+00
  0.00000000E+00  0.00000000E+00  0.00000000E+00
  0.00000000E+00  0.00000000E+00  0.00000000E+00
  0.00000000E+00  0.00000000E+00  0.00000000E+00
  0.00000000E+00  0.00000000E+00  0.00000000E+00
  0.00000000E+00  0.00000000E+00  0.00000000E+00
  0.00000000E+00  0.00000000E+00  0.00000000E+00
  0.00000000E+00  0.00000000E+00  0.00000000E+00
  0.00000000E+00  0.00000000E+00  0.00000000E+00
  0.00000000E+00  0.00000000E+00  0.00000000E+00
  0.00000000E+00  0.00000000E+00  0.00000000E+00
  0.00000000E+00  0.00000000E+00  0.00000000E+00
  0.00000000E+00  0.00000000E+00  0.00000000E+00
  0.00000000E+00  0.00000000E+00  0.00000000E+00
  0.00000000E+00  0.00000000E+00  0.00000000E+00
  0.00000000E+00  0.00000000E+00  0.00000000E+00
  0.00000000E+00  0.00000000E+00  0.00000000E+00
  0.00000000E+00  0.00000000E+00  0.00000000E+00
