Generated by VASPKIT code               
   1.00000000000000     
    16.1483920906983265    0.3309085327027549    0.0000000000000000
     0.3543099713632176   17.1011874015237737    0.0000000000000000
     0.0000000000000012    0.0000000000000013   19.7103223811538264
   C 
   168
Direct
  0.5201930074051546  0.9509437865005381  0.6294587108444034
  0.9842501030073763  0.5721644680154654  0.5887364848508696
  0.4443966325265052  0.9932716259119374  0.6306704596781927
  0.9563912975489330  0.4961460806514495  0.5949593283224601
  0.5153264370440453  0.8849951583517139  0.5819585597285979
  0.0693635039194120  0.5662204310149832  0.5632617992992976
  0.3971525167806291  0.9605847106211982  0.5727622074367886
  0.0214496332214651  0.4413159931838493  0.5677329094568933
  0.4432272272715991  0.8927219621901372  0.5449697479903008
  0.0899831137705931  0.4881399798634050  0.5495985565861758
  0.5880934213348965  0.8800225003387396  0.5366757176378059
  0.0883777628806541  0.6181908922092134  0.5044585072911616
  0.5525130691918960  0.8593574373047446  0.4650053255624869
  0.1453102942356139  0.5648563780804992  0.4566704198743210
  0.4505888063874934  0.8736900739364657  0.4677370544815247
  0.1411935395553954  0.4689572684754992  0.4879084222326213
  0.6131386070258316  0.9628961966817400  0.5394050525124783
  0.0020031537274789  0.6235374032355168  0.4766072179249221
  0.5805276554350129  0.0019842536893222  0.5977754988621626
  0.9339926369167486  0.6113100343394748  0.5288441345908339
  0.5399621628046987  0.0772029490294912  0.5861550671973461
  0.8852963336717039  0.5429189641068319  0.5070992868444364
  0.6180967824552184  0.9891834902831960  0.4721584244737329
  0.0028615840447799  0.5980524836469314  0.4106231144898516
  0.5790555085420053  0.0643761158187672  0.4606017775443618
  0.9376615253343559  0.5480841163600516  0.3883780618014114
  0.5525133949105694  0.1201751581632564  0.5198514951466180
  0.8634215556682037  0.5302583995531833  0.4342839867150872
  0.5802118731050570  0.9314129242493081  0.4270551019840596
  0.0867563469822770  0.5617723894398097  0.3959603382705481
  0.3959702046217828  0.1017239212624688  0.5570155690935366
  0.8906065126787013  0.4049678122283353  0.5149926577675004
  0.4584411571005660  0.0737628112654676  0.6091358647258431
  0.8843941039914966  0.4822386904697424  0.5528617610705808
  0.4570793796575927  0.1306418723420677  0.5018948181840770
  0.8747231829318523  0.4357473485688033  0.4406044077488360
  0.4445999771414080  0.0862633023518526  0.4442644843243215
  0.9461102648717059  0.4171655807304617  0.4052657339736783
  0.5197369079707741  0.0591903037389301  0.4096658792879779
  0.9770029047601838  0.4802149144788785  0.3645232072121729
  0.5138351996617700  0.9748873813705785  0.3975096116464272
  0.0667239230875012  0.4864383692553815  0.3776898932060462
  0.3734607127638725  0.0210158932406728  0.5285762183062417
  0.9858855796298656  0.3947442799297676  0.5177707837857000
  0.3969006887160873  0.0172111083750437  0.4577848468990098
  0.0166642376832229  0.3918015477953531  0.4494691239087345
  0.4393331291400315  0.9511323609005942  0.4295091880431343
  0.0856549972654008  0.4349459550750367  0.4328095653489186
  0.5667399621501659  0.3687461155937584  0.4285271859369431
  0.9337354737881967  0.1139666327178404  0.5259202720059264
  0.6861921557228001  0.2433913161747085  0.6234474847185467
  0.3202498979514630  0.7635107473261442  0.5494274527020835
  0.7247423298601277  0.6316919588971786  0.5478450040890195
  0.2373038078489245  0.3406175586514166  0.6253193209851560
  0.6095652602419435  0.4452045098005186  0.4475529947954158
  0.9709052464034755  0.0957126637042691  0.5973208462270136
  0.7329211421669015  0.3122964237652610  0.6179883701335669
  0.2619024754745496  0.7022110191022648  0.5516939814558839
  0.6543200941768248  0.6899171447043813  0.5525201014788053
  0.3021286389327287  0.2820010278940259  0.6360127884993361
  0.5232113383712615  0.4023022304896315  0.3631444966674451
  0.9070342458104150  0.0282539952350334  0.5105648491226660
  0.7419280769434522  0.1798770554956519  0.6051627659268135
  0.2709262796352974  0.8376884275655669  0.5411300361508538
  0.7964147367849748  0.6707279951750209  0.5758094081102954
  0.1674213958669242  0.2989985031209486  0.6035458523414121
  0.5551154984407844  0.4799570135540847  0.3451772139889684
  0.9095191644459035  0.9798513543841310  0.5684100672109835
  0.8254333358021952  0.2086910784166562  0.5905250222095972
  0.1769696950155151  0.8258302140964204  0.5427698862678980
  0.7679849323692878  0.7512260211544870  0.5878174832397320
  0.1871689457892813  0.2139044260969811  0.6023725578058290
  0.6094914626644226  0.5024683481597592  0.3969342901897051
  0.9463032677327732  0.0198190537840901  0.6241015366985962
  0.8179482961546185  0.2898110311953914  0.5957542892859067
  0.1799019299951041  0.7354968495013310  0.5484586945057970
  0.6817982194804273  0.7607416557047415  0.5798973814747796
  0.2706285146783500  0.2041645861489627  0.6196795225825937
  0.4376817891935616  0.4146621675977116  0.3708047227319895
  0.9607975994788163  0.9887326103429501  0.4617122499857587
  0.7118221365685713  0.1420616743766843  0.5464417681637883
  0.2953045491310036  0.8641157011579637  0.4778005477276821
  0.8735173618693892  0.6749899321404271  0.5402774845066247
  0.1443965453355034  0.3235969116235466  0.5373079626182005
  0.4159460722701240  0.4983588048290457  0.3581917008668967
  0.9912302946382923  0.9135950602596807  0.4854634068973027
  0.7716493947648502  0.1453784304915260  0.4950044276034973
  0.2278435007801392  0.8636747654821377  0.4314940696366136
  0.8622412769915186  0.7470288462966650  0.5027400235100572
  0.1470629400560028  0.2590139644671581  0.4934644829299302
  0.4887922814485393  0.5391467141083339  0.3441212868422312
  0.9603529229935859  0.9067633904116335  0.5539081283611793
  0.8571348116596980  0.1778665057376543  0.5211925318444415
  0.1479432330337715  0.8404792541163175  0.4659021573010449
  0.8122235985270905  0.8022361133163898  0.5433624231494889
  0.1643174953556681  0.1801541859850033  0.5327446352732750
  0.4059952111751599  0.3930632522899984  0.4405500394680573
  0.0288897225905060  0.0387950255800860  0.4517877861623134
  0.6232160910313596  0.1777180358510648  0.5234314178095119
  0.3769324081029950  0.8188761031436300  0.4520902330145802
  0.7931916994502330  0.5905136919883773  0.4342301214079001
  0.1971831887203521  0.3950853149711193  0.5094134569771711
  0.3847269829139250  0.4751517299547885  0.4680520763257405
  0.1037610429044662  0.9922689525154524  0.4674755921788858
  0.6483040907543014  0.2168423744272374  0.4563425960689074
  0.3351388502050412  0.7803553793105564  0.3880584231642814
  0.7882535301860614  0.6730469809712858  0.4087763574273353
  0.2455739673490029  0.3505334164950824  0.4536131408969126
  0.3817388823813275  0.5325797229596247  0.4187859753600520
  0.0855902139583975  0.9072656282360327  0.4850738651090154
  0.7322999526772449  0.1952945789184852  0.4434560653542903
  0.2508652826836126  0.8098519714663155  0.3809005142596718
  0.8248812875913387  0.7435906945433715  0.4356115329079273
  0.2133739300081743  0.2755988254740913  0.4466631161220747
  0.4905747660225899  0.3758613135301587  0.4760796295218697
  0.0205002276657353  0.1107791868208068  0.4872449326784505
  0.6207261738924217  0.2472163667674820  0.5711048458275627
  0.3789188205844525  0.7484318950815378  0.4994916063530539
  0.7239666204894561  0.6011404733189565  0.4811673839513944
  0.2599266947980396  0.3913500309785292  0.5679392159645502
  0.5029884747307065  0.4362528124954750  0.5238842382058664
  0.0999085037999947  0.1146244806425116  0.5337912641679807
  0.6246037959946591  0.3160412538285087  0.5358541913843737
  0.3635761815696412  0.6705874725393954  0.4638653868723281
  0.6490669313665762  0.6411191499432718  0.4415113828949373
  0.3362625604189446  0.3647634190450759  0.5451771704413915
  0.4364313461587486  0.4945298555244619  0.5232931157476060
  0.1402224249390471  0.0306319508976358  0.5219183589314014
  0.6328350998304657  0.3062988974167595  0.4568845894128728
  0.3231882846949361  0.7003455519861816  0.4002350642546020
  0.7004537512046127  0.6933360181677344  0.3986308642096219
  0.3390462208806895  0.3438382598263772  0.4683435740521062
  0.5778941793817225  0.4764505596050270  0.5094729394325341
  0.0570051394886306  0.0968427217899190  0.6007876115029731
  0.6945689870159413  0.3568191429934942  0.5639327025561869
  0.2841302949843012  0.6440267869173795  0.5029104745494521
  0.6125444552226469  0.7012069918566723  0.4909802212757555
  0.3637024044339086  0.2980894133822716  0.5861247484398504
  0.5538682706457863  0.5568519835006853  0.4956378134775079
  0.0873323821695422  0.0207130858585032  0.6286436240570481
  0.7516084591621421  0.3612151278348676  0.5102957221554192
  0.2119363184684389  0.6297962897993230  0.4568665915048200
  0.6146565600682408  0.7850803064969298  0.4659072496122363
  0.3701773321841557  0.2351765966136128  0.5400911997010382
  0.4703631895894276  0.5689118663309998  0.5055538513149216
  0.1396541001075988  0.9815783154105517  0.5803346418234909
  0.7246451686882693  0.3297184843239549  0.4495738374157199
  0.2409806001815227  0.6735513837136011  0.3943333857222271
  0.6824793019913216  0.7720771823101842  0.4134731679514303
  0.3511106768912313  0.2559475504383357  0.4734359473063066
  0.4270571603326374  0.6049327630453476  0.4446597648643618
  0.1117942676452088  0.8980054287438719  0.5643954153724451
  0.7821679455536668  0.2628936773681403  0.4382548275200335
  0.1923336566470368  0.7443107771120836  0.3857717337250364
  0.7577005948370754  0.8047839674455659  0.4356166811307460
  0.2772375626793817  0.2153225912168182  0.4569246416990964
  0.5005089275291823  0.6036326520352873  0.3913958095176611
  0.0269423594408735  0.9037760673881365  0.6002391315059796
  0.8506442954386984  0.2587173887911831  0.4825651324032023
  0.1352745587076569  0.7581895157323899  0.4384507455017825
  0.7477109219459166  0.8369837412375887  0.5010588849237436
  0.2548853437229681  0.1619679789907309  0.5072593982990767
  0.5846540757531997  0.5833026177614968  0.4262921165277902
  0.0185408721431415  0.9735281189977059  0.6435395860371713
  0.8395408045136463  0.3324753857354139  0.5295058080647337
  0.1405214732978237  0.6922713589193350  0.4917486509043059
  0.6607803052360808  0.8234397620493894  0.5295114841158579
  0.3233376650010626  0.1640632813681009  0.5630924418410785
 
  0.00000000E+00  0.00000000E+00  0.00000000E+00
  0.00000000E+00  0.00000000E+00  0.00000000E+00
  0.00000000E+00  0.00000000E+00  0.00000000E+00
  0.00000000E+00  0.00000000E+00  0.00000000E+00
  0.00000000E+00  0.00000000E+00  0.00000000E+00
  0.00000000E+00  0.00000000E+00  0.00000000E+00
  0.00000000E+00  0.00000000E+00  0.00000000E+00
  0.00000000E+00  0.00000000E+00  0.00000000E+00
  0.00000000E+00  0.00000000E+00  0.00000000E+00
  0.00000000E+00  0.00000000E+00  0.00000000E+00
  0.00000000E+00  0.00000000E+00  0.00000000E+00
  0.00000000E+00  0.00000000E+00  0.00000000E+00
  0.00000000E+00  0.00000000E+00  0.00000000E+00
  0.00000000E+00  0.00000000E+00  0.00000000E+00
  0.00000000E+00  0.00000000E+00  0.00000000E+00
  0.00000000E+00  0.00000000E+00  0.00000000E+00
  0.00000000E+00  0.00000000E+00  0.00000000E+00
  0.00000000E+00  0.00000000E+00  0.00000000E+00
  0.00000000E+00  0.00000000E+00  0.00000000E+00
  0.00000000E+00  0.00000000E+00  0.00000000E+00
  0.00000000E+00  0.00000000E+00  0.00000000E+00
  0.00000000E+00  0.00000000E+00  0.00000000E+00
  0.00000000E+00  0.00000000E+00  0.00000000E+00
  0.00000000E+00  0.00000000E+00  0.00000000E+00
  0.00000000E+00  0.00000000E+00  0.00000000E+00
  0.00000000E+00  0.00000000E+00  0.00000000E+00
  0.00000000E+00  0.00000000E+00  0.00000000E+00
  0.00000000E+00  0.00000000E+00  0.00000000E+00
  0.00000000E+00  0.00000000E+00  0.00000000E+00
  0.00000000E+00  0.00000000E+00  0.00000000E+00
  0.00000000E+00  0.00000000E+00  0.00000000E+00
  0.00000000E+00  0.00000000E+00  0.00000000E+00
  0.00000000E+00  0.00000000E+00  0.00000000E+00
  0.00000000E+00  0.00000000E+00  0.00000000E+00
  0.00000000E+00  0.00000000E+00  0.00000000E+00
  0.00000000E+00  0.00000000E+00  0.00000000E+00
  0.00000000E+00  0.00000000E+00  0.00000000E+00
  0.00000000E+00  0.00000000E+00  0.00000000E+00
  0.00000000E+00  0.00000000E+00  0.00000000E+00
  0.00000000E+00  0.00000000E+00  0.00000000E+00
  0.00000000E+00  0.00000000E+00  0.00000000E+00
  0.00000000E+00  0.00000000E+00  0.00000000E+00
  0.00000000E+00  0.00000000E+00  0.00000000E+00
  0.00000000E+00  0.00000000E+00  0.00000000E+00
  0.00000000E+00  0.00000000E+00  0.00000000E+00
  0.00000000E+00  0.00000000E+00  0.00000000E+00
  0.00000000E+00  0.00000000E+00  0.00000000E+00
  0.00000000E+00  0.00000000E+00  0.00000000E+00
  0.00000000E+00  0.00000000E+00  0.00000000E+00
  0.00000000E+00  0.00000000E+00  0.00000000E+00
  0.00000000E+00  0.00000000E+00  0.00000000E+00
  0.00000000E+00  0.00000000E+00  0.00000000E+00
  0.00000000E+00  0.00000000E+00  0.00000000E+00
  0.00000000E+00  0.00000000E+00  0.00000000E+00
  0.00000000E+00  0.00000000E+00  0.00000000E+00
  0.00000000E+00  0.00000000E+00  0.00000000E+00
  0.00000000E+00  0.00000000E+00  0.00000000E+00
  0.00000000E+00  0.00000000E+00  0.00000000E+00
  0.00000000E+00  0.00000000E+00  0.00000000E+00
  0.00000000E+00  0.00000000E+00  0.00000000E+00
  0.00000000E+00  0.00000000E+00  0.00000000E+00
  0.00000000E+00  0.00000000E+00  0.00000000E+00
  0.00000000E+00  0.00000000E+00  0.00000000E+00
  0.00000000E+00  0.00000000E+00  0.00000000E+00
  0.00000000E+00  0.00000000E+00  0.00000000E+00
  0.00000000E+00  0.00000000E+00  0.00000000E+00
  0.00000000E+00  0.00000000E+00  0.00000000E+00
  0.00000000E+00  0.00000000E+00  0.00000000E+00
  0.00000000E+00  0.00000000E+00  0.00000000E+00
  0.00000000E+00  0.00000000E+00  0.00000000E+00
  0.00000000E+00  0.00000000E+00  0.00000000E+00
  0.00000000E+00  0.00000000E+00  0.00000000E+00
  0.00000000E+00  0.00000000E+00  0.00000000E+00
  0.00000000E+00  0.00000000E+00  0.00000000E+00
  0.00000000E+00  0.00000000E+00  0.00000000E+00
  0.00000000E+00  0.00000000E+00  0.00000000E+00
  0.00000000E+00  0.00000000E+00  0.00000000E+00
  0.00000000E+00  0.00000000E+00  0.00000000E+00
  0.00000000E+00  0.00000000E+00  0.00000000E+00
  0.00000000E+00  0.00000000E+00  0.00000000E+00
  0.00000000E+00  0.00000000E+00  0.00000000E+00
  0.00000000E+00  0.00000000E+00  0.00000000E+00
  0.00000000E+00  0.00000000E+00  0.00000000E+00
  0.00000000E+00  0.00000000E+00  0.00000000E+00
  0.00000000E+00  0.00000000E+00  0.00000000E+00
  0.00000000E+00  0.00000000E+00  0.00000000E+00
  0.00000000E+00  0.00000000E+00  0.00000000E+00
  0.00000000E+00  0.00000000E+00  0.00000000E+00
  0.00000000E+00  0.00000000E+00  0.00000000E+00
  0.00000000E+00  0.00000000E+00  0.00000000E+00
  0.00000000E+00  0.00000000E+00  0.00000000E+00
  0.00000000E+00  0.00000000E+00  0.00000000E+00
  0.00000000E+00  0.00000000E+00  0.00000000E+00
  0.00000000E+00  0.00000000E+00  0.00000000E+00
  0.00000000E+00  0.00000000E+00  0.00000000E+00
  0.00000000E+00  0.00000000E+00  0.00000000E+00
  0.00000000E+00  0.00000000E+00  0.00000000E+00
  0.00000000E+00  0.00000000E+00  0.00000000E+00
  0.00000000E+00  0.00000000E+00  0.00000000E+00
  0.00000000E+00  0.00000000E+00  0.00000000E+00
  0.00000000E+00  0.00000000E+00  0.00000000E+00
  0.00000000E+00  0.00000000E+00  0.00000000E+00
  0.00000000E+00  0.00000000E+00  0.00000000E+00
  0.00000000E+00  0.00000000E+00  0.00000000E+00
  0.00000000E+00  0.00000000E+00  0.00000000E+00
  0.00000000E+00  0.00000000E+00  0.00000000E+00
  0.00000000E+00  0.00000000E+00  0.00000000E+00
  0.00000000E+00  0.00000000E+00  0.00000000E+00
  0.00000000E+00  0.00000000E+00  0.00000000E+00
  0.00000000E+00  0.00000000E+00  0.00000000E+00
  0.00000000E+00  0.00000000E+00  0.00000000E+00
  0.00000000E+00  0.00000000E+00  0.00000000E+00
  0.00000000E+00  0.00000000E+00  0.00000000E+00
  0.00000000E+00  0.00000000E+00  0.00000000E+00
  0.00000000E+00  0.00000000E+00  0.00000000E+00
  0.00000000E+00  0.00000000E+00  0.00000000E+00
  0.00000000E+00  0.00000000E+00  0.00000000E+00
  0.00000000E+00  0.00000000E+00  0.00000000E+00
  0.00000000E+00  0.00000000E+00  0.00000000E+00
  0.00000000E+00  0.00000000E+00  0.00000000E+00
  0.00000000E+00  0.00000000E+00  0.00000000E+00
  0.00000000E+00  0.00000000E+00  0.00000000E+00
  0.00000000E+00  0.00000000E+00  0.00000000E+00
  0.00000000E+00  0.00000000E+00  0.00000000E+00
  0.00000000E+00  0.00000000E+00  0.00000000E+00
  0.00000000E+00  0.00000000E+00  0.00000000E+00
  0.00000000E+00  0.00000000E+00  0.00000000E+00
  0.00000000E+00  0.00000000E+00  0.00000000E+00
  0.00000000E+00  0.00000000E+00  0.00000000E+00
  0.00000000E+00  0.00000000E+00  0.00000000E+00
  0.00000000E+00  0.00000000E+00  0.00000000E+00
  0.00000000E+00  0.00000000E+00  0.00000000E+00
  0.00000000E+00  0.00000000E+00  0.00000000E+00
  0.00000000E+00  0.00000000E+00  0.00000000E+00
  0.00000000E+00  0.00000000E+00  0.00000000E+00
  0.00000000E+00  0.00000000E+00  0.00000000E+00
  0.00000000E+00  0.00000000E+00  0.00000000E+00
  0.00000000E+00  0.00000000E+00  0.00000000E+00
  0.00000000E+00  0.00000000E+00  0.00000000E+00
  0.00000000E+00  0.00000000E+00  0.00000000E+00
  0.00000000E+00  0.00000000E+00  0.00000000E+00
  0.00000000E+00  0.00000000E+00  0.00000000E+00
  0.00000000E+00  0.00000000E+00  0.00000000E+00
  0.00000000E+00  0.00000000E+00  0.00000000E+00
  0.00000000E+00  0.00000000E+00  0.00000000E+00
  0.00000000E+00  0.00000000E+00  0.00000000E+00
  0.00000000E+00  0.00000000E+00  0.00000000E+00
  0.00000000E+00  0.00000000E+00  0.00000000E+00
  0.00000000E+00  0.00000000E+00  0.00000000E+00
  0.00000000E+00  0.00000000E+00  0.00000000E+00
  0.00000000E+00  0.00000000E+00  0.00000000E+00
  0.00000000E+00  0.00000000E+00  0.00000000E+00
  0.00000000E+00  0.00000000E+00  0.00000000E+00
  0.00000000E+00  0.00000000E+00  0.00000000E+00
  0.00000000E+00  0.00000000E+00  0.00000000E+00
  0.00000000E+00  0.00000000E+00  0.00000000E+00
  0.00000000E+00  0.00000000E+00  0.00000000E+00
  0.00000000E+00  0.00000000E+00  0.00000000E+00
  0.00000000E+00  0.00000000E+00  0.00000000E+00
  0.00000000E+00  0.00000000E+00  0.00000000E+00
  0.00000000E+00  0.00000000E+00  0.00000000E+00
  0.00000000E+00  0.00000000E+00  0.00000000E+00
  0.00000000E+00  0.00000000E+00  0.00000000E+00
  0.00000000E+00  0.00000000E+00  0.00000000E+00
  0.00000000E+00  0.00000000E+00  0.00000000E+00
  0.00000000E+00  0.00000000E+00  0.00000000E+00
  0.00000000E+00  0.00000000E+00  0.00000000E+00
  0.00000000E+00  0.00000000E+00  0.00000000E+00
