Generated by VASPKIT code               
   1.00000000000000     
    16.1483920906983265    0.3309085327027549    0.0000000000000000
     0.3543099713632176   17.1011874015237737    0.0000000000000000
     0.0000000000000012    0.0000000000000013   19.7103223811538264
  C             
   168
Direct
  0.5201930074051546  0.9509437865005398  0.6294587108444061
  0.9842501030073767  0.5721644680154655  0.5887364848508669
  0.4443966325265046  0.9932716259119364  0.6306704596781895
  0.9563912975489318  0.4961460806514494  0.5949593283224588
  0.5153264370440441  0.8849951583517148  0.5819585597286009
  0.0693635039194086  0.5662204310149797  0.5632617992992972
  0.3971525167806320  0.9605847106211992  0.5727622074367896
  0.0214496332214634  0.4413159931838508  0.5677329094568954
  0.4432272272716025  0.8927219621901396  0.5449697479902980
  0.0899831137705929  0.4881399798634065  0.5495985565861730
  0.5880934213348962  0.8800225003387394  0.5366757176378041
  0.0883777628806536  0.6181908922092142  0.5044585072911594
  0.5525130691918930  0.8593574373047471  0.4650053255624882
  0.1453102942356136  0.5648563780805012  0.4566704198743212
  0.4505888063874947  0.8736900739364624  0.4677370544815228
  0.1411935395553976  0.4689572684754981  0.4879084222326237
  0.6131386070258319  0.9628961966817369  0.5394050525124791
  0.0020031537274822  0.6235374032355194  0.4766072179249206
  0.5805276554350124  0.0019842536893200  0.5977754988621652
  0.9339926369167459  0.6113100343394755  0.5288441345908307
  0.5399621628046966  0.0772029490294912  0.5861550671973487
  0.8852963336717015  0.5429189641068337  0.5070992868444365
  0.6180967824552198  0.9891834902831986  0.4721584244737316
  0.0028615840447767  0.5980524836469336  0.4106231144898520
  0.5790555085420087  0.0643761158187642  0.4606017775443620
  0.9376615253343534  0.5480841163600511  0.3883780618014116
  0.5525133949105705  0.1201751581632540  0.5198514951466183
  0.8634215556682051  0.5302583995531823  0.4342839867150906
  0.5802118731050564  0.9314129242493097  0.4270551019840580
  0.0867563469822797  0.5617723894398130  0.3959603382705468
  0.3959702046217806  0.1017239212624654  0.5570155690935381
  0.8906065126786981  0.4049678122283358  0.5149926577675038
  0.4584411571005663  0.0737628112654656  0.6091358647258444
  0.8843941039914960  0.4822386904697403  0.5528617610705805
  0.4570793796575957  0.1306418723420673  0.5018948181840738
  0.8747231829318557  0.4357473485688040  0.4406044077488367
  0.4445999771414045  0.0862633023518499  0.4442644843243184
  0.9461102648717068  0.4171655807304623  0.4052657339736769
  0.5197369079707767  0.0591903037389319  0.4096658792879803
  0.9770029047601856  0.4802149144788752  0.3645232072121732
  0.5138351996617720  0.9748873813705757  0.3975096116464301
  0.0667239230875016  0.4864383692553814  0.3776898932060476
  0.3734607127638700  0.0210158932406706  0.5285762183062452
  0.9858855796298654  0.3947442799297675  0.5177707837857002
  0.3969006887160838  0.0172111083750444  0.4577848468990088
  0.0166642376832263  0.3918015477953503  0.4494691239087359
  0.4393331291400300  0.9511323609005974  0.4295091880431336
  0.0856549972653973  0.4349459550750344  0.4328095653489169
  0.5667399621501673  0.3687461155937576  0.4285271859369416
  0.9337354737881989  0.1139666327178400  0.5259202720059235
  0.6861921557228020  0.2433913161747120  0.6234474847185492
  0.3202498979514621  0.7635107473261457  0.5494274527020836
  0.7247423298601264  0.6316919588971784  0.5478450040890166
  0.2373038078489278  0.3406175586514152  0.6253193209851546
  0.6095652602419435  0.4452045098005177  0.4475529947954148
  0.9709052464034740  0.0957126637042664  0.5973208462270140
  0.7329211421669029  0.3122964237652596  0.6179883701335643
  0.2619024754745481  0.7022110191022628  0.5516939814558829
  0.6543200941768245  0.6899171447043785  0.5525201014788043
  0.3021286389327305  0.2820010278940280  0.6360127884993367
  0.5232113383712621  0.4023022304896310  0.3631444966674436
  0.9070342458104130  0.0282539952350301  0.5105648491226690
  0.7419280769434492  0.1798770554956507  0.6051627659268133
  0.2709262796353003  0.8376884275655664  0.5411300361508524
  0.7964147367849747  0.6707279951750209  0.5758094081102938
  0.1674213958669256  0.2989985031209504  0.6035458523414146
  0.5551154984407858  0.4799570135540874  0.3451772139889681
  0.9095191644459043  0.9798513543841293  0.5684100672109822
  0.8254333358021940  0.2086910784166544  0.5905250222095988
  0.1769696950155174  0.8258302140964201  0.5427698862679005
  0.7679849323692906  0.7512260211544862  0.5878174832397324
  0.1871689457892827  0.2139044260969825  0.6023725578058282
  0.6094914626644230  0.5024683481597603  0.3969342901897083
  0.9463032677327706  0.0198190537840868  0.6241015366985948
  0.8179482961546199  0.2898110311953945  0.5957542892859059
  0.1799019299951033  0.7354968495013317  0.5484586945057974
  0.6817982194804294  0.7607416557047428  0.5798973814747761
  0.2706285146783511  0.2041645861489647  0.6196795225825950
  0.4376817891935607  0.4146621675977131  0.3708047227319917
  0.9607975994788190  0.9887326103429505  0.4617122499857563
  0.7118221365685745  0.1420616743766870  0.5464417681637862
  0.2953045491310023  0.8641157011579640  0.4778005477276793
  0.8735173618693869  0.6749899321404245  0.5402774845066279
  0.1443965453355036  0.3235969116235479  0.5373079626181997
  0.4159460722701271  0.4983588048290453  0.3581917008668944
  0.9912302946382949  0.9135950602596773  0.4854634068973052
  0.7716493947648477  0.1453784304915239  0.4950044276034954
  0.2278435007801373  0.8636747654821393  0.4314940696366123
  0.8622412769915216  0.7470288462966618  0.5027400235100556
  0.1470629400560035  0.2590139644671602  0.4934644829299311
  0.4887922814485424  0.5391467141083339  0.3441212868422277
  0.9603529229935890  0.9067633904116347  0.5539081283611809
  0.8571348116596996  0.1778665057376554  0.5211925318444420
  0.1479432330337719  0.8404792541163190  0.4659021573010455
  0.8122235985270925  0.8022361133163904  0.5433624231494900
  0.1643174953556711  0.1801541859850037  0.5327446352732762
  0.4059952111751587  0.3930632522899999  0.4405500394680571
  0.0288897225905048  0.0387950255800872  0.4517877861623105
  0.6232160910313579  0.1777180358510653  0.5234314178095132
  0.3769324081029956  0.8188761031436321  0.4520902330145836
  0.7931916994502348  0.5905136919883787  0.4342301214079021
  0.1971831887203514  0.3950853149711175  0.5094134569771746
  0.3847269829139221  0.4751517299547920  0.4680520763257394
  0.1037610429044660  0.9922689525154533  0.4674755921788858
  0.6483040907543031  0.2168423744272408  0.4563425960689075
  0.3351388502050400  0.7803553793105569  0.3880584231642821
  0.7882535301860639  0.6730469809712837  0.4087763574273369
  0.2455739673490001  0.3505334164950853  0.4536131408969110
  0.3817388823813308  0.5325797229596225  0.4187859753600555
  0.0855902139583970  0.9072656282360345  0.4850738651090122
  0.7322999526772477  0.1952945789184876  0.4434560653542901
  0.2508652826836137  0.8098519714663132  0.3809005142596684
  0.8248812875913352  0.7435906945433730  0.4356115329079273
  0.2133739300081733  0.2755988254740939  0.4466631161220730
  0.4905747660225864  0.3758613135301571  0.4760796295218729
  0.0205002276657388  0.1107791868208057  0.4872449326784475
  0.6207261738924190  0.2472163667674790  0.5711048458275643
  0.3789188205844518  0.7484318950815382  0.4994916063530533
  0.7239666204894556  0.6011404733189593  0.4811673839513964
  0.2599266947980370  0.3913500309785304  0.5679392159645482
  0.5029884747307051  0.4362528124954784  0.5238842382058649
  0.0999085037999945  0.1146244806425086  0.5337912641679813
  0.6246037959946584  0.3160412538285082  0.5358541913843734
  0.3635761815696436  0.6705874725393948  0.4638653868723256
  0.6490669313665731  0.6411191499432727  0.4415113828949353
  0.3362625604189419  0.3647634190450753  0.5451771704413931
  0.4364313461587502  0.4945298555244653  0.5232931157476047
  0.1402224249390487  0.0306319508976366  0.5219183589314007
  0.6328350998304676  0.3062988974167566  0.4568845894128739
  0.3231882846949330  0.7003455519861823  0.4002350642545992
  0.7004537512046117  0.6933360181677378  0.3986308642096218
  0.3390462208806922  0.3438382598263801  0.4683435740521038
  0.5778941793817253  0.4764505596050289  0.5094729394325324
  0.0570051394886289  0.0968427217899199  0.6007876115029712
  0.6945689870159399  0.3568191429934909  0.5639327025561859
  0.2841302949843011  0.6440267869173811  0.5029104745494524
  0.6125444552226457  0.7012069918566708  0.4909802212757556
  0.3637024044339066  0.2980894133822690  0.5861247484398494
  0.5538682706457869  0.5568519835006888  0.4956378134775090
  0.0873323821695412  0.0207130858585019  0.6286436240570457
  0.7516084591621428  0.3612151278348677  0.5102957221554177
  0.2119363184684415  0.6297962897993239  0.4568665915048181
  0.6146565600682384  0.7850803064969296  0.4659072496122367
  0.3701773321841565  0.2351765966136093  0.5400911997010361
  0.4703631895894250  0.5689118663309972  0.5055538513149205
  0.1396541001076022  0.9815783154105506  0.5803346418234901
  0.7246451686882716  0.3297184843239561  0.4495738374157182
  0.2409806001815248  0.6735513837135978  0.3943333857222254
  0.6824793019913223  0.7720771823101861  0.4134731679514269
  0.3511106768912324  0.2559475504383343  0.4734359473063082
  0.4270571603326385  0.6049327630453456  0.4446597648643605
  0.1117942676452117  0.8980054287438732  0.5643954153724430
  0.7821679455536681  0.2628936773681398  0.4382548275200341
  0.1923336566470338  0.7443107771120858  0.3857717337250396
  0.7577005948370731  0.8047839674455646  0.4356166811307429
  0.2772375626793794  0.2153225912168181  0.4569246416990953
  0.5005089275291803  0.6036326520352867  0.3913958095176618
  0.0269423594408718  0.9037760673881375  0.6002391315059763
  0.8506442954386999  0.2587173887911837  0.4825651324031999
  0.1352745587076550  0.7581895157323874  0.4384507455017859
  0.7477109219459136  0.8369837412375888  0.5010588849237469
  0.2548853437229666  0.1619679789907338  0.5072593982990753
  0.5846540757531982  0.5833026177614936  0.4262921165277898
  0.0185408721431446  0.9735281189977029  0.6435395860371727
  0.8395408045136443  0.3324753857354146  0.5295058080647368
  0.1405214732978265  0.6922713589193320  0.4917486509043081
  0.6607803052360811  0.8234397620493866  0.5295114841158599
  0.3233376650010650  0.1640632813680978  0.5630924418410777
 
  0.00000000E+00  0.00000000E+00  0.00000000E+00
  0.00000000E+00  0.00000000E+00  0.00000000E+00
  0.00000000E+00  0.00000000E+00  0.00000000E+00
  0.00000000E+00  0.00000000E+00  0.00000000E+00
  0.00000000E+00  0.00000000E+00  0.00000000E+00
  0.00000000E+00  0.00000000E+00  0.00000000E+00
  0.00000000E+00  0.00000000E+00  0.00000000E+00
  0.00000000E+00  0.00000000E+00  0.00000000E+00
  0.00000000E+00  0.00000000E+00  0.00000000E+00
  0.00000000E+00  0.00000000E+00  0.00000000E+00
  0.00000000E+00  0.00000000E+00  0.00000000E+00
  0.00000000E+00  0.00000000E+00  0.00000000E+00
  0.00000000E+00  0.00000000E+00  0.00000000E+00
  0.00000000E+00  0.00000000E+00  0.00000000E+00
  0.00000000E+00  0.00000000E+00  0.00000000E+00
  0.00000000E+00  0.00000000E+00  0.00000000E+00
  0.00000000E+00  0.00000000E+00  0.00000000E+00
  0.00000000E+00  0.00000000E+00  0.00000000E+00
  0.00000000E+00  0.00000000E+00  0.00000000E+00
  0.00000000E+00  0.00000000E+00  0.00000000E+00
  0.00000000E+00  0.00000000E+00  0.00000000E+00
  0.00000000E+00  0.00000000E+00  0.00000000E+00
  0.00000000E+00  0.00000000E+00  0.00000000E+00
  0.00000000E+00  0.00000000E+00  0.00000000E+00
  0.00000000E+00  0.00000000E+00  0.00000000E+00
  0.00000000E+00  0.00000000E+00  0.00000000E+00
  0.00000000E+00  0.00000000E+00  0.00000000E+00
  0.00000000E+00  0.00000000E+00  0.00000000E+00
  0.00000000E+00  0.00000000E+00  0.00000000E+00
  0.00000000E+00  0.00000000E+00  0.00000000E+00
  0.00000000E+00  0.00000000E+00  0.00000000E+00
  0.00000000E+00  0.00000000E+00  0.00000000E+00
  0.00000000E+00  0.00000000E+00  0.00000000E+00
  0.00000000E+00  0.00000000E+00  0.00000000E+00
  0.00000000E+00  0.00000000E+00  0.00000000E+00
  0.00000000E+00  0.00000000E+00  0.00000000E+00
  0.00000000E+00  0.00000000E+00  0.00000000E+00
  0.00000000E+00  0.00000000E+00  0.00000000E+00
  0.00000000E+00  0.00000000E+00  0.00000000E+00
  0.00000000E+00  0.00000000E+00  0.00000000E+00
  0.00000000E+00  0.00000000E+00  0.00000000E+00
  0.00000000E+00  0.00000000E+00  0.00000000E+00
  0.00000000E+00  0.00000000E+00  0.00000000E+00
  0.00000000E+00  0.00000000E+00  0.00000000E+00
  0.00000000E+00  0.00000000E+00  0.00000000E+00
  0.00000000E+00  0.00000000E+00  0.00000000E+00
  0.00000000E+00  0.00000000E+00  0.00000000E+00
  0.00000000E+00  0.00000000E+00  0.00000000E+00
  0.00000000E+00  0.00000000E+00  0.00000000E+00
  0.00000000E+00  0.00000000E+00  0.00000000E+00
  0.00000000E+00  0.00000000E+00  0.00000000E+00
  0.00000000E+00  0.00000000E+00  0.00000000E+00
  0.00000000E+00  0.00000000E+00  0.00000000E+00
  0.00000000E+00  0.00000000E+00  0.00000000E+00
  0.00000000E+00  0.00000000E+00  0.00000000E+00
  0.00000000E+00  0.00000000E+00  0.00000000E+00
  0.00000000E+00  0.00000000E+00  0.00000000E+00
  0.00000000E+00  0.00000000E+00  0.00000000E+00
  0.00000000E+00  0.00000000E+00  0.00000000E+00
  0.00000000E+00  0.00000000E+00  0.00000000E+00
  0.00000000E+00  0.00000000E+00  0.00000000E+00
  0.00000000E+00  0.00000000E+00  0.00000000E+00
  0.00000000E+00  0.00000000E+00  0.00000000E+00
  0.00000000E+00  0.00000000E+00  0.00000000E+00
  0.00000000E+00  0.00000000E+00  0.00000000E+00
  0.00000000E+00  0.00000000E+00  0.00000000E+00
  0.00000000E+00  0.00000000E+00  0.00000000E+00
  0.00000000E+00  0.00000000E+00  0.00000000E+00
  0.00000000E+00  0.00000000E+00  0.00000000E+00
  0.00000000E+00  0.00000000E+00  0.00000000E+00
  0.00000000E+00  0.00000000E+00  0.00000000E+00
  0.00000000E+00  0.00000000E+00  0.00000000E+00
  0.00000000E+00  0.00000000E+00  0.00000000E+00
  0.00000000E+00  0.00000000E+00  0.00000000E+00
  0.00000000E+00  0.00000000E+00  0.00000000E+00
  0.00000000E+00  0.00000000E+00  0.00000000E+00
  0.00000000E+00  0.00000000E+00  0.00000000E+00
  0.00000000E+00  0.00000000E+00  0.00000000E+00
  0.00000000E+00  0.00000000E+00  0.00000000E+00
  0.00000000E+00  0.00000000E+00  0.00000000E+00
  0.00000000E+00  0.00000000E+00  0.00000000E+00
  0.00000000E+00  0.00000000E+00  0.00000000E+00
  0.00000000E+00  0.00000000E+00  0.00000000E+00
  0.00000000E+00  0.00000000E+00  0.00000000E+00
  0.00000000E+00  0.00000000E+00  0.00000000E+00
  0.00000000E+00  0.00000000E+00  0.00000000E+00
  0.00000000E+00  0.00000000E+00  0.00000000E+00
  0.00000000E+00  0.00000000E+00  0.00000000E+00
  0.00000000E+00  0.00000000E+00  0.00000000E+00
  0.00000000E+00  0.00000000E+00  0.00000000E+00
  0.00000000E+00  0.00000000E+00  0.00000000E+00
  0.00000000E+00  0.00000000E+00  0.00000000E+00
  0.00000000E+00  0.00000000E+00  0.00000000E+00
  0.00000000E+00  0.00000000E+00  0.00000000E+00
  0.00000000E+00  0.00000000E+00  0.00000000E+00
  0.00000000E+00  0.00000000E+00  0.00000000E+00
  0.00000000E+00  0.00000000E+00  0.00000000E+00
  0.00000000E+00  0.00000000E+00  0.00000000E+00
  0.00000000E+00  0.00000000E+00  0.00000000E+00
  0.00000000E+00  0.00000000E+00  0.00000000E+00
  0.00000000E+00  0.00000000E+00  0.00000000E+00
  0.00000000E+00  0.00000000E+00  0.00000000E+00
  0.00000000E+00  0.00000000E+00  0.00000000E+00
  0.00000000E+00  0.00000000E+00  0.00000000E+00
  0.00000000E+00  0.00000000E+00  0.00000000E+00
  0.00000000E+00  0.00000000E+00  0.00000000E+00
  0.00000000E+00  0.00000000E+00  0.00000000E+00
  0.00000000E+00  0.00000000E+00  0.00000000E+00
  0.00000000E+00  0.00000000E+00  0.00000000E+00
  0.00000000E+00  0.00000000E+00  0.00000000E+00
  0.00000000E+00  0.00000000E+00  0.00000000E+00
  0.00000000E+00  0.00000000E+00  0.00000000E+00
  0.00000000E+00  0.00000000E+00  0.00000000E+00
  0.00000000E+00  0.00000000E+00  0.00000000E+00
  0.00000000E+00  0.00000000E+00  0.00000000E+00
  0.00000000E+00  0.00000000E+00  0.00000000E+00
  0.00000000E+00  0.00000000E+00  0.00000000E+00
  0.00000000E+00  0.00000000E+00  0.00000000E+00
  0.00000000E+00  0.00000000E+00  0.00000000E+00
  0.00000000E+00  0.00000000E+00  0.00000000E+00
  0.00000000E+00  0.00000000E+00  0.00000000E+00
  0.00000000E+00  0.00000000E+00  0.00000000E+00
  0.00000000E+00  0.00000000E+00  0.00000000E+00
  0.00000000E+00  0.00000000E+00  0.00000000E+00
  0.00000000E+00  0.00000000E+00  0.00000000E+00
  0.00000000E+00  0.00000000E+00  0.00000000E+00
  0.00000000E+00  0.00000000E+00  0.00000000E+00
  0.00000000E+00  0.00000000E+00  0.00000000E+00
  0.00000000E+00  0.00000000E+00  0.00000000E+00
  0.00000000E+00  0.00000000E+00  0.00000000E+00
  0.00000000E+00  0.00000000E+00  0.00000000E+00
  0.00000000E+00  0.00000000E+00  0.00000000E+00
  0.00000000E+00  0.00000000E+00  0.00000000E+00
  0.00000000E+00  0.00000000E+00  0.00000000E+00
  0.00000000E+00  0.00000000E+00  0.00000000E+00
  0.00000000E+00  0.00000000E+00  0.00000000E+00
  0.00000000E+00  0.00000000E+00  0.00000000E+00
  0.00000000E+00  0.00000000E+00  0.00000000E+00
  0.00000000E+00  0.00000000E+00  0.00000000E+00
  0.00000000E+00  0.00000000E+00  0.00000000E+00
  0.00000000E+00  0.00000000E+00  0.00000000E+00
  0.00000000E+00  0.00000000E+00  0.00000000E+00
  0.00000000E+00  0.00000000E+00  0.00000000E+00
  0.00000000E+00  0.00000000E+00  0.00000000E+00
  0.00000000E+00  0.00000000E+00  0.00000000E+00
  0.00000000E+00  0.00000000E+00  0.00000000E+00
  0.00000000E+00  0.00000000E+00  0.00000000E+00
  0.00000000E+00  0.00000000E+00  0.00000000E+00
  0.00000000E+00  0.00000000E+00  0.00000000E+00
  0.00000000E+00  0.00000000E+00  0.00000000E+00
  0.00000000E+00  0.00000000E+00  0.00000000E+00
  0.00000000E+00  0.00000000E+00  0.00000000E+00
  0.00000000E+00  0.00000000E+00  0.00000000E+00
  0.00000000E+00  0.00000000E+00  0.00000000E+00
  0.00000000E+00  0.00000000E+00  0.00000000E+00
  0.00000000E+00  0.00000000E+00  0.00000000E+00
  0.00000000E+00  0.00000000E+00  0.00000000E+00
  0.00000000E+00  0.00000000E+00  0.00000000E+00
  0.00000000E+00  0.00000000E+00  0.00000000E+00
  0.00000000E+00  0.00000000E+00  0.00000000E+00
  0.00000000E+00  0.00000000E+00  0.00000000E+00
  0.00000000E+00  0.00000000E+00  0.00000000E+00
  0.00000000E+00  0.00000000E+00  0.00000000E+00
  0.00000000E+00  0.00000000E+00  0.00000000E+00
  0.00000000E+00  0.00000000E+00  0.00000000E+00
  0.00000000E+00  0.00000000E+00  0.00000000E+00
  0.00000000E+00  0.00000000E+00  0.00000000E+00
  0.00000000E+00  0.00000000E+00  0.00000000E+00
