C                                       
   1.00000000000000     
    12.3754542055939343    0.4672884125518988    0.0000000000000000
     0.4589778145071163   11.5338480508611845    0.0000000000000000
     0.0000000000000000    0.0000000000000000   16.0000000000000000
  C             
   104
Direct
  0.6449516493880493  0.5649316482608263  0.5437379485164807
  0.6207616269955876  0.4639385406723501  0.5883598966769542
  0.6856581970824476  0.5435222836167055  0.4646678276451998
  0.6111869195986250  0.3839385052326651  0.5191011612238382
  0.6735838141885380  0.4167938307239247  0.4408162033643721
  0.6338100796009031  0.6274570372975153  0.4050641808976895
  0.5823433576957773  0.5507443968694904  0.3425194968754248
  0.5970439383493017  0.4341109828603265  0.3644127845570516
  0.5292753883193662  0.6848803815805473  0.4519122544403858
  0.5554442934484976  0.6623215508362975  0.5503855613030717
  0.4639570067467482  0.5976864146308193  0.5941284249679741
  0.4412048770838231  0.6343399579621714  0.4142318065832419
  0.3732048769924485  0.5763313276653792  0.4602649196517467
  0.3521638938346848  0.5749270960681160  0.5532197685996018
  0.4651313322710959  0.5796253846574452  0.3334435656969710
  0.4445752979429303  0.3971647241923346  0.5845416697294813
  0.5090186402485556  0.4881050808548674  0.6168553290441127
  0.3488867141214054  0.4434059756875147  0.5513358332119260
  0.3332037260229941  0.3903406947431189  0.4639056590243680
  0.3125806401192275  0.5002441776467496  0.4014539372935850
  0.4046880940278459  0.4818845366783224  0.3344928093557929
  0.5112390268201146  0.3432021601325582  0.5162971926246638
  0.4507556977675435  0.3590587003445200  0.4402099211670421
  0.4866119593413528  0.3926153471851978  0.3628173488525226
  0.1329455700373205  0.6504708503137099  0.6136588486826893
  0.0404308041079510  0.5580800013688613  0.5866128824402129
  0.0882659952608379  0.7623400898660063  0.6036958899642305
  0.9755427895258216  0.7694821179996453  0.5725321104064879
  0.9545729504528341  0.6478653651884789  0.5489182047276008
  0.1577588687833531  0.8385547801713825  0.5533708592155747
  0.0883891784696927  0.8813650969144017  0.4669466802388546
  0.9812215892747798  0.8329195478856768  0.4870637269302707
  0.2480956862017839  0.7611524927387211  0.5109353832837359
  0.2164770970227220  0.7246660146669991  0.4223086683186891
  0.1255821538645538  0.7909710752624266  0.4009562164235845
  0.2397831830452421  0.6397249183016938  0.5573697766002338
  0.1811893528237831  0.5775753930119838  0.4897221703688497
  0.2051552447963798  0.5931983307775015  0.4003753831361093
  0.0878544416943358  0.5347108005066012  0.5031741622328642
  0.0127660222603710  0.5327843418176421  0.4275485372334922
  0.0832586824186715  0.6005746288932590  0.3678465724900822
  0.0444143092698507  0.7174353294151899  0.3698231545946581
  0.9404345753517745  0.7541529157281078  0.4176218058381331
  0.9353261951356701  0.6355117813126647  0.4648071590868327
  0.9178886683555260  0.3576408514840371  0.6567582829498887
  0.9961078857274116  0.4323578116000608  0.6022943612207347
  0.9568581471985216  0.2380920030362519  0.6516465580575104
  0.0560621724271805  0.2107928979462525  0.5951996481970266
  0.0411770212310655  0.3252363291952135  0.5535291999062633
  0.8759759642008854  0.1694881516316845  0.6159814569375224
  0.9127968831453231  0.0899883925460683  0.5436825198209945
  0.0300452236094733  0.1115342570846218  0.5344558277239737
  0.7859989344734731  0.2407403645856405  0.5913952458821411
  0.7566716239675501  0.2159831513890836  0.4973860226349170
  0.8621803154659223  0.1574468235137946  0.4718014010100761
  0.8081037828045545  0.3585669225865595  0.6158230665367959
  0.8277621188927596  0.3911591972696308  0.5328683384592625
  0.7772945475897642  0.3411207110541703  0.4550127687872784
  0.9368498190252881  0.4076553182336067  0.5230358249199621
  0.9792920322221585  0.4058311645209057  0.4331310636783550
  0.8874161797780324  0.3289832295882096  0.4025324756630848
  0.9267877277230874  0.2123718774570831  0.4162672343872866
  0.0417589504185566  0.1882622919313006  0.4387886124483530
  0.0793280467730412  0.3062869421483844  0.4667749046265024
  0.4268697874964659  0.0063409662717788  0.5725944613303442
  0.4189362487832521  0.9153926657933265  0.5021251464727671
  0.3151093355449343  0.0205874300497114  0.6148287235108040
  0.2261754489909162  0.9482702255766755  0.5769726164111323
  0.3065997628721342  0.8760514103201079  0.5016338037467354
  0.2837079142611096  0.1424778026502939  0.6006946110814622
  0.1754525523971267  0.1658336322154303  0.5669712227014357
  0.1441078913443507  0.0461299967550467  0.5404060664820222
  0.3546992551430466  0.2068090102413488  0.5553166017141209
  0.3030292888004382  0.2640862050589501  0.4747194760246678
  0.1881081053545014  0.2309111597340532  0.4795098063392532
  0.4443673176437546  0.1246578175676225  0.5371851311812875
  0.4559273265207647  0.1051388375790688  0.4405530107769441
  0.3554712225953656  0.1819248973638009  0.4090610943766161
  0.4386924271089570  0.9826799756063718  0.4143843034833727
  0.3243414018179917  0.9966456222503304  0.3792043932312928
  0.2793397328652342  0.1176963677132024  0.3710422826623583
  0.1596445314328593  0.1318165884822765  0.4124244720018831
  0.1538966094182920  0.0048835442431771  0.4495630695733168
  0.2579737922658528  0.9421802040069154  0.4299330098663467
  0.5559083598391195  0.9818167754032519  0.5525092942906549
  0.5560091535510180  0.1008499334730244  0.5012824013047049
  0.6586676073969634  0.9579094059264330  0.5996512322540771
  0.7308256344414796  0.0252955542059883  0.5612581820707687
  0.6787973437870019  0.1108010944772845  0.4908338727858069
  0.6673866660416330  0.8403581869258753  0.6303335732324349
  0.8878940087895953  0.8616748288343579  0.5468047560418322
  0.8468796691631061  0.9865017289477853  0.5344043374346135
  0.6065794397154735  0.7784934877610873  0.5663850716364708
  0.7047744523226225  0.7677180804158635  0.5030032847658954
  0.8004462711529797  0.8110982359800676  0.4992053339154603
  0.5347217032574673  0.8656456604670957  0.5134096413357314
  0.5563548126084890  0.8077449176381293  0.4258729970850984
  0.6664152320504698  0.7532494620284512  0.4098276562095280
  0.5406467706883813  0.9176872023963303  0.3803961384400834
  0.6551136034012880  0.9424912246818740  0.3709189274747556
  0.7262958518996856  0.8357330686897468  0.3623749353552561
  0.8301510817125130  0.8419529257281756  0.4083262201686438
  0.8175926976299975  0.9713474813105976  0.4392263604882058
  0.7147766167860476  0.0239428598850591  0.4192246242376848
 
  0.00000000E+00  0.00000000E+00  0.00000000E+00
  0.00000000E+00  0.00000000E+00  0.00000000E+00
  0.00000000E+00  0.00000000E+00  0.00000000E+00
  0.00000000E+00  0.00000000E+00  0.00000000E+00
  0.00000000E+00  0.00000000E+00  0.00000000E+00
  0.00000000E+00  0.00000000E+00  0.00000000E+00
  0.00000000E+00  0.00000000E+00  0.00000000E+00
  0.00000000E+00  0.00000000E+00  0.00000000E+00
  0.00000000E+00  0.00000000E+00  0.00000000E+00
  0.00000000E+00  0.00000000E+00  0.00000000E+00
  0.00000000E+00  0.00000000E+00  0.00000000E+00
  0.00000000E+00  0.00000000E+00  0.00000000E+00
  0.00000000E+00  0.00000000E+00  0.00000000E+00
  0.00000000E+00  0.00000000E+00  0.00000000E+00
  0.00000000E+00  0.00000000E+00  0.00000000E+00
  0.00000000E+00  0.00000000E+00  0.00000000E+00
  0.00000000E+00  0.00000000E+00  0.00000000E+00
  0.00000000E+00  0.00000000E+00  0.00000000E+00
  0.00000000E+00  0.00000000E+00  0.00000000E+00
  0.00000000E+00  0.00000000E+00  0.00000000E+00
  0.00000000E+00  0.00000000E+00  0.00000000E+00
  0.00000000E+00  0.00000000E+00  0.00000000E+00
  0.00000000E+00  0.00000000E+00  0.00000000E+00
  0.00000000E+00  0.00000000E+00  0.00000000E+00
  0.00000000E+00  0.00000000E+00  0.00000000E+00
  0.00000000E+00  0.00000000E+00  0.00000000E+00
  0.00000000E+00  0.00000000E+00  0.00000000E+00
  0.00000000E+00  0.00000000E+00  0.00000000E+00
  0.00000000E+00  0.00000000E+00  0.00000000E+00
  0.00000000E+00  0.00000000E+00  0.00000000E+00
  0.00000000E+00  0.00000000E+00  0.00000000E+00
  0.00000000E+00  0.00000000E+00  0.00000000E+00
  0.00000000E+00  0.00000000E+00  0.00000000E+00
  0.00000000E+00  0.00000000E+00  0.00000000E+00
  0.00000000E+00  0.00000000E+00  0.00000000E+00
  0.00000000E+00  0.00000000E+00  0.00000000E+00
  0.00000000E+00  0.00000000E+00  0.00000000E+00
  0.00000000E+00  0.00000000E+00  0.00000000E+00
  0.00000000E+00  0.00000000E+00  0.00000000E+00
  0.00000000E+00  0.00000000E+00  0.00000000E+00
  0.00000000E+00  0.00000000E+00  0.00000000E+00
  0.00000000E+00  0.00000000E+00  0.00000000E+00
  0.00000000E+00  0.00000000E+00  0.00000000E+00
  0.00000000E+00  0.00000000E+00  0.00000000E+00
  0.00000000E+00  0.00000000E+00  0.00000000E+00
  0.00000000E+00  0.00000000E+00  0.00000000E+00
  0.00000000E+00  0.00000000E+00  0.00000000E+00
  0.00000000E+00  0.00000000E+00  0.00000000E+00
  0.00000000E+00  0.00000000E+00  0.00000000E+00
  0.00000000E+00  0.00000000E+00  0.00000000E+00
  0.00000000E+00  0.00000000E+00  0.00000000E+00
  0.00000000E+00  0.00000000E+00  0.00000000E+00
  0.00000000E+00  0.00000000E+00  0.00000000E+00
  0.00000000E+00  0.00000000E+00  0.00000000E+00
  0.00000000E+00  0.00000000E+00  0.00000000E+00
  0.00000000E+00  0.00000000E+00  0.00000000E+00
  0.00000000E+00  0.00000000E+00  0.00000000E+00
  0.00000000E+00  0.00000000E+00  0.00000000E+00
  0.00000000E+00  0.00000000E+00  0.00000000E+00
  0.00000000E+00  0.00000000E+00  0.00000000E+00
  0.00000000E+00  0.00000000E+00  0.00000000E+00
  0.00000000E+00  0.00000000E+00  0.00000000E+00
  0.00000000E+00  0.00000000E+00  0.00000000E+00
  0.00000000E+00  0.00000000E+00  0.00000000E+00
  0.00000000E+00  0.00000000E+00  0.00000000E+00
  0.00000000E+00  0.00000000E+00  0.00000000E+00
  0.00000000E+00  0.00000000E+00  0.00000000E+00
  0.00000000E+00  0.00000000E+00  0.00000000E+00
  0.00000000E+00  0.00000000E+00  0.00000000E+00
  0.00000000E+00  0.00000000E+00  0.00000000E+00
  0.00000000E+00  0.00000000E+00  0.00000000E+00
  0.00000000E+00  0.00000000E+00  0.00000000E+00
  0.00000000E+00  0.00000000E+00  0.00000000E+00
  0.00000000E+00  0.00000000E+00  0.00000000E+00
  0.00000000E+00  0.00000000E+00  0.00000000E+00
  0.00000000E+00  0.00000000E+00  0.00000000E+00
  0.00000000E+00  0.00000000E+00  0.00000000E+00
  0.00000000E+00  0.00000000E+00  0.00000000E+00
  0.00000000E+00  0.00000000E+00  0.00000000E+00
  0.00000000E+00  0.00000000E+00  0.00000000E+00
  0.00000000E+00  0.00000000E+00  0.00000000E+00
  0.00000000E+00  0.00000000E+00  0.00000000E+00
  0.00000000E+00  0.00000000E+00  0.00000000E+00
  0.00000000E+00  0.00000000E+00  0.00000000E+00
  0.00000000E+00  0.00000000E+00  0.00000000E+00
  0.00000000E+00  0.00000000E+00  0.00000000E+00
  0.00000000E+00  0.00000000E+00  0.00000000E+00
  0.00000000E+00  0.00000000E+00  0.00000000E+00
  0.00000000E+00  0.00000000E+00  0.00000000E+00
  0.00000000E+00  0.00000000E+00  0.00000000E+00
  0.00000000E+00  0.00000000E+00  0.00000000E+00
  0.00000000E+00  0.00000000E+00  0.00000000E+00
  0.00000000E+00  0.00000000E+00  0.00000000E+00
  0.00000000E+00  0.00000000E+00  0.00000000E+00
  0.00000000E+00  0.00000000E+00  0.00000000E+00
  0.00000000E+00  0.00000000E+00  0.00000000E+00
  0.00000000E+00  0.00000000E+00  0.00000000E+00
  0.00000000E+00  0.00000000E+00  0.00000000E+00
  0.00000000E+00  0.00000000E+00  0.00000000E+00
  0.00000000E+00  0.00000000E+00  0.00000000E+00
  0.00000000E+00  0.00000000E+00  0.00000000E+00
  0.00000000E+00  0.00000000E+00  0.00000000E+00
  0.00000000E+00  0.00000000E+00  0.00000000E+00
  0.00000000E+00  0.00000000E+00  0.00000000E+00
