C                                       
   1.00000000000000     
    10.3656452662421774    0.1015273990154412    0.0000000000000000
    -0.4685793558454318   10.9165637153283033    0.0000000000000000
     0.0000000000000000    0.0000000000000000   16.0000000000000000
  C             
    88
Direct
  0.8416478691712713  0.0446321478971437  0.5703543362380820
  0.9700377636281123  0.0527472892564015  0.5935965767972068
  0.8197370324679171  0.1307368317724157  0.4945155410794367
  0.0465135347248258  0.1186379668593829  0.5320776787523464
  0.9694313580337103  0.1841829458092726  0.4655568418246229
  0.7934781471590816  0.0307779577258114  0.4239647189079306
  0.8737130838228622  0.0548114463926622  0.3511548967400155
  0.9862408238287099  0.1238312278088044  0.3779396888085069
  0.8645992605721153  0.9200520223297087  0.4620899628780725
  0.8086841199606674  0.9087203329379933  0.5602843871136778
  0.9253361611626617  0.8371688969117632  0.5855641447604972
  0.8476529758384750  0.8382050159392730  0.3775192761980595
  0.9600894314431669  0.7616945898792093  0.4003008249622883
  0.9807228087756822  0.8381928434899438  0.4895312336162956
  0.8971902576014271  0.9366837080508168  0.3168056040585512
  0.1356631724414069  0.9308434036313658  0.5647935578326443
  0.0239358607710798  0.9346013894975861  0.6145074904899762
  0.1242986629932521  0.8271939277935433  0.5051342500133462
  0.1797699361490814  0.8641252000312830  0.4223488737712958
  0.0768662948607973  0.8235530880612228  0.3598128302750970
  0.0338893668816863  0.9292625108949637  0.3214765832549019
  0.1429081360956171  0.0379806411426820  0.5111728586883786
  0.1636869419597961  0.0024022196877157  0.4266594578082536
  0.0891818892709811  0.0445408883525230  0.3609832645701679
  0.9816709825682246  0.5307179851014908  0.6910292602610683
  0.0971648170275179  0.5974405029729780  0.6654403197987060
  0.8666157986846734  0.5918279862440156  0.6581261481085234
  0.0570205834674139  0.6719164964507779  0.6031181496296856
  0.9156983340234379  0.6976422491354761  0.5986201488539660
  0.7970041052258272  0.5055370944515881  0.6120989309255891
  0.7581875298619110  0.5460023554944569  0.5249433023100840
  0.8463258907636301  0.6608435603234715  0.5124353584194067
  0.8787388282474892  0.3965818798700273  0.6046131319615911
  0.9955690791470986  0.4127508647035327  0.6546282245226672
  0.1220795221878189  0.4068214250949154  0.6128133265438265
  0.8920944270517565  0.3739039718202664  0.5203075602590094
  0.0073205133702315  0.3278697219246634  0.4752161876111023
  0.1412023406759556  0.3551161270568090  0.5240828153008565
  0.8196002515767948  0.4542885925242887  0.4694851505826088
  0.2508094297855304  0.5782695017028339  0.5478209480471304
  0.1910247240610795  0.5191409808949269  0.6257784401042870
  0.2249741762004053  0.4706233867792555  0.4878360966330419
  0.1265361205464456  0.5106944081123322  0.4279504386959880
  0.0166306133793992  0.4298879838101136  0.4062676540029064
  0.9051076195049935  0.5020864146187461  0.4076695367663587
  0.1399364105760779  0.6844049857924605  0.5281788474374390
  0.0762733348659102  0.6150122222283223  0.4596835801250305
  0.9401791352239101  0.6349694645617963  0.4359901983448855
  0.3808014552458009  0.1058458404521722  0.5472408171755381
  0.5076922566588050  0.1099564149985165  0.5802162085004787
  0.3795925108560850  0.0815134050960865  0.4526226175313880
  0.5187681149270285  0.1102703959054205  0.4373892436656338
  0.6018556428915590  0.0839196034257296  0.5125743419363433
  0.3159055746495716  0.2007540294893047  0.4224164513387157
  0.4188630572130672  0.2696186180072731  0.3844427804942421
  0.5438321278871007  0.2064686999691978  0.3867470036932000
  0.2637987534250360  0.2763697050265971  0.4995700937615205
  0.3482317721025920  0.3988051410881319  0.4895837255853215
  0.4448471114805538  0.3850534679495320  0.4213538136579140
  0.3225739142226183  0.2133590390230881  0.5712917192495640
  0.4133996331590349  0.2880340462216830  0.6179781152721153
  0.4387027786903774  0.3924662356002119  0.5678575107586694
  0.5337731917622435  0.2204646425134771  0.6230733372835021
  0.6339711177066407  0.2816450652614397  0.5764404767760657
  0.5723894977386209  0.3885279292163586  0.5438151669353241
  0.5736557475571870  0.3800229319983456  0.4550777066990586
  0.6431967260172229  0.2762451733743825  0.4301081339059604
  0.6959760617588177  0.2020427915463843  0.5059093396256269
  0.6793385591762174  0.8412108127253488  0.5512906665054037
  0.5553645311099541  0.7705038626011408  0.5907140035505243
  0.6163221283092327  0.9441430537993895  0.5011337245870867
  0.4788954878572373  0.9199415535212223  0.5072362622555052
  0.4392667367084004  0.8377833092503546  0.5654035762088405
  0.6557817532734610  0.9298937254270153  0.4112551918284236
  0.5202270384934204  0.9140958355266000  0.3699790308819375
  0.4055923219546984  0.9429540052032326  0.4296900783905696
  0.7151215448253805  0.7988010052099382  0.4004953479192870
  0.6115038665065844  0.7187426710375915  0.3609977106358432
  0.5016267751165512  0.7931298231099527  0.3435312238811674
  0.7250697058961342  0.7388259282057672  0.4899938091965963
  0.6370246797798956  0.6223832695092467  0.4983449046329316
  0.5658167523115196  0.6270848482339217  0.4154686497868388
  0.5302758819694007  0.6551389551880142  0.5584811836479674
  0.3867219704052146  0.6406298144914280  0.5201042889007128
  0.4273355469474366  0.6357639047684472  0.4271384496880610
  0.3858248723800065  0.7362364012596707  0.3797875010578307
  0.3159875239801985  0.8271656137930060  0.4304105262181314
  0.3501942856743411  0.7708485321222294  0.5172565656067708
 
  0.00000000E+00  0.00000000E+00  0.00000000E+00
  0.00000000E+00  0.00000000E+00  0.00000000E+00
  0.00000000E+00  0.00000000E+00  0.00000000E+00
  0.00000000E+00  0.00000000E+00  0.00000000E+00
  0.00000000E+00  0.00000000E+00  0.00000000E+00
  0.00000000E+00  0.00000000E+00  0.00000000E+00
  0.00000000E+00  0.00000000E+00  0.00000000E+00
  0.00000000E+00  0.00000000E+00  0.00000000E+00
  0.00000000E+00  0.00000000E+00  0.00000000E+00
  0.00000000E+00  0.00000000E+00  0.00000000E+00
  0.00000000E+00  0.00000000E+00  0.00000000E+00
  0.00000000E+00  0.00000000E+00  0.00000000E+00
  0.00000000E+00  0.00000000E+00  0.00000000E+00
  0.00000000E+00  0.00000000E+00  0.00000000E+00
  0.00000000E+00  0.00000000E+00  0.00000000E+00
  0.00000000E+00  0.00000000E+00  0.00000000E+00
  0.00000000E+00  0.00000000E+00  0.00000000E+00
  0.00000000E+00  0.00000000E+00  0.00000000E+00
  0.00000000E+00  0.00000000E+00  0.00000000E+00
  0.00000000E+00  0.00000000E+00  0.00000000E+00
  0.00000000E+00  0.00000000E+00  0.00000000E+00
  0.00000000E+00  0.00000000E+00  0.00000000E+00
  0.00000000E+00  0.00000000E+00  0.00000000E+00
  0.00000000E+00  0.00000000E+00  0.00000000E+00
  0.00000000E+00  0.00000000E+00  0.00000000E+00
  0.00000000E+00  0.00000000E+00  0.00000000E+00
  0.00000000E+00  0.00000000E+00  0.00000000E+00
  0.00000000E+00  0.00000000E+00  0.00000000E+00
  0.00000000E+00  0.00000000E+00  0.00000000E+00
  0.00000000E+00  0.00000000E+00  0.00000000E+00
  0.00000000E+00  0.00000000E+00  0.00000000E+00
  0.00000000E+00  0.00000000E+00  0.00000000E+00
  0.00000000E+00  0.00000000E+00  0.00000000E+00
  0.00000000E+00  0.00000000E+00  0.00000000E+00
  0.00000000E+00  0.00000000E+00  0.00000000E+00
  0.00000000E+00  0.00000000E+00  0.00000000E+00
  0.00000000E+00  0.00000000E+00  0.00000000E+00
  0.00000000E+00  0.00000000E+00  0.00000000E+00
  0.00000000E+00  0.00000000E+00  0.00000000E+00
  0.00000000E+00  0.00000000E+00  0.00000000E+00
  0.00000000E+00  0.00000000E+00  0.00000000E+00
  0.00000000E+00  0.00000000E+00  0.00000000E+00
  0.00000000E+00  0.00000000E+00  0.00000000E+00
  0.00000000E+00  0.00000000E+00  0.00000000E+00
  0.00000000E+00  0.00000000E+00  0.00000000E+00
  0.00000000E+00  0.00000000E+00  0.00000000E+00
  0.00000000E+00  0.00000000E+00  0.00000000E+00
  0.00000000E+00  0.00000000E+00  0.00000000E+00
  0.00000000E+00  0.00000000E+00  0.00000000E+00
  0.00000000E+00  0.00000000E+00  0.00000000E+00
  0.00000000E+00  0.00000000E+00  0.00000000E+00
  0.00000000E+00  0.00000000E+00  0.00000000E+00
  0.00000000E+00  0.00000000E+00  0.00000000E+00
  0.00000000E+00  0.00000000E+00  0.00000000E+00
  0.00000000E+00  0.00000000E+00  0.00000000E+00
  0.00000000E+00  0.00000000E+00  0.00000000E+00
  0.00000000E+00  0.00000000E+00  0.00000000E+00
  0.00000000E+00  0.00000000E+00  0.00000000E+00
  0.00000000E+00  0.00000000E+00  0.00000000E+00
  0.00000000E+00  0.00000000E+00  0.00000000E+00
  0.00000000E+00  0.00000000E+00  0.00000000E+00
  0.00000000E+00  0.00000000E+00  0.00000000E+00
  0.00000000E+00  0.00000000E+00  0.00000000E+00
  0.00000000E+00  0.00000000E+00  0.00000000E+00
  0.00000000E+00  0.00000000E+00  0.00000000E+00
  0.00000000E+00  0.00000000E+00  0.00000000E+00
  0.00000000E+00  0.00000000E+00  0.00000000E+00
  0.00000000E+00  0.00000000E+00  0.00000000E+00
  0.00000000E+00  0.00000000E+00  0.00000000E+00
  0.00000000E+00  0.00000000E+00  0.00000000E+00
  0.00000000E+00  0.00000000E+00  0.00000000E+00
  0.00000000E+00  0.00000000E+00  0.00000000E+00
  0.00000000E+00  0.00000000E+00  0.00000000E+00
  0.00000000E+00  0.00000000E+00  0.00000000E+00
  0.00000000E+00  0.00000000E+00  0.00000000E+00
  0.00000000E+00  0.00000000E+00  0.00000000E+00
  0.00000000E+00  0.00000000E+00  0.00000000E+00
  0.00000000E+00  0.00000000E+00  0.00000000E+00
  0.00000000E+00  0.00000000E+00  0.00000000E+00
  0.00000000E+00  0.00000000E+00  0.00000000E+00
  0.00000000E+00  0.00000000E+00  0.00000000E+00
  0.00000000E+00  0.00000000E+00  0.00000000E+00
  0.00000000E+00  0.00000000E+00  0.00000000E+00
  0.00000000E+00  0.00000000E+00  0.00000000E+00
  0.00000000E+00  0.00000000E+00  0.00000000E+00
  0.00000000E+00  0.00000000E+00  0.00000000E+00
  0.00000000E+00  0.00000000E+00  0.00000000E+00
  0.00000000E+00  0.00000000E+00  0.00000000E+00
