Generated by VASPKIT code               
   1.00000000000000     
    12.0078502486855161    0.0047395819156990    0.0000000000000000
     0.0047591197679505   12.1372955651195298    0.0000000000000000
     0.0000000000000012    0.0000000000000012   19.7192704681255009
  C             
   104
Direct
  0.1878485003089486  0.0655601119449418  0.5190982289526092
  0.2150264045546740  0.9584885957852183  0.4826105598723313
  0.1344018719162834  0.1430366865646896  0.4788781234148053
  0.1251616131449201  0.9749012878470299  0.4185685378733424
  0.0823845361788688  0.0823195145203336  0.4216996544832499
  0.0470854607548920  0.2131140025914006  0.5148853103105862
  0.9426066176628186  0.1796461760826033  0.4781216315329797
  0.9631735408492788  0.1075395237103036  0.4230402349683248
  0.0273360085270320  0.1237812876371034  0.5797126322486728
  0.1095756348327668  0.0421003648988169  0.5764403901920642
  0.0842206849378337  0.9243386378970226  0.5751703409941297
  0.9158188324520089  0.0756663015442377  0.5751805212722980
  0.8904706019180694  0.9579018082258594  0.5764600621516791
  0.9727056172138716  0.8762206198847625  0.5797171522256175
  0.8590016103962059  0.1222017919286743  0.5196245208176605
  0.0574031912577703  0.8203543983566675  0.4781097872815672
  0.1410171208861167  0.8778021861522984  0.5196070390158987
  0.9529374181388841  0.7868914924569047  0.5148826516173570
  0.8656090250661770  0.8569801475039576  0.4788960454667512
  0.8121694130506563  0.9344446577893391  0.5191253589956382
  0.7849732985862874  0.0415139598865283  0.4826365047380869
  0.0368280920480836  0.8924613212408926  0.4230326654802446
  0.9176126261233404  0.9176921582507717  0.4217106279459049
  0.8748334117171280  0.0251097306361953  0.4185819646644490
  0.9382215842486389  0.4447074450154780  0.5492145015872324
  0.0617859524770261  0.5552748558108910  0.5491996331439234
  0.5565876787406547  0.9417150103301971  0.5319783385470933
  0.4433709967621685  0.0582956798133449  0.5319811905450963
  0.9344889650667462  0.5740252823910652  0.5662378298357664
  0.0655199901777495  0.4259662825115983  0.5662458184424246
  0.4234792283801820  0.9393494836674142  0.5486245151757474
  0.5764877016618218  0.0606531342793469  0.5486398004234539
  0.9382069372494288  0.4455449228346425  0.4684745161983846
  0.0617987199910661  0.5543980786862437  0.4684652870229767
  0.5567729322906106  0.9374907332695230  0.4503536184016847
  0.4432099595619208  0.0625387248450888  0.4503620182826404
  0.9396853043443244  0.5753831864743820  0.4497969234703467
  0.0603223476841891  0.4245662882413913  0.4498008999902297
  0.4279144216509810  0.9319007685694629  0.4320028125776970
  0.5720762879791755  0.0681080013938302  0.4320179381799110
  0.9067237619252692  0.6556089758055507  0.5078155862653403
  0.0932815190982509  0.3443605185889309  0.5078326233309540
  0.3435480046751670  0.9075181264996908  0.4890783361005203
  0.6564395498097112  0.0924861296288176  0.4891044850733123
  0.8316309705628929  0.3991889850751936  0.4467444202870033
  0.1683614500720406  0.6007677394323016  0.4467200131013358
  0.6057489697480392  0.8271494875002045  0.4382354447051642
  0.3942413268777337  0.1728761145988116  0.4382444391677666
  0.7825761447059993  0.4670692527125251  0.3973536375086570
  0.2174156007515293  0.5328698622621912  0.3973335122293252
  0.5309215304332792  0.7594288041412318  0.4029303080922778
  0.4690824518826378  0.2405852911716679  0.4029483674263153
  0.8387803708029784  0.5735917223741631  0.4015829374269185
  0.1612289104441092  0.4263474740969979  0.4015809466889607
  0.4263191236858192  0.8123501160919332  0.3971734569436636
  0.5736840237817034  0.1876592129515940  0.3971941258620149
  0.7695541915743636  0.3791106657113916  0.5058228247574182
  0.2304399357406008  0.6208662517056508  0.5057899397193263
  0.6244904875315609  0.7757379343940912  0.5010870089947514
  0.3754908614725528  0.2242877306686299  0.5010997163314761
  0.6501979999455477  0.4081326973937211  0.5102850081727464
  0.3497974799817761  0.5918683965323073  0.5102596197943855
  0.5728445342667897  0.6661036202146703  0.5077271543620202
  0.4271601645375270  0.3339112993258643  0.5077472113635180
  0.6599318538049843  0.4751596828749218  0.3989187557043596
  0.3400627142883769  0.5248267084309448  0.3989057700901804
  0.5309418005520761  0.6406790820344099  0.4358717975918169
  0.4690655210900231  0.3593307051492484  0.4358946269806115
  0.8295308441676221  0.3973881765653354  0.5665818134592993
  0.1704680214947040  0.6026165434422113  0.5665526779525782
  0.6068416744874533  0.8417029550398670  0.5585248753293309
  0.3931254633730976  0.1583131495373488  0.5585333417331221
  0.7671950845991277  0.4744641316499946  0.6037494611104250
  0.2328030278017547  0.5255665825381085  0.6037369022671065
  0.5289709073512606  0.7876542210238051  0.6006711265514323
  0.4710031697518903  0.2123531821071225  0.6006838934444595
  0.6492273833648956  0.4758659428487196  0.5776758356330864
  0.3507768963965276  0.5241565082133804  0.5776685428762435
  0.5217201237721243  0.6684712847102207  0.5791908964420589
  0.4782735028529683  0.3315362555152425  0.5792065422984691
  0.8213733575614521  0.5781123072443706  0.6032980354529787
  0.1786354208370236  0.4219151767163914  0.6033133011034424
  0.4230028964231795  0.8405532280753462  0.5955337667299706
  0.5769587085968385  0.1594409273187164  0.5955470941029647
  0.7405162681693669  0.6395324802903514  0.5646761681981584
  0.2594905509256761  0.3604894295814651  0.5646992451130325
  0.3551926958921874  0.7566096503164292  0.5668369705530343
  0.6447873199449787  0.2433884870988139  0.5668627665753251
  0.6217973418854676  0.5978962067667177  0.5668106381918658
  0.3782081294852718  0.4021291681070573  0.5668211921842249
  0.4021449452209789  0.6393701008766435  0.5732466237147882
  0.5978491135957752  0.3606408923025340  0.5732728667901612
  0.6366138878829855  0.5835317074138459  0.4124474546821725
  0.3633951204977701  0.4164598239869104  0.4124610038666151
  0.4018802717191869  0.6134855902705658  0.4389566349086824
  0.5981169324338749  0.3865179158963599  0.4389815730944747
  0.7490130453671314  0.6331543410773779  0.4318523981808522
  0.2510043851439233  0.3668193315981054  0.4318715193216480
  0.3619330451275285  0.7364374411800040  0.4368085165959156
  0.6380604693714783  0.2635682329259418  0.4368305628042810
  0.7843123238721063  0.6641481496909371  0.4997869857452824
  0.2156992127102275  0.3358503842749579  0.4998100621942214
  0.3305650914487761  0.7879578765284371  0.4980133424825610
  0.6694219716404350  0.2120449884322384  0.4980404531588099
 
  0.00000000E+00  0.00000000E+00  0.00000000E+00
  0.00000000E+00  0.00000000E+00  0.00000000E+00
  0.00000000E+00  0.00000000E+00  0.00000000E+00
  0.00000000E+00  0.00000000E+00  0.00000000E+00
  0.00000000E+00  0.00000000E+00  0.00000000E+00
  0.00000000E+00  0.00000000E+00  0.00000000E+00
  0.00000000E+00  0.00000000E+00  0.00000000E+00
  0.00000000E+00  0.00000000E+00  0.00000000E+00
  0.00000000E+00  0.00000000E+00  0.00000000E+00
  0.00000000E+00  0.00000000E+00  0.00000000E+00
  0.00000000E+00  0.00000000E+00  0.00000000E+00
  0.00000000E+00  0.00000000E+00  0.00000000E+00
  0.00000000E+00  0.00000000E+00  0.00000000E+00
  0.00000000E+00  0.00000000E+00  0.00000000E+00
  0.00000000E+00  0.00000000E+00  0.00000000E+00
  0.00000000E+00  0.00000000E+00  0.00000000E+00
  0.00000000E+00  0.00000000E+00  0.00000000E+00
  0.00000000E+00  0.00000000E+00  0.00000000E+00
  0.00000000E+00  0.00000000E+00  0.00000000E+00
  0.00000000E+00  0.00000000E+00  0.00000000E+00
  0.00000000E+00  0.00000000E+00  0.00000000E+00
  0.00000000E+00  0.00000000E+00  0.00000000E+00
  0.00000000E+00  0.00000000E+00  0.00000000E+00
  0.00000000E+00  0.00000000E+00  0.00000000E+00
  0.00000000E+00  0.00000000E+00  0.00000000E+00
  0.00000000E+00  0.00000000E+00  0.00000000E+00
  0.00000000E+00  0.00000000E+00  0.00000000E+00
  0.00000000E+00  0.00000000E+00  0.00000000E+00
  0.00000000E+00  0.00000000E+00  0.00000000E+00
  0.00000000E+00  0.00000000E+00  0.00000000E+00
  0.00000000E+00  0.00000000E+00  0.00000000E+00
  0.00000000E+00  0.00000000E+00  0.00000000E+00
  0.00000000E+00  0.00000000E+00  0.00000000E+00
  0.00000000E+00  0.00000000E+00  0.00000000E+00
  0.00000000E+00  0.00000000E+00  0.00000000E+00
  0.00000000E+00  0.00000000E+00  0.00000000E+00
  0.00000000E+00  0.00000000E+00  0.00000000E+00
  0.00000000E+00  0.00000000E+00  0.00000000E+00
  0.00000000E+00  0.00000000E+00  0.00000000E+00
  0.00000000E+00  0.00000000E+00  0.00000000E+00
  0.00000000E+00  0.00000000E+00  0.00000000E+00
  0.00000000E+00  0.00000000E+00  0.00000000E+00
  0.00000000E+00  0.00000000E+00  0.00000000E+00
  0.00000000E+00  0.00000000E+00  0.00000000E+00
  0.00000000E+00  0.00000000E+00  0.00000000E+00
  0.00000000E+00  0.00000000E+00  0.00000000E+00
  0.00000000E+00  0.00000000E+00  0.00000000E+00
  0.00000000E+00  0.00000000E+00  0.00000000E+00
  0.00000000E+00  0.00000000E+00  0.00000000E+00
  0.00000000E+00  0.00000000E+00  0.00000000E+00
  0.00000000E+00  0.00000000E+00  0.00000000E+00
  0.00000000E+00  0.00000000E+00  0.00000000E+00
  0.00000000E+00  0.00000000E+00  0.00000000E+00
  0.00000000E+00  0.00000000E+00  0.00000000E+00
  0.00000000E+00  0.00000000E+00  0.00000000E+00
  0.00000000E+00  0.00000000E+00  0.00000000E+00
  0.00000000E+00  0.00000000E+00  0.00000000E+00
  0.00000000E+00  0.00000000E+00  0.00000000E+00
  0.00000000E+00  0.00000000E+00  0.00000000E+00
  0.00000000E+00  0.00000000E+00  0.00000000E+00
  0.00000000E+00  0.00000000E+00  0.00000000E+00
  0.00000000E+00  0.00000000E+00  0.00000000E+00
  0.00000000E+00  0.00000000E+00  0.00000000E+00
  0.00000000E+00  0.00000000E+00  0.00000000E+00
  0.00000000E+00  0.00000000E+00  0.00000000E+00
  0.00000000E+00  0.00000000E+00  0.00000000E+00
  0.00000000E+00  0.00000000E+00  0.00000000E+00
  0.00000000E+00  0.00000000E+00  0.00000000E+00
  0.00000000E+00  0.00000000E+00  0.00000000E+00
  0.00000000E+00  0.00000000E+00  0.00000000E+00
  0.00000000E+00  0.00000000E+00  0.00000000E+00
  0.00000000E+00  0.00000000E+00  0.00000000E+00
  0.00000000E+00  0.00000000E+00  0.00000000E+00
  0.00000000E+00  0.00000000E+00  0.00000000E+00
  0.00000000E+00  0.00000000E+00  0.00000000E+00
  0.00000000E+00  0.00000000E+00  0.00000000E+00
  0.00000000E+00  0.00000000E+00  0.00000000E+00
  0.00000000E+00  0.00000000E+00  0.00000000E+00
  0.00000000E+00  0.00000000E+00  0.00000000E+00
  0.00000000E+00  0.00000000E+00  0.00000000E+00
  0.00000000E+00  0.00000000E+00  0.00000000E+00
  0.00000000E+00  0.00000000E+00  0.00000000E+00
  0.00000000E+00  0.00000000E+00  0.00000000E+00
  0.00000000E+00  0.00000000E+00  0.00000000E+00
  0.00000000E+00  0.00000000E+00  0.00000000E+00
  0.00000000E+00  0.00000000E+00  0.00000000E+00
  0.00000000E+00  0.00000000E+00  0.00000000E+00
  0.00000000E+00  0.00000000E+00  0.00000000E+00
  0.00000000E+00  0.00000000E+00  0.00000000E+00
  0.00000000E+00  0.00000000E+00  0.00000000E+00
  0.00000000E+00  0.00000000E+00  0.00000000E+00
  0.00000000E+00  0.00000000E+00  0.00000000E+00
  0.00000000E+00  0.00000000E+00  0.00000000E+00
  0.00000000E+00  0.00000000E+00  0.00000000E+00
  0.00000000E+00  0.00000000E+00  0.00000000E+00
  0.00000000E+00  0.00000000E+00  0.00000000E+00
  0.00000000E+00  0.00000000E+00  0.00000000E+00
  0.00000000E+00  0.00000000E+00  0.00000000E+00
  0.00000000E+00  0.00000000E+00  0.00000000E+00
  0.00000000E+00  0.00000000E+00  0.00000000E+00
  0.00000000E+00  0.00000000E+00  0.00000000E+00
  0.00000000E+00  0.00000000E+00  0.00000000E+00
  0.00000000E+00  0.00000000E+00  0.00000000E+00
  0.00000000E+00  0.00000000E+00  0.00000000E+00
