C                                       
   1.00000000000000     
    12.1918254050803210    0.5665318816100656    0.0000000000000000
     0.5588629636233096   11.3756267674711342    0.0000000000000000
     0.0000000000000000    0.0000000000000000   16.0000000000000000
  C             
   104
Direct
  0.9795378062143775  0.1003093261167146  0.6231055825867416
  0.0712516051824925  0.1536174183643077  0.5748525962267899
  0.8627446481219067  0.1302872931173256  0.5805676429900622
  0.0097266165149281  0.1739714466099609  0.4905475359418286
  0.9022619457191821  0.1609290201377278  0.4916276810474602
  0.8337566521812771  0.0146086070259515  0.5521343824754984
  0.7844911599044371  0.0071423281223215  0.4667956790388273
  0.8435859002079472  0.1129388193590681  0.4139614415474632
  0.9153835715165799  0.9289656599210727  0.5738724547652583
  0.0062162781742652  0.9791603835826396  0.6130398982240639
  0.1054904593862625  0.9424839298779222  0.5630926266834761
  0.9362456564557182  0.8697772128928732  0.5011476356469023
  0.0313348911191543  0.7912320989305882  0.4714700103125785
  0.1348073741113506  0.8163263021612309  0.5270028580642613
  0.8482457504728023  0.8819194942895869  0.4359606461682009
  0.1833391871950893  0.0922391728895285  0.4594855435018091
  0.1398705221982956  0.0479618954337753  0.5402473099413359
  0.2116104620144270  0.9818199796013404  0.4151037699969691
  0.1129649469504907  0.9559365452870061  0.3742077935893212
  0.0411573245521326  0.8610118069149102  0.3857709574522523
  0.9320456837465813  0.9166189231192045  0.3731410517653114
  0.0845094036759878  0.1589653656096074  0.4142976059653131
  0.0411941410042664  0.0665727548064568  0.3605636792242200
  0.9321176982483332  0.0424292853339656  0.3628565363396846
  0.9527888514409496  0.6906088459289332  0.4808161220345411
  0.9396038592881094  0.6688718929077471  0.5797834340897298
  0.8274790086382440  0.7492017036639858  0.4508400181825524
  0.7718389696651144  0.7347128312659416  0.5327719992973494
  0.8356768385922843  0.7084581802342143  0.6070408957554674
  0.7724851544438875  0.6503591728674378  0.4032412526093625
  0.6588278121804902  0.6238698269597878  0.4440314342096916
  0.6965371472059150  0.6566293757042959  0.5295545163350012
  0.8431761997226010  0.5503168678748396  0.3989486327254408
  0.7884060535316999  0.4420288743218874  0.4357099897122875
  0.6656079247461404  0.4893099531528360  0.4549008385471141
  0.9546798400471034  0.5636688769432396  0.4425801407577213
  0.9198441837501600  0.5053828326207428  0.5216917745209440
  0.8392850121968721  0.4356744931201937  0.5190378571525804
  0.9578893347005735  0.5405199258355150  0.6058381586128756
  0.8449399569023515  0.5175099504569834  0.6485665552751253
  0.7840366508284328  0.4264629701312250  0.6010288629090299
  0.6606969156081739  0.4761561964763382  0.5882636023294934
  0.6589440831123797  0.6078530567840736  0.6102239035236489
  0.7763169413208942  0.6196863031317502  0.6527064717096321
  0.2947274824324416  0.9024691246865795  0.4609205483414453
  0.3303375927472595  0.9496463898963889  0.5468084111070017
  0.2463610143834454  0.7897818844814138  0.4853250528998785
  0.2475804680043547  0.7713396329258668  0.5812737388073718
  0.3108605580113261  0.8694123880934749  0.6089266465283389
  0.3274238542009055  0.6808085344465439  0.4459997663669253
  0.3883557431579320  0.6540113852919174  0.5270057870855847
  0.3289720148288895  0.6575279959609167  0.6090658381000601
  0.4258698821433260  0.7427728621672719  0.4060276524702110
  0.5453655258433762  0.7060588044575996  0.4516954141278806
  0.4952771143406278  0.6611102752555638  0.5293845466408177
  0.4056255102328444  0.8617714566456350  0.4228021620407876
  0.4887197587435543  0.9122028713381553  0.4718994177279543
  0.5652435644777017  0.8237684700971785  0.4950480255489400
  0.4448554607397163  0.9859136687887131  0.5501067452949175
  0.4938717626713070  0.9036317893012648  0.6235124791329477
  0.5614915146757152  0.8156805618515028  0.5864079553380113
  0.5434158934366611  0.6878536142560560  0.6131541542519440
  0.4270492763176763  0.7097282874263825  0.6616173072398219
  0.4068994376595149  0.8327127690173498  0.6569400481191683
  0.0740451498675139  0.5010543288497122  0.4354811489523693
  0.1139454292935758  0.5409312528155347  0.5193154492168450
  0.0737340489501090  0.3747167903787167  0.4620249896554416
  0.0776865033392154  0.3623318146234110  0.5457205085923379
  0.0789692747967502  0.4754041912392208  0.5950875269539057
  0.1439180240981107  0.2837117419202164  0.4169295951858342
  0.2114582451148407  0.2216831668776817  0.4894050906428579
  0.1471394529090898  0.2573606017398716  0.5738993337292129
  0.2276288300006376  0.3684222034073791  0.3799873163676948
  0.3437610551194845  0.3387032083516136  0.4213703404918540
  0.3099661825621895  0.2703964368098195  0.4949489039147105
  0.1895836830095798  0.4878984789930215  0.3883826424814127
  0.2751629596218182  0.5586894224021771  0.4380618781781513
  0.3531191751218415  0.4543841006150892  0.4670796848688428
  0.2149090794959950  0.5676528151925164  0.5204107083690858
  0.2796878401169568  0.5331848564465242  0.5983345222429283
  0.3564479011266848  0.4404713125495394  0.5519587749860229
  0.3479145268872261  0.3116888770306006  0.5772727807722603
  0.2341992430060887  0.3278187593128768  0.6227944671059179
  0.1969116847061074  0.4467750996997067  0.6360805455017673
  0.7590512290916730  0.2105645041383802  0.3754612037959757
  0.6819769912275387  0.1930927496473498  0.5207456632698759
  0.7533571703339565  0.3314087914568663  0.3921567565659166
  0.7407866180899699  0.3195582844361549  0.6327090668641561
  0.7550734840618020  0.2004070595058514  0.6035538804510175
  0.6380622834536305  0.3736781788307663  0.4105178448265714
  0.6169781665408419  0.2958364722926375  0.4875582408286355
  0.6291162199583369  0.3600787520132195  0.6342123776469190
  0.5672742302921951  0.2936803029292003  0.3662119182984217
  0.4603899971762071  0.2711560183253839  0.4126341351666640
  0.5075201666736269  0.2880513120246811  0.4975065096590175
  0.6419052587792550  0.1883043408446879  0.3579533296553674
  0.5930996672400560  0.1006045410780205  0.4072370591327814
  0.4894509456547039  0.1420090161362924  0.4404114999807328
  0.6693154736905423  0.0641667118075887  0.4778604252667055
  0.6046070720690155  0.0887092713565402  0.5552964329498749
  0.4834847002794305  0.1108866490015967  0.5371280311883339
  0.4645449729013416  0.2418868962730604  0.5801011483290441
  0.5606255910411843  0.2601842398707511  0.6399787806669536
  0.6406648708965558  0.1609530804651295  0.6234219219782983
 
  0.00000000E+00  0.00000000E+00  0.00000000E+00
  0.00000000E+00  0.00000000E+00  0.00000000E+00
  0.00000000E+00  0.00000000E+00  0.00000000E+00
  0.00000000E+00  0.00000000E+00  0.00000000E+00
  0.00000000E+00  0.00000000E+00  0.00000000E+00
  0.00000000E+00  0.00000000E+00  0.00000000E+00
  0.00000000E+00  0.00000000E+00  0.00000000E+00
  0.00000000E+00  0.00000000E+00  0.00000000E+00
  0.00000000E+00  0.00000000E+00  0.00000000E+00
  0.00000000E+00  0.00000000E+00  0.00000000E+00
  0.00000000E+00  0.00000000E+00  0.00000000E+00
  0.00000000E+00  0.00000000E+00  0.00000000E+00
  0.00000000E+00  0.00000000E+00  0.00000000E+00
  0.00000000E+00  0.00000000E+00  0.00000000E+00
  0.00000000E+00  0.00000000E+00  0.00000000E+00
  0.00000000E+00  0.00000000E+00  0.00000000E+00
  0.00000000E+00  0.00000000E+00  0.00000000E+00
  0.00000000E+00  0.00000000E+00  0.00000000E+00
  0.00000000E+00  0.00000000E+00  0.00000000E+00
  0.00000000E+00  0.00000000E+00  0.00000000E+00
  0.00000000E+00  0.00000000E+00  0.00000000E+00
  0.00000000E+00  0.00000000E+00  0.00000000E+00
  0.00000000E+00  0.00000000E+00  0.00000000E+00
  0.00000000E+00  0.00000000E+00  0.00000000E+00
  0.00000000E+00  0.00000000E+00  0.00000000E+00
  0.00000000E+00  0.00000000E+00  0.00000000E+00
  0.00000000E+00  0.00000000E+00  0.00000000E+00
  0.00000000E+00  0.00000000E+00  0.00000000E+00
  0.00000000E+00  0.00000000E+00  0.00000000E+00
  0.00000000E+00  0.00000000E+00  0.00000000E+00
  0.00000000E+00  0.00000000E+00  0.00000000E+00
  0.00000000E+00  0.00000000E+00  0.00000000E+00
  0.00000000E+00  0.00000000E+00  0.00000000E+00
  0.00000000E+00  0.00000000E+00  0.00000000E+00
  0.00000000E+00  0.00000000E+00  0.00000000E+00
  0.00000000E+00  0.00000000E+00  0.00000000E+00
  0.00000000E+00  0.00000000E+00  0.00000000E+00
  0.00000000E+00  0.00000000E+00  0.00000000E+00
  0.00000000E+00  0.00000000E+00  0.00000000E+00
  0.00000000E+00  0.00000000E+00  0.00000000E+00
  0.00000000E+00  0.00000000E+00  0.00000000E+00
  0.00000000E+00  0.00000000E+00  0.00000000E+00
  0.00000000E+00  0.00000000E+00  0.00000000E+00
  0.00000000E+00  0.00000000E+00  0.00000000E+00
  0.00000000E+00  0.00000000E+00  0.00000000E+00
  0.00000000E+00  0.00000000E+00  0.00000000E+00
  0.00000000E+00  0.00000000E+00  0.00000000E+00
  0.00000000E+00  0.00000000E+00  0.00000000E+00
  0.00000000E+00  0.00000000E+00  0.00000000E+00
  0.00000000E+00  0.00000000E+00  0.00000000E+00
  0.00000000E+00  0.00000000E+00  0.00000000E+00
  0.00000000E+00  0.00000000E+00  0.00000000E+00
  0.00000000E+00  0.00000000E+00  0.00000000E+00
  0.00000000E+00  0.00000000E+00  0.00000000E+00
  0.00000000E+00  0.00000000E+00  0.00000000E+00
  0.00000000E+00  0.00000000E+00  0.00000000E+00
  0.00000000E+00  0.00000000E+00  0.00000000E+00
  0.00000000E+00  0.00000000E+00  0.00000000E+00
  0.00000000E+00  0.00000000E+00  0.00000000E+00
  0.00000000E+00  0.00000000E+00  0.00000000E+00
  0.00000000E+00  0.00000000E+00  0.00000000E+00
  0.00000000E+00  0.00000000E+00  0.00000000E+00
  0.00000000E+00  0.00000000E+00  0.00000000E+00
  0.00000000E+00  0.00000000E+00  0.00000000E+00
  0.00000000E+00  0.00000000E+00  0.00000000E+00
  0.00000000E+00  0.00000000E+00  0.00000000E+00
  0.00000000E+00  0.00000000E+00  0.00000000E+00
  0.00000000E+00  0.00000000E+00  0.00000000E+00
  0.00000000E+00  0.00000000E+00  0.00000000E+00
  0.00000000E+00  0.00000000E+00  0.00000000E+00
  0.00000000E+00  0.00000000E+00  0.00000000E+00
  0.00000000E+00  0.00000000E+00  0.00000000E+00
  0.00000000E+00  0.00000000E+00  0.00000000E+00
  0.00000000E+00  0.00000000E+00  0.00000000E+00
  0.00000000E+00  0.00000000E+00  0.00000000E+00
  0.00000000E+00  0.00000000E+00  0.00000000E+00
  0.00000000E+00  0.00000000E+00  0.00000000E+00
  0.00000000E+00  0.00000000E+00  0.00000000E+00
  0.00000000E+00  0.00000000E+00  0.00000000E+00
  0.00000000E+00  0.00000000E+00  0.00000000E+00
  0.00000000E+00  0.00000000E+00  0.00000000E+00
  0.00000000E+00  0.00000000E+00  0.00000000E+00
  0.00000000E+00  0.00000000E+00  0.00000000E+00
  0.00000000E+00  0.00000000E+00  0.00000000E+00
  0.00000000E+00  0.00000000E+00  0.00000000E+00
  0.00000000E+00  0.00000000E+00  0.00000000E+00
  0.00000000E+00  0.00000000E+00  0.00000000E+00
  0.00000000E+00  0.00000000E+00  0.00000000E+00
  0.00000000E+00  0.00000000E+00  0.00000000E+00
  0.00000000E+00  0.00000000E+00  0.00000000E+00
  0.00000000E+00  0.00000000E+00  0.00000000E+00
  0.00000000E+00  0.00000000E+00  0.00000000E+00
  0.00000000E+00  0.00000000E+00  0.00000000E+00
  0.00000000E+00  0.00000000E+00  0.00000000E+00
  0.00000000E+00  0.00000000E+00  0.00000000E+00
  0.00000000E+00  0.00000000E+00  0.00000000E+00
  0.00000000E+00  0.00000000E+00  0.00000000E+00
  0.00000000E+00  0.00000000E+00  0.00000000E+00
  0.00000000E+00  0.00000000E+00  0.00000000E+00
  0.00000000E+00  0.00000000E+00  0.00000000E+00
  0.00000000E+00  0.00000000E+00  0.00000000E+00
  0.00000000E+00  0.00000000E+00  0.00000000E+00
  0.00000000E+00  0.00000000E+00  0.00000000E+00
  0.00000000E+00  0.00000000E+00  0.00000000E+00
