C 
 1.0000000000000000
    12.8764569725803923    0.0000000000000000    0.0000000000000000
    -6.4382284862902024   11.1513388489918839    0.0000000000000000
     0.0000000000000000    0.0000000000000000   16.0000000000000000
 C  
 108
Direct
  0.5065025008759880  0.8396920462078163  0.4384488429821679
  0.4713068238480618  0.7459862043918688  0.3778717922060666
  0.4147745775856560  0.8706089194595664  0.4489001349714926
  0.3419173337511475  0.6995525527375593  0.3618782334562437
  0.3073377396149665  0.7754884140254945  0.4053006418838296
  0.3817477698996634  0.8630929400875854  0.5350490744640433
  0.2549865822262837  0.7863816484031370  0.5453699718901797
  0.2097403168127780  0.7242232262303360  0.4642021940790085
  0.4385843483414824  0.8022998097498758  0.5783860763347922
  0.5148904352419451  0.7880050838537556  0.5192895246090001
  0.4986198626127551  0.6707364916411417  0.5031210057911534
  0.3459464224565097  0.6993156589713405  0.6213894762363611
  0.3296956075046607  0.5820948741207773  0.6052512360195937
  0.4059903677037621  0.5677838525006711  0.5461356505336912
  0.2299097413755399  0.6944793167807900  0.6055810700528351
  0.3683653236007502  0.5380392597725202  0.4032778460148376
  0.4800349424104347  0.6477875357074739  0.4118604078244706
  0.3281933587619381  0.4791656120750456  0.4824200004004594
  0.2086533158231833  0.4538121368584430  0.4997845404919960
  0.2034990884535094  0.5026313013891753  0.5790637647019284
  0.1520400069074415  0.5784011257379446  0.5708445788434829
  0.2789641960462871  0.5723535051994654  0.3774021548555868
  0.1814435517500931  0.5210555095504555  0.4363608063219241
  0.1468477863951619  0.5970209745477653  0.4797556907552316
  0.8160537346504240  0.4479120831597130  0.4310140179323945
  0.9292400755083908  0.5208868899441023  0.4713380818996720
  0.8290000341642839  0.3868158889723597  0.3604723669982046
  1.0126825546155866  0.4854012648283951  0.4344430622648334
  0.9514954962781683  0.4034595581594200  0.3668487189234099
  0.7483112723840107  0.2603637102399409  0.3667310651917811
  0.8118427597316671  0.1957106856739347  0.3600118379857246
  0.9409780190721192  0.2867399434821730  0.3664245935225131
  0.6991195131632416  0.2387345159531442  0.4528746350933832
  0.7405601849347452  0.3534604548441941  0.4921767648687919
  0.8051189221619126  0.3808057315751189  0.5700452473267799
  0.7221806906540074  0.1512282102863973  0.4914320074120914
  0.7866816886045476  0.1785379289237989  0.5692807477988440
  0.8281535085439341  0.2932850796675352  0.6085853177512752
  0.7859942397608644  0.1168532808448087  0.4297985168532603
  1.0119313091256630  0.4639395523228092  0.5812109314898215
  0.9217843684249769  0.4929046672049219  0.5584995445380299
  0.9594408165579196  0.3493577983817311  0.6215772762783134
  0.9947037625940403  0.2728228942615640  0.5807986619574707
  0.8916043889703043  0.1617740918105348  0.5572860927945985
  0.8944711295691433  0.1386761906590735  0.4699221740716721
  1.0632767420431199  0.4505960228708831  0.5016557483667810
  1.0526774712785048  0.3338430976232478  0.5013098521839261
  0.9915171015868105  0.2519257364915702  0.4336783574830708
  0.7550964173340325 -0.2814217424362113  0.5487805793631355
  0.8108579821796851 -0.2786497080447559  0.4692261905069997
  0.6464822836997677 -0.2799571622250843  0.5313949969501146
  0.6357326845709929 -0.2762535016918869  0.4411753055427560
  0.7352015307291772 -0.2805245512440169  0.4003609281279450
  0.6530793748170981 -0.1734285754228322  0.5692896654209589
  0.6541698392580195 -0.1012799887419342  0.4983293327669933
  0.6404856435431789 -0.1654526764720512  0.4206685164023435
  0.7738394872817895 -0.1069896569748780  0.6036338477395048
  0.8432155300215475  0.0099138484597103  0.5640490311096551
  0.7675421647833361  0.0080366457227127  0.4952083183900956
  0.8352073651596367 -0.1759182113533926  0.5984438012496445
  0.9379204124053565 -0.1051517050718179  0.5437641645891418
  0.9427001702628238  0.0056641840667022  0.5232501332013429
  0.9242309702441114 -0.1693340645950567  0.4661247498607334
  0.9253326226949998 -0.0971845348367051  0.3951655458668237
  0.9319245640655746  0.0093516021136932  0.4330373249378530
  0.8233001508061940  0.0108110676642192  0.4156538121104925
  0.7431925035298558 -0.0947003218663320  0.3659790082930311
  0.8045868457241300 -0.1636131797464994  0.3607867042991071
  0.1948150476044899  0.0355919789391809  0.6015374300634706
  0.0873162297820958 -0.0024207358189252  0.5517994870083440
  0.2874221072345161  0.1464165666312161  0.5671109767776299
  0.2366448050744916  0.1762724979573838  0.4962589303146683
  0.1095192944265349  0.0869152691570718  0.4873292065148571
  0.3873811608861418  0.1312573860200337  0.5395907887608205
  0.3899636232284927  0.1449637575597480  0.4487420091689399
  0.3002446301092027  0.1753860868075404  0.4228519267612447
  0.3458102468138137  0.0044758847159373  0.5526639010376810
  0.3387020603697750 -0.0560997941652111  0.4742271400052505
  0.3609368954290919  0.0332476594029545  0.4097730669319777
  0.2320701766468082 -0.0545772895674946  0.5973373210186163
  0.1480080295498164 -0.1445646457496142  0.5387157708309258
  0.2115883543524417 -0.1454760183278234  0.4653004889898704
  0.0583019744241090 -0.1141416637698152  0.5128456973573834
  0.0608752452069289 -0.1004465721950923  0.4219993897271025
  0.1608286625106109 -0.1155958236008407  0.3944572351850369
  0.2534431960354249 -0.0047615132336195  0.3600330784985347
  0.2161708585444158  0.0854070155723196  0.3642294342101910
  0.1024156055787401  0.0263281416125339  0.4088978662517363
  0.4885149092170172  0.3793326115644548  0.6209460081332863
  0.6182729259311873  0.4544983694661804  0.6215743804245212
  0.4592309974655090  0.2764182542905811  0.5701125434656161
  0.5710723782948788  0.2885677388630623  0.5395805238183786
  0.6728221896738056  0.3971721600155241  0.5738349842336750
  0.3847706387865492  0.2726119540579734  0.4998112745359369
  0.4590344954558476  0.2911106329563975  0.4259687226375055
  0.5709466310172542  0.2976652377989771  0.4501879428609822
  0.3797723794710315  0.3827628221623345  0.5072912722504037
  0.4336903042375991  0.4604768520469080  0.4351653732125166
  0.4882000618130758  0.4031277478889028  0.3874270742476716
  0.4338820221601372  0.4451822479047303  0.5850772143287198
  0.5355292675913441  0.5599671176695916  0.5588087569788380
  0.5354217553812747  0.5690928143276608  0.4694137688287149
  0.6474134834226644  0.5665112004079573  0.5830388065666071
  0.7216809338826519  0.5850206398126070  0.5092004706513364
  0.6472460573469865  0.5812149824068490  0.4388853097149117
  0.6179559020743164  0.4782899832598834  0.3880520707132176
  0.6726075668011855  0.4124465889530449  0.4239253703323399
  0.7267286033357016  0.4748926180238582  0.5017095549054614
