C 
 1.0000000000000000
    12.1134582050146733    0.0000000000000000    0.0000000000000000
     0.0000000000000000    9.6819950053374182    0.0000000000000000
     0.0000000000000000    0.0000000000000000   16.0000000000000000
 C  
  88
Direct
  0.1553605713640777  0.4639911797674256  0.6301706889701143
  0.0677179326287744  0.4256797134500408  0.5746492843261835
  0.2269385149286463  0.3490861530535787  0.6457654815243697
  0.0981940723003471  0.2881958339779455  0.5407334687766865
  0.1954427676568921  0.2414866147586882  0.5840408967358633
  0.3390218199048891  0.3844958847498867  0.6272175106760576
  0.3861049730612570  0.2879344358371386  0.5694079626905425
  0.2927071894373092  0.2040191957630247  0.5375259566027801
  0.3348722518335900  0.5187830979637272  0.5826225501746192
  0.2225306693171761  0.5673872098282986  0.5844427552005179
  0.1662810648221603  0.5998269297373213  0.5075995126706264
  0.3910775819770740  0.5026141770820050  0.5039391165331121
  0.3348710460402884  0.5350750255772420  0.4271243601517654
  0.2225072539974453  0.5836595723887452  0.4289359095785361
  0.4312708889564367  0.3579323881740921  0.4983669222502394
  0.0678172763436373  0.4409616861756648  0.4277974396872839
  0.0630815604772476  0.5171564848699373  0.5044449523971988
  0.1553605713640777  0.4906157124542181  0.3755847550924840
  0.2269863582518787  0.3799277813365794  0.3514377910509076
  0.3390655907866953  0.4111901303372359  0.3726711599910792
  0.3862716345101882  0.3032843265758309  0.4225237225778825
  0.0982280078628277  0.2975477258884724  0.4509086429899460
  0.1955046497913154  0.2602334758869010  0.4043666751152196
  0.2927421085378349  0.2134670214830550  0.4476971830851607
 -0.1553605713640781  0.4639911797674256  0.6301706889701143
 -0.0677179326287747  0.4256797134500408  0.5746492843261835
 -0.2269385149286466  0.3490861530535787  0.6457654815243697
 -0.0981940723003472  0.2881958339779455  0.5407334687766865
 -0.1954427676568923  0.2414866147586882  0.5840408967358633
 -0.3390218199048894  0.3844958847498867  0.6272175106760576
 -0.3861049730612572  0.2879344358371386  0.5694079626905425
 -0.2927071894373094  0.2040191957630247  0.5375259566027801
 -0.3348722518335903  0.5187830979637272  0.5826225501746192
 -0.2225306693171763  0.5673872098282986  0.5844427552005179
 -0.1662810648221605  0.5998269297373213  0.5075995126706264
 -0.3910775819770741  0.5026141770820050  0.5039391165331121
 -0.3348710460402887  0.5350750255772420  0.4271243601517654
 -0.2225072539974455  0.5836595723887452  0.4289359095785361
 -0.4312708889564368  0.3579323881740921  0.4983669222502394
 -0.0678172763436376  0.4409616861756648  0.4277974396872839
 -0.0630815604772478  0.5171564848699373  0.5044449523971988
 -0.1553605713640780  0.4906157124542181  0.3755847550924840
 -0.2269863582518790  0.3799277813365794  0.3514377910509076
 -0.3390655907866953  0.4111901303372359  0.3726711599910792
 -0.3862716345101883  0.3032843265758309  0.4225237225778825
 -0.0982280078628280  0.2975477258884724  0.4509086429899460
 -0.1955046497913158  0.2602334758869010  0.4043666751152196
 -0.2927421085378350  0.2134670214830550  0.4476971830851607
  0.3232860154525974  1.0441215469994063  0.4574574248645447
  0.2154873928560614  1.0801512106525166  0.4907966601785747
  0.3106281408136696  0.9203640199250281  0.4090107483204901
  0.1950602175396307  0.8805630369424579  0.4126962927422642
  0.1323718152744944  0.9824147928241157  0.4607555066263120
  0.3795976740161560  0.8111894826016364  0.4446193837327357
  0.3010559429778357  0.7081209372526341  0.4751277262891255
  0.1891227431206418  0.7489314445749137  0.4536901642331878
  0.4261617356574275  0.8720455084864716  0.5200389206384659
  0.3908550130764661  0.7980212661067979  0.5946159279256528
  0.3077723880797890  0.7002758306646201  0.5645641187685423
  0.4008181954921033  1.0187508554531033  0.5258450473284175
  0.3341357930289710  1.0314912119898159  0.6016764121958070
  0.3281893992501165  0.8998688264449859  0.6426883519619528
  0.2222290237858025  1.0723131561282633  0.5802314159899211
  0.1436879448062899  0.9692558871171000  0.6107451697239383
  0.2126296335827243  0.8600607953912347  0.6463558302486767
  0.1999743863150057  0.7362987631680218  0.5979025035552969
  0.1224253649040935  0.7616792865748319  0.5295147342363115
  0.0970795328298971  0.9083940429070441  0.5353385753214935
  0.6767139845474023  1.0441215469994063  0.4574574248645447
  0.7845126071439383  1.0801512106525166  0.4907966601785747
  0.6893718591863301  0.9203640199250281  0.4090107483204901
  0.8049397824603690  0.8805630369424579  0.4126962927422642
  0.8676281847255054  0.9824147928241157  0.4607555066263120
  0.6204023259838437  0.8111894826016364  0.4446193837327357
  0.6989440570221641  0.7081209372526341  0.4751277262891255
  0.8108772568793579  0.7489314445749137  0.4536901642331878
  0.5738382643425721  0.8720455084864716  0.5200389206384659
  0.6091449869235337  0.7980212661067979  0.5946159279256528
  0.6922276119202108  0.7002758306646201  0.5645641187685423
  0.5991818045078964  1.0187508554531033  0.5258450473284175
  0.6658642069710287  1.0314912119898159  0.6016764121958070
  0.6718106007498832  0.8998688264449859  0.6426883519619528
  0.7777709762141972  1.0723131561282633  0.5802314159899211
  0.8563120551937099  0.9692558871171000  0.6107451697239383
  0.7873703664172754  0.8600607953912347  0.6463558302486767
  0.8000256136849939  0.7362987631680218  0.5979025035552969
  0.8775746350959063  0.7616792865748319  0.5295147342363115
  0.9029204671701027  0.9083940429070441  0.5353385753214935
