C                                       
   1.00000000000000     
    12.1472835854022012    0.0000103670737988    0.0000000000000000
    -0.0000189484432357    9.5284403504063722    0.0000000000000000
     0.0000000000000000    0.0000000000000000   16.0000000000000000
  C             
    88
Direct
  0.2979760087810476  0.8444566400062021  0.5756301675928990
  0.3387492652997375  0.8963900903475513  0.4877222472087392
  0.2656860979302115  0.9789855451642284  0.6232130722898724
  0.3193371984129578  0.0543875815343990  0.4880258962756565
  0.2754151837704683  0.1152126031076699  0.5719379573450006
  0.1579004527606303  0.9729761872791071  0.6529555888454273
  0.0937361673853681  0.0998245469602711  0.6422897006859750
  0.1601596639638483  0.1875239135593025  0.5815525059484149
  0.0998279711492922  0.8575985995224944  0.6123364079497968
  0.1808085116932136  0.7739628487779628  0.5638251942712896
  0.1672172419081133  0.8001432196024654  0.4732651638035570
  0.0067747983486673  0.9141770899535542  0.5749884869988634
  0.9757588603341758  0.8879276276494719  0.4851026068990733
  0.0661285440990612  0.8161984649360190  0.4274435778579170
  0.9983402937035217  0.0617586544003551  0.5981800368804051
  0.2148700420645844  0.9482114634434827  0.3705899281067805
  0.2544524665233443  0.8477023607633586  0.4306573649649900
  0.0945159527136035  0.9269701307427849  0.3626128907526087
  0.0409719344862899  0.0484583933757267  0.3871546927782606
  0.9423570067443333  0.0322569440996514  0.4484251786228260
  0.9785246465766598  0.1516113406383187  0.5210807453144974
  0.2399365724273536  0.0742908252320641  0.4104122393969193
  0.1306084013163033  0.1320519997734330  0.4246545670821456
  0.0969837237377784  0.1652554807273655  0.5028805955491013
  0.2020174491861656  0.3444560402961631  0.5756351386599579
  0.1612496959172664  0.3963866110135012  0.4877240955756650
  0.2343063376919667  0.4789920483619314  0.6232117784949054
  0.1806618072275150  0.5543856917780695  0.4880218124977305
  0.2245837007858867  0.6152216353635742  0.5719268013566489
  0.3420931965394414  0.4729874432933850  0.6529564948890405
  0.4062582178361052  0.5998312971698144  0.6422871986219910
  0.3398345417208913  0.6875238056796809  0.5815438972850718
  0.4001657671588068  0.3576058375192180  0.6123478205333222
  0.3191887270398338  0.2739669962239332  0.5638361682193161
  0.3327813083115081  0.3001457623625484  0.4732761808931363
  0.4932188899524348  0.4141848491323963  0.5749978165643964
  0.5242426979036238  0.3879295326076710  0.4851159775444354
  0.4338766999171259  0.3161939316667660  0.4274576251480824
  0.5016542914894822  0.5617637377167712  0.5981808980570310
  0.2851344475767297  0.4481971814482491  0.3705936020660544
  0.2455594449060920  0.3476904773086452  0.4306681329419982
  0.4054900452280620  0.4269539052893148  0.3626186704773451
  0.4590304214629318  0.5484494089905902  0.3871569242369486
  0.5576438090834589  0.5322459963505536  0.4484322822561992
  0.5214734812769674  0.6516093661926223  0.5210815937861301
  0.2600658782460243  0.5742846765527279  0.4104064324884996
  0.3693945279905048  0.6320478000477090  0.4246502134132792
  0.4030158078328863  0.6652579952523104  0.5028783715243418
  0.5588030659206790  0.8216402231919347  0.5158416252312903
  0.4678528883262110  0.9093939421287976  0.4614664700360383
  0.5885543621954222  0.9409599293916293  0.5768163238536856
  0.5296226740876213  0.0660421056368298  0.5636514539947765
  0.4487534225768328  0.0658323413549200  0.4902111903891931
  0.7052744792436906  0.9843007083919711  0.5687428938765795
  0.7163334783942065  0.1341088096099637  0.5552388356135578
  0.6083501414866760  0.1774216307976597  0.5508882342247701
  0.7511304300260239  0.9218079218268609  0.5011055562236090
  0.8127665352572851  0.0256198567261703  0.4387379522211716
  0.7743590054134877  0.1712271468894269  0.4708430361477532
  0.6680523724367737  0.8112090197632698  0.4660701679860301
  0.6472250497337230  0.8865443199075927  0.3851740596415929
  0.7255758587951950  0.9935779868288580  0.3683534516469487
  0.5340405069128880  0.9387659698129779  0.3807652237137910
  0.5404218457279469  0.0817519258011975  0.3605495400015788
  0.6565817023847732  0.1160630809986940  0.3544850542489437
  0.6793252338890329  0.2064744973514048  0.4181337011537289
  0.5872231448688255  0.2518827734693361  0.4714353712891597
  0.4924461931977248  0.1735206292970956  0.4270519361521165
  0.9411991924788414  0.3216443476072655  0.5158449025178874
  0.0321467576120101  0.4093911633905845  0.4614638989824364
  0.9114511053899033  0.4409762045690959  0.5768138888150347
  0.9703816400728608  0.5660534733688928  0.5636385300309470
  0.0512483198674434  0.5658352889758593  0.4901987880797089
  0.7947299257763464  0.4843177916014241  0.5687426121213714
  0.7836693622973655  0.6341222949239660  0.5552277706830869
  0.8916529693494637  0.6774274115135670  0.5508706841218043
  0.7488717890796811  0.4218094030599002  0.5011095432775452
  0.6872354529017048  0.5256156760121968  0.4387372897088545
  0.7256435320020520  0.6712295518176919  0.4708294181513840
  0.8319477454760257  0.3112088582572092  0.4660801593972686
  0.8527740365704188  0.3865292293313876  0.3851771815635320
  0.7744219045098848  0.4935562738911289  0.3683526542724835
  0.9659574247854484  0.4387517720409134  0.3807634047852542
  0.9595776270373038  0.5817334590019569  0.3605382219631197
  0.8434162369128918  0.6160431232361033  0.3544752849658893
  0.8206743886735209  0.7064685037877891  0.4181186565398627
  0.9127772894599733  0.7518840457417727  0.4714129189764633
  0.0075527104595873  0.6735215713135920  0.4270337888176662
 
  0.00000000E+00  0.00000000E+00  0.00000000E+00
  0.00000000E+00  0.00000000E+00  0.00000000E+00
  0.00000000E+00  0.00000000E+00  0.00000000E+00
  0.00000000E+00  0.00000000E+00  0.00000000E+00
  0.00000000E+00  0.00000000E+00  0.00000000E+00
  0.00000000E+00  0.00000000E+00  0.00000000E+00
  0.00000000E+00  0.00000000E+00  0.00000000E+00
  0.00000000E+00  0.00000000E+00  0.00000000E+00
  0.00000000E+00  0.00000000E+00  0.00000000E+00
  0.00000000E+00  0.00000000E+00  0.00000000E+00
  0.00000000E+00  0.00000000E+00  0.00000000E+00
  0.00000000E+00  0.00000000E+00  0.00000000E+00
  0.00000000E+00  0.00000000E+00  0.00000000E+00
  0.00000000E+00  0.00000000E+00  0.00000000E+00
  0.00000000E+00  0.00000000E+00  0.00000000E+00
  0.00000000E+00  0.00000000E+00  0.00000000E+00
  0.00000000E+00  0.00000000E+00  0.00000000E+00
  0.00000000E+00  0.00000000E+00  0.00000000E+00
  0.00000000E+00  0.00000000E+00  0.00000000E+00
  0.00000000E+00  0.00000000E+00  0.00000000E+00
  0.00000000E+00  0.00000000E+00  0.00000000E+00
  0.00000000E+00  0.00000000E+00  0.00000000E+00
  0.00000000E+00  0.00000000E+00  0.00000000E+00
  0.00000000E+00  0.00000000E+00  0.00000000E+00
  0.00000000E+00  0.00000000E+00  0.00000000E+00
  0.00000000E+00  0.00000000E+00  0.00000000E+00
  0.00000000E+00  0.00000000E+00  0.00000000E+00
  0.00000000E+00  0.00000000E+00  0.00000000E+00
  0.00000000E+00  0.00000000E+00  0.00000000E+00
  0.00000000E+00  0.00000000E+00  0.00000000E+00
  0.00000000E+00  0.00000000E+00  0.00000000E+00
  0.00000000E+00  0.00000000E+00  0.00000000E+00
  0.00000000E+00  0.00000000E+00  0.00000000E+00
  0.00000000E+00  0.00000000E+00  0.00000000E+00
  0.00000000E+00  0.00000000E+00  0.00000000E+00
  0.00000000E+00  0.00000000E+00  0.00000000E+00
  0.00000000E+00  0.00000000E+00  0.00000000E+00
  0.00000000E+00  0.00000000E+00  0.00000000E+00
  0.00000000E+00  0.00000000E+00  0.00000000E+00
  0.00000000E+00  0.00000000E+00  0.00000000E+00
  0.00000000E+00  0.00000000E+00  0.00000000E+00
  0.00000000E+00  0.00000000E+00  0.00000000E+00
  0.00000000E+00  0.00000000E+00  0.00000000E+00
  0.00000000E+00  0.00000000E+00  0.00000000E+00
  0.00000000E+00  0.00000000E+00  0.00000000E+00
  0.00000000E+00  0.00000000E+00  0.00000000E+00
  0.00000000E+00  0.00000000E+00  0.00000000E+00
  0.00000000E+00  0.00000000E+00  0.00000000E+00
  0.00000000E+00  0.00000000E+00  0.00000000E+00
  0.00000000E+00  0.00000000E+00  0.00000000E+00
  0.00000000E+00  0.00000000E+00  0.00000000E+00
  0.00000000E+00  0.00000000E+00  0.00000000E+00
  0.00000000E+00  0.00000000E+00  0.00000000E+00
  0.00000000E+00  0.00000000E+00  0.00000000E+00
  0.00000000E+00  0.00000000E+00  0.00000000E+00
  0.00000000E+00  0.00000000E+00  0.00000000E+00
  0.00000000E+00  0.00000000E+00  0.00000000E+00
  0.00000000E+00  0.00000000E+00  0.00000000E+00
  0.00000000E+00  0.00000000E+00  0.00000000E+00
  0.00000000E+00  0.00000000E+00  0.00000000E+00
  0.00000000E+00  0.00000000E+00  0.00000000E+00
  0.00000000E+00  0.00000000E+00  0.00000000E+00
  0.00000000E+00  0.00000000E+00  0.00000000E+00
  0.00000000E+00  0.00000000E+00  0.00000000E+00
  0.00000000E+00  0.00000000E+00  0.00000000E+00
  0.00000000E+00  0.00000000E+00  0.00000000E+00
  0.00000000E+00  0.00000000E+00  0.00000000E+00
  0.00000000E+00  0.00000000E+00  0.00000000E+00
  0.00000000E+00  0.00000000E+00  0.00000000E+00
  0.00000000E+00  0.00000000E+00  0.00000000E+00
  0.00000000E+00  0.00000000E+00  0.00000000E+00
  0.00000000E+00  0.00000000E+00  0.00000000E+00
  0.00000000E+00  0.00000000E+00  0.00000000E+00
  0.00000000E+00  0.00000000E+00  0.00000000E+00
  0.00000000E+00  0.00000000E+00  0.00000000E+00
  0.00000000E+00  0.00000000E+00  0.00000000E+00
  0.00000000E+00  0.00000000E+00  0.00000000E+00
  0.00000000E+00  0.00000000E+00  0.00000000E+00
  0.00000000E+00  0.00000000E+00  0.00000000E+00
  0.00000000E+00  0.00000000E+00  0.00000000E+00
  0.00000000E+00  0.00000000E+00  0.00000000E+00
  0.00000000E+00  0.00000000E+00  0.00000000E+00
  0.00000000E+00  0.00000000E+00  0.00000000E+00
  0.00000000E+00  0.00000000E+00  0.00000000E+00
  0.00000000E+00  0.00000000E+00  0.00000000E+00
  0.00000000E+00  0.00000000E+00  0.00000000E+00
  0.00000000E+00  0.00000000E+00  0.00000000E+00
  0.00000000E+00  0.00000000E+00  0.00000000E+00
