C                                       
   1.00000000000000     
    11.0683258643075266    0.2920893372941297    0.0000000000000000
     0.2763008870118432   11.5935958981367797    0.0000000000000000
     0.0000000000000000    0.0000000000000000   16.0000000000000000
  C             
    88
Direct
  0.3904990856027480  0.0637708198530290  0.5837202033921279
  0.5122374096111074  0.0770279160011205  0.6168471729470394
  0.3603524209230538  0.1394235549382996  0.5180918688049186
  0.5683706707893900  0.1403351639719709  0.5565414725059661
  0.4808577897075821  0.1935417375474817  0.4949097867300252
  0.3018679356338707  0.0746900753052131  0.4465041706302586
  0.3899036213888138  0.0835791800401910  0.3800623792156136
  0.4951254945823950  0.1392780372991894  0.4072878110038023
  0.3196478573025216  0.9372750046787174  0.4783733865535589
  0.3845779758530184  0.9455097852170933  0.5601499936770975
  0.5011622178697883  0.8947580881974228  0.5802292667868305
  0.4058626586051241  0.8847917706022741  0.4103348607913008
  0.5296780896277223  0.8135850771919172  0.4264265006027901
  0.5710893902765171  0.8452620976638304  0.5129007911291031
  0.4322966636432765  0.9704919407034605  0.3527486154347989
  0.6945366514563008  0.9702375023099769  0.5829517486956056
  0.5753874823974254  0.9668210463262921  0.6302320902518832
  0.6876505125245180  0.8808908345140994  0.5150899551658549
  0.7250984578532930  0.9188717349395267  0.4288871454552018
  0.6234170731075624  0.8788829092096666  0.3751366950735627
  0.5628050354603363  0.9732866171226467  0.3403946645213286
  0.6814960270369163  0.0856529078687186  0.5279241003268422
  0.7016817848942545  0.0552771020304034  0.4334556513131255
  0.6001847532326546  0.0819350647843577  0.3765972014905810
  0.0937184174974390  0.5796146136321787  0.6405757392186258
  0.9625476963089159  0.5703121653561894  0.6524757551048491
  0.1508467900596086  0.4684414755160617  0.6323741981094557
  0.9296593207726009  0.4532656789894060  0.6310112040827439
  0.0438326669949842  0.4007532716058411  0.6113849757128078
  0.2289718938387855  0.4751156178473293  0.5558560890269885
  0.1683200885324367  0.4015832234061562  0.4951964174641775
  0.0613996859160822  0.3657096338620874  0.5271708346322785
  0.2048300337878280  0.6014732240551022  0.5111764963898534
  0.1158289962742589  0.6562040080518921  0.5748413533416862
  0.9931684078959155  0.7148351659017994  0.5524253014369780
  0.1414055462850863  0.5760778367605441  0.4296926019848874
  0.0204851969311517  0.6159079152514051  0.4099428596054748
  0.9466335758140283  0.6754216051212711  0.4669776990609187
  0.1401635100580694  0.4555716704097021  0.4171838805101373
  0.8012392423496114  0.5948736483723945  0.5609731038264303
  0.8985126178753232  0.6539057868956315  0.6080813099584408
  0.8222782162660066  0.6288797005184079  0.4695473221159819
  0.8364668758698000  0.5206234094008853  0.4155955502107523
  0.9546366748746202  0.5180860963850323  0.3746112636936291
  0.0238742779712272  0.4176640504694994  0.3886469816984811
  0.8248331540943993  0.4593028174546968  0.5680662130710445
  0.8462329488746907  0.4125278530617710  0.4758529764010199
  0.9695421225307281  0.3432521481273968  0.4605626819057695
  0.1057985776840484  0.1081615024899526  0.5852762382732946
  0.1426372925996732  0.9864733413873651  0.5847678159707375
  0.9830294495847655  0.1209112611783902  0.6191327351434269
  0.9445796678996210  0.0067215303856579  0.6401763938628852
  0.0413247944879159  0.9282073892536401  0.6142705810253767
  0.9096116559836653  0.1775806217292842  0.5595928322648649
  0.8164709970304430  0.1004139715788585  0.5373979002618359
  0.8324362630275912  0.9864212327746428  0.5900416006304441
  0.9813912113427882  0.2117145489390127  0.4798801705228335
  0.9491227806116126  0.1242864925482381  0.4161560514284412
  0.8399910964693714  0.0669961772392747  0.4419677928073107
  0.1070112749600935  0.1561792533531339  0.5063541829806556
  0.1618852839628374  0.0689051868479836  0.4467711653702223
  0.0446918903342743  0.0467597590868987  0.3969664704572990
  0.1798652239087519  0.9493191123673880  0.4959459490654994
  0.0748971876030807  0.8808502328714297  0.4735523076159470
  0.0022115653370091  0.9302816876970927  0.4122317735248054
  0.8679162868715921  0.9354686504756266  0.4387294742342317
  0.8787633667515716  0.8965571254581275  0.5287760776450282
  0.0005698822940876  0.8444080179591569  0.5486410179579250
  0.5107186730105077  0.3195779833035778  0.4958177431747168
  0.6001446424832287  0.3430134221437022  0.4262657280615616
  0.5605602160640022  0.3924767166828366  0.5694138145481932
  0.6804177144902486  0.4448766143740101  0.5500570415569345
  0.7038384658811550  0.4066676256904369  0.4570009682128973
  0.4777861280581973  0.4833334694803064  0.5846553666163882
  0.5295156239253758  0.5953107053420881  0.5708008766373142
  0.6608999011545081  0.5798078239033129  0.5480648675262073
  0.3616842298689458  0.4765647504869473  0.5362280867193050
  0.3494770493732924  0.5936467454718699  0.4857019508040893
  0.4635478841253835  0.6499379643306286  0.5083271976854847
  0.4024641330171503  0.3914449019905894  0.4717890132864865
  0.4103331475060882  0.4327045280979701  0.3919282747734339
  0.3873307089193023  0.5560125905340983  0.3953600073176200
  0.5361363616917998  0.4057591234418611  0.3637375269131583
  0.5884490345210577  0.5128782508330817  0.3462849480966388
  0.4985987072498322  0.6007555939556161  0.3692024987239061
  0.5415227497763426  0.6836813786695758  0.4331991445975830
  0.6707837786969640  0.6253498981200735  0.4568713664179824
  0.6981754438849538  0.5182157944382791  0.4013518072456270
 
  0.00000000E+00  0.00000000E+00  0.00000000E+00
  0.00000000E+00  0.00000000E+00  0.00000000E+00
  0.00000000E+00  0.00000000E+00  0.00000000E+00
  0.00000000E+00  0.00000000E+00  0.00000000E+00
  0.00000000E+00  0.00000000E+00  0.00000000E+00
  0.00000000E+00  0.00000000E+00  0.00000000E+00
  0.00000000E+00  0.00000000E+00  0.00000000E+00
  0.00000000E+00  0.00000000E+00  0.00000000E+00
  0.00000000E+00  0.00000000E+00  0.00000000E+00
  0.00000000E+00  0.00000000E+00  0.00000000E+00
  0.00000000E+00  0.00000000E+00  0.00000000E+00
  0.00000000E+00  0.00000000E+00  0.00000000E+00
  0.00000000E+00  0.00000000E+00  0.00000000E+00
  0.00000000E+00  0.00000000E+00  0.00000000E+00
  0.00000000E+00  0.00000000E+00  0.00000000E+00
  0.00000000E+00  0.00000000E+00  0.00000000E+00
  0.00000000E+00  0.00000000E+00  0.00000000E+00
  0.00000000E+00  0.00000000E+00  0.00000000E+00
  0.00000000E+00  0.00000000E+00  0.00000000E+00
  0.00000000E+00  0.00000000E+00  0.00000000E+00
  0.00000000E+00  0.00000000E+00  0.00000000E+00
  0.00000000E+00  0.00000000E+00  0.00000000E+00
  0.00000000E+00  0.00000000E+00  0.00000000E+00
  0.00000000E+00  0.00000000E+00  0.00000000E+00
  0.00000000E+00  0.00000000E+00  0.00000000E+00
  0.00000000E+00  0.00000000E+00  0.00000000E+00
  0.00000000E+00  0.00000000E+00  0.00000000E+00
  0.00000000E+00  0.00000000E+00  0.00000000E+00
  0.00000000E+00  0.00000000E+00  0.00000000E+00
  0.00000000E+00  0.00000000E+00  0.00000000E+00
  0.00000000E+00  0.00000000E+00  0.00000000E+00
  0.00000000E+00  0.00000000E+00  0.00000000E+00
  0.00000000E+00  0.00000000E+00  0.00000000E+00
  0.00000000E+00  0.00000000E+00  0.00000000E+00
  0.00000000E+00  0.00000000E+00  0.00000000E+00
  0.00000000E+00  0.00000000E+00  0.00000000E+00
  0.00000000E+00  0.00000000E+00  0.00000000E+00
  0.00000000E+00  0.00000000E+00  0.00000000E+00
  0.00000000E+00  0.00000000E+00  0.00000000E+00
  0.00000000E+00  0.00000000E+00  0.00000000E+00
  0.00000000E+00  0.00000000E+00  0.00000000E+00
  0.00000000E+00  0.00000000E+00  0.00000000E+00
  0.00000000E+00  0.00000000E+00  0.00000000E+00
  0.00000000E+00  0.00000000E+00  0.00000000E+00
  0.00000000E+00  0.00000000E+00  0.00000000E+00
  0.00000000E+00  0.00000000E+00  0.00000000E+00
  0.00000000E+00  0.00000000E+00  0.00000000E+00
  0.00000000E+00  0.00000000E+00  0.00000000E+00
  0.00000000E+00  0.00000000E+00  0.00000000E+00
  0.00000000E+00  0.00000000E+00  0.00000000E+00
  0.00000000E+00  0.00000000E+00  0.00000000E+00
  0.00000000E+00  0.00000000E+00  0.00000000E+00
  0.00000000E+00  0.00000000E+00  0.00000000E+00
  0.00000000E+00  0.00000000E+00  0.00000000E+00
  0.00000000E+00  0.00000000E+00  0.00000000E+00
  0.00000000E+00  0.00000000E+00  0.00000000E+00
  0.00000000E+00  0.00000000E+00  0.00000000E+00
  0.00000000E+00  0.00000000E+00  0.00000000E+00
  0.00000000E+00  0.00000000E+00  0.00000000E+00
  0.00000000E+00  0.00000000E+00  0.00000000E+00
  0.00000000E+00  0.00000000E+00  0.00000000E+00
  0.00000000E+00  0.00000000E+00  0.00000000E+00
  0.00000000E+00  0.00000000E+00  0.00000000E+00
  0.00000000E+00  0.00000000E+00  0.00000000E+00
  0.00000000E+00  0.00000000E+00  0.00000000E+00
  0.00000000E+00  0.00000000E+00  0.00000000E+00
  0.00000000E+00  0.00000000E+00  0.00000000E+00
  0.00000000E+00  0.00000000E+00  0.00000000E+00
  0.00000000E+00  0.00000000E+00  0.00000000E+00
  0.00000000E+00  0.00000000E+00  0.00000000E+00
  0.00000000E+00  0.00000000E+00  0.00000000E+00
  0.00000000E+00  0.00000000E+00  0.00000000E+00
  0.00000000E+00  0.00000000E+00  0.00000000E+00
  0.00000000E+00  0.00000000E+00  0.00000000E+00
  0.00000000E+00  0.00000000E+00  0.00000000E+00
  0.00000000E+00  0.00000000E+00  0.00000000E+00
  0.00000000E+00  0.00000000E+00  0.00000000E+00
  0.00000000E+00  0.00000000E+00  0.00000000E+00
  0.00000000E+00  0.00000000E+00  0.00000000E+00
  0.00000000E+00  0.00000000E+00  0.00000000E+00
  0.00000000E+00  0.00000000E+00  0.00000000E+00
  0.00000000E+00  0.00000000E+00  0.00000000E+00
  0.00000000E+00  0.00000000E+00  0.00000000E+00
  0.00000000E+00  0.00000000E+00  0.00000000E+00
  0.00000000E+00  0.00000000E+00  0.00000000E+00
  0.00000000E+00  0.00000000E+00  0.00000000E+00
  0.00000000E+00  0.00000000E+00  0.00000000E+00
  0.00000000E+00  0.00000000E+00  0.00000000E+00
