C                                       
   1.00000000000000     
    15.1494835133927914   -0.4973925142356183    0.0000000000000000
    -7.9874532460350922   12.6915361368369624    0.0000000000000000
     0.0000000000000000    0.0000000000000000   16.0000000000000000
  C             
   128
Direct
  0.3082594186312909  0.7833841136979940  0.5706328959809605
  0.2762050614208361  0.6782385803628778  0.6076821011812260
  0.4268359188747580  0.8496542467116647  0.5562175992400729
  0.3676006523302059  0.6671434230754170  0.5933493857049865
  0.4506512881977907  0.7603547818136484  0.5602281449062443
  0.4018669184938419  0.8251836539484780  0.4633844162401887
  0.4958155455122165  0.8333093719060950  0.4236146905000334
  0.5196755057242952  0.7631738267178416  0.4889244065654879
  0.3057164713571074  0.8061320130449876  0.3998382435073718
  0.2836705109129040  0.7398692162708518  0.4751568966696230
  0.1766079289416995  0.6303656144129696  0.4806052217141627
  0.3271708467029797  0.7379462902616777  0.3418771842696884
  0.2558489309326239  0.6205795277527401  0.3468613305097926
  0.1813263307627888  0.5634195305634404  0.4110276995752496
  0.4309412071373721  0.7576269997052389  0.3525343882341510
  0.2249337076443093  0.5250802865549219  0.5354599075610997
  0.1922840506970325  0.5920268508922348  0.5634557457141051
  0.1853539048244898  0.4741437083997947  0.4522068748555443
  0.2872313405305080  0.4934855793647920  0.4037757961637675
  0.3231632882919396  0.5790356215141254  0.3451557331007709
  0.4288825572234458  0.6607412661513371  0.3584974876088474
  0.3300928737887211  0.5660318644253056  0.5498940712702574
  0.3707123400056697  0.5364918150751409  0.4774182871173369
  0.4775424101657054  0.6442945634747406  0.4389143055960669
  0.7736010294738662  0.6030738788098291  0.6020062457212968
  0.6865114899540110  0.6032178342276546  0.6318882385059215
  0.7468375550480134  0.4948195532425539  0.5952976996792682
  0.5964283517084864  0.4925578137261046  0.6304452318489057
  0.6300961520021642  0.4233177828569369  0.6189449172527747
  0.7830478046738580  0.4824007196156739  0.5167070890615281
  0.7345453870280469  0.3936487471513493  0.4605593709601456
  0.5743082500546043  0.3350508130993147  0.5612644388706181
  0.8301341023125083  0.5879183467798628  0.4660320862848257
  0.8203671680686594  0.6675184532988905  0.5211058971004929
  0.7451218788082161  0.7014695616848462  0.5035420097764390
  0.7527024250776597  0.5469375281883272  0.3937811480154378
  0.6798969787536580  0.5779596131713657  0.3813752557087009
  0.6734542167474064  0.6535706772921244  0.4263580441861327
  0.6948469360447144  0.4323579560187945  0.4007608361665353
  0.5579670913604836  0.5858758780157324  0.5416605204127655
  0.6610196268623011  0.6681228141201256  0.5771883802408877
  0.5523784850237708  0.6023161409250471  0.4490276753326943
  0.5051431750377113  0.4843576275541757  0.4247646207048215
  0.5718672119302303  0.4740774871670753  0.3765147345741411
  0.5827131936367455  0.3886847266464394  0.4073601954354613
  0.5192163178002800  0.4845662885652737  0.5702426036540327
  0.4689108604504714  0.4021530907683107  0.4995795481647711
  0.5321393950086765  0.3534826801153639  0.4879544957866735
  0.9663283608436720  0.0969510100645035  0.5938679995142950
  0.9638589377728971  0.0069078491351838  0.5458241794947236
  0.8990017083269499  0.0376410230844407  0.6676071095208319
  0.8546634635045874  0.9192723732174989  0.6606214315520128
  0.8907118898080955  0.9001671244689569  0.5884960491618749
  0.8116183086743644  0.0410852201542026  0.6584789766933957
  0.7173422565378703  0.9338112776636019  0.6532179511698453
  0.7378159471454309  0.8566203589033294  0.6567860766784739
  0.8134257117350515  0.1104846859374049  0.5866581063973432
  0.7241719217752532  0.0243248049447454  0.5290909755147076
  0.6499312875675618  0.9283456696394428  0.5844933555321142
  0.9146683606583401  0.1428045086122262  0.5370880816726745
  0.8838318103200311  0.0789256661527620  0.4518483845985162
  0.7618227469404059  0.0102392817405259  0.4459110333565902
  0.9127758734956037  0.9952016535690196  0.4590790951048469
  0.8086723433399466  0.8898381557224345  0.4612612240847368
  0.7234427449583950  0.8963603305383786  0.4570291227386622
  0.6352372284737526  0.8310169351874243  0.5238263906413315
  0.6935837080330792  0.7856989900397646  0.5808055856313907
  0.7964104569815197  0.8198884823748004  0.5300678229608397
  0.5926719912083034  0.9766836218666993  0.6228394817507985
  0.6624817933127968  0.0864135278368602  0.6594490807665618
  0.5659107046281338  0.9558218661100084  0.4210462202038457
  0.6824414760014038  0.0399382611413240  0.4456475322940882
  0.7610195356284024  0.1602160751297594  0.6204636615197048
  0.5156461135602637  0.0111023521144857  0.4128442373192319
  0.6007852500859515  0.1241694699242246  0.4010347930889743
  0.6979361837804218  0.1471218304371841  0.4370267714674597
  0.4238825889786222  0.0090459711656635  0.4518836811380428
  0.4774105875033883  0.1229776047444392  0.4683040872832691
  0.5741611270499879  0.1960968518823102  0.4224401142062588
  0.4986080362935884  0.9593661518874872  0.5965783767918743
  0.5090538590882566  0.0675325827531902  0.6089907756838230
  0.5020733328482642  0.1400597821656651  0.5546410940284779
  0.6041991752853244  0.1353256996664592  0.6581870263413341
  0.6670730188515189  0.2411940959623790  0.6244688081968670
  0.6006829781946631  0.2546255743240211  0.5634240301473967
  0.6652798662487964  0.2778536106875553  0.4792167807562436
  0.7313080053670674  0.2321734743059236  0.4957025965272757
  0.7533164274428328  0.2424478861664743  0.5832477118786280
  0.2145748923053702  0.8261245679814796  0.3838440711417233
  0.3320151454707015  0.9526518876017788  0.5078326130609696
  0.1808443716050388  0.9008888261240321  0.3824385047838088
  0.2072162549730807  0.0038693752424359  0.4395607727967113
  0.2668613206553893  0.9957726823352728  0.5149593094286694
  0.0611815444470468  0.8304144683824601  0.3791701833514579
  0.0080546595686224  0.8556809447063909  0.4386020014540312
  0.0911908753573417  0.9435859720259939  0.4802972364646413
  0.0222319217363882  0.7216730319666215  0.3846628729153926
  0.9528703303355343  0.6714371888146847  0.4618170131656679
  0.9414608066418866  0.7576536520456320  0.5021204892564057
  0.1123998897021556  0.7184301244765965  0.3925843523566167
  0.0999140083345329  0.6573980486419457  0.4662476018913599
  0.0310725359989619  0.6657948599523027  0.5206285486901113
  0.2755079499581014  0.8554145336110899  0.5654819480966707
  0.1834502241535509  0.8390947632314451  0.5982140856065017
  0.0700587748674287  0.7479328464645827  0.5847443877994676
  0.0158658767072372  0.8006074049653180  0.5735191762980738
  0.0900172673909967  0.9128099407953916  0.5644648293030431
  0.1920766709300870  0.9375097098102159  0.5789818784672554
  0.0273907685218276  0.2297400675607196  0.4987052837143253
  0.0003651507661402  0.1620767837469025  0.4147078762104829
  0.1239574531778568  0.3472333414028996  0.4748049605084925
  0.1504440818559379  0.3218292776991388  0.3937726021574738
  0.0830193523811165  0.2324951185570589  0.3498858516196198
  0.2140069609758950  0.3562560092823274  0.5281685857504864
  0.3131710061824975  0.4000231370688309  0.4786099810738134
  0.2662389771572251  0.3806252748249935  0.3890529124499358
  0.1888887940165410  0.2693821378038832  0.5736112894826542
  0.2583935867669703  0.2356385959831196  0.5445288513417901
  0.3486421466893468  0.3207578514906637  0.4888996728682276
  0.0756421626564794  0.1848287718471465  0.5582729445305462
  0.0786212413243459  0.0956880006283185  0.5124077131672833
  0.1931798895008354  0.1376794682047973  0.5066811082073334
  0.0307718259712533  0.0775822113630000  0.4238562964583044
  0.1248771554119158  0.1038278709735358  0.3688034910259819
  0.2213164040517129  0.1199700354091109  0.4205469904037075
  0.3096082100062029  0.2489880862563373  0.4062763142456917
  0.2691436162445384  0.2876262027463649  0.3511489901727006
  0.1559558258639893  0.1984112913565552  0.3298246571812501
 
  0.00000000E+00  0.00000000E+00  0.00000000E+00
  0.00000000E+00  0.00000000E+00  0.00000000E+00
  0.00000000E+00  0.00000000E+00  0.00000000E+00
  0.00000000E+00  0.00000000E+00  0.00000000E+00
  0.00000000E+00  0.00000000E+00  0.00000000E+00
  0.00000000E+00  0.00000000E+00  0.00000000E+00
  0.00000000E+00  0.00000000E+00  0.00000000E+00
  0.00000000E+00  0.00000000E+00  0.00000000E+00
  0.00000000E+00  0.00000000E+00  0.00000000E+00
  0.00000000E+00  0.00000000E+00  0.00000000E+00
  0.00000000E+00  0.00000000E+00  0.00000000E+00
  0.00000000E+00  0.00000000E+00  0.00000000E+00
  0.00000000E+00  0.00000000E+00  0.00000000E+00
  0.00000000E+00  0.00000000E+00  0.00000000E+00
  0.00000000E+00  0.00000000E+00  0.00000000E+00
  0.00000000E+00  0.00000000E+00  0.00000000E+00
  0.00000000E+00  0.00000000E+00  0.00000000E+00
  0.00000000E+00  0.00000000E+00  0.00000000E+00
  0.00000000E+00  0.00000000E+00  0.00000000E+00
  0.00000000E+00  0.00000000E+00  0.00000000E+00
  0.00000000E+00  0.00000000E+00  0.00000000E+00
  0.00000000E+00  0.00000000E+00  0.00000000E+00
  0.00000000E+00  0.00000000E+00  0.00000000E+00
  0.00000000E+00  0.00000000E+00  0.00000000E+00
  0.00000000E+00  0.00000000E+00  0.00000000E+00
  0.00000000E+00  0.00000000E+00  0.00000000E+00
  0.00000000E+00  0.00000000E+00  0.00000000E+00
  0.00000000E+00  0.00000000E+00  0.00000000E+00
  0.00000000E+00  0.00000000E+00  0.00000000E+00
  0.00000000E+00  0.00000000E+00  0.00000000E+00
  0.00000000E+00  0.00000000E+00  0.00000000E+00
  0.00000000E+00  0.00000000E+00  0.00000000E+00
  0.00000000E+00  0.00000000E+00  0.00000000E+00
  0.00000000E+00  0.00000000E+00  0.00000000E+00
  0.00000000E+00  0.00000000E+00  0.00000000E+00
  0.00000000E+00  0.00000000E+00  0.00000000E+00
  0.00000000E+00  0.00000000E+00  0.00000000E+00
  0.00000000E+00  0.00000000E+00  0.00000000E+00
  0.00000000E+00  0.00000000E+00  0.00000000E+00
  0.00000000E+00  0.00000000E+00  0.00000000E+00
  0.00000000E+00  0.00000000E+00  0.00000000E+00
  0.00000000E+00  0.00000000E+00  0.00000000E+00
  0.00000000E+00  0.00000000E+00  0.00000000E+00
  0.00000000E+00  0.00000000E+00  0.00000000E+00
  0.00000000E+00  0.00000000E+00  0.00000000E+00
  0.00000000E+00  0.00000000E+00  0.00000000E+00
  0.00000000E+00  0.00000000E+00  0.00000000E+00
  0.00000000E+00  0.00000000E+00  0.00000000E+00
  0.00000000E+00  0.00000000E+00  0.00000000E+00
  0.00000000E+00  0.00000000E+00  0.00000000E+00
  0.00000000E+00  0.00000000E+00  0.00000000E+00
  0.00000000E+00  0.00000000E+00  0.00000000E+00
  0.00000000E+00  0.00000000E+00  0.00000000E+00
  0.00000000E+00  0.00000000E+00  0.00000000E+00
  0.00000000E+00  0.00000000E+00  0.00000000E+00
  0.00000000E+00  0.00000000E+00  0.00000000E+00
  0.00000000E+00  0.00000000E+00  0.00000000E+00
  0.00000000E+00  0.00000000E+00  0.00000000E+00
  0.00000000E+00  0.00000000E+00  0.00000000E+00
  0.00000000E+00  0.00000000E+00  0.00000000E+00
  0.00000000E+00  0.00000000E+00  0.00000000E+00
  0.00000000E+00  0.00000000E+00  0.00000000E+00
  0.00000000E+00  0.00000000E+00  0.00000000E+00
  0.00000000E+00  0.00000000E+00  0.00000000E+00
  0.00000000E+00  0.00000000E+00  0.00000000E+00
  0.00000000E+00  0.00000000E+00  0.00000000E+00
  0.00000000E+00  0.00000000E+00  0.00000000E+00
  0.00000000E+00  0.00000000E+00  0.00000000E+00
  0.00000000E+00  0.00000000E+00  0.00000000E+00
  0.00000000E+00  0.00000000E+00  0.00000000E+00
  0.00000000E+00  0.00000000E+00  0.00000000E+00
  0.00000000E+00  0.00000000E+00  0.00000000E+00
  0.00000000E+00  0.00000000E+00  0.00000000E+00
  0.00000000E+00  0.00000000E+00  0.00000000E+00
  0.00000000E+00  0.00000000E+00  0.00000000E+00
  0.00000000E+00  0.00000000E+00  0.00000000E+00
  0.00000000E+00  0.00000000E+00  0.00000000E+00
  0.00000000E+00  0.00000000E+00  0.00000000E+00
  0.00000000E+00  0.00000000E+00  0.00000000E+00
  0.00000000E+00  0.00000000E+00  0.00000000E+00
  0.00000000E+00  0.00000000E+00  0.00000000E+00
  0.00000000E+00  0.00000000E+00  0.00000000E+00
  0.00000000E+00  0.00000000E+00  0.00000000E+00
  0.00000000E+00  0.00000000E+00  0.00000000E+00
  0.00000000E+00  0.00000000E+00  0.00000000E+00
  0.00000000E+00  0.00000000E+00  0.00000000E+00
  0.00000000E+00  0.00000000E+00  0.00000000E+00
  0.00000000E+00  0.00000000E+00  0.00000000E+00
  0.00000000E+00  0.00000000E+00  0.00000000E+00
  0.00000000E+00  0.00000000E+00  0.00000000E+00
  0.00000000E+00  0.00000000E+00  0.00000000E+00
  0.00000000E+00  0.00000000E+00  0.00000000E+00
  0.00000000E+00  0.00000000E+00  0.00000000E+00
  0.00000000E+00  0.00000000E+00  0.00000000E+00
  0.00000000E+00  0.00000000E+00  0.00000000E+00
  0.00000000E+00  0.00000000E+00  0.00000000E+00
  0.00000000E+00  0.00000000E+00  0.00000000E+00
  0.00000000E+00  0.00000000E+00  0.00000000E+00
  0.00000000E+00  0.00000000E+00  0.00000000E+00
  0.00000000E+00  0.00000000E+00  0.00000000E+00
  0.00000000E+00  0.00000000E+00  0.00000000E+00
  0.00000000E+00  0.00000000E+00  0.00000000E+00
  0.00000000E+00  0.00000000E+00  0.00000000E+00
  0.00000000E+00  0.00000000E+00  0.00000000E+00
  0.00000000E+00  0.00000000E+00  0.00000000E+00
  0.00000000E+00  0.00000000E+00  0.00000000E+00
  0.00000000E+00  0.00000000E+00  0.00000000E+00
  0.00000000E+00  0.00000000E+00  0.00000000E+00
  0.00000000E+00  0.00000000E+00  0.00000000E+00
  0.00000000E+00  0.00000000E+00  0.00000000E+00
  0.00000000E+00  0.00000000E+00  0.00000000E+00
  0.00000000E+00  0.00000000E+00  0.00000000E+00
  0.00000000E+00  0.00000000E+00  0.00000000E+00
  0.00000000E+00  0.00000000E+00  0.00000000E+00
  0.00000000E+00  0.00000000E+00  0.00000000E+00
  0.00000000E+00  0.00000000E+00  0.00000000E+00
  0.00000000E+00  0.00000000E+00  0.00000000E+00
  0.00000000E+00  0.00000000E+00  0.00000000E+00
  0.00000000E+00  0.00000000E+00  0.00000000E+00
  0.00000000E+00  0.00000000E+00  0.00000000E+00
  0.00000000E+00  0.00000000E+00  0.00000000E+00
  0.00000000E+00  0.00000000E+00  0.00000000E+00
  0.00000000E+00  0.00000000E+00  0.00000000E+00
  0.00000000E+00  0.00000000E+00  0.00000000E+00
  0.00000000E+00  0.00000000E+00  0.00000000E+00
  0.00000000E+00  0.00000000E+00  0.00000000E+00
  0.00000000E+00  0.00000000E+00  0.00000000E+00
  0.00000000E+00  0.00000000E+00  0.00000000E+00
