Generated by VASPKIT code               
   1.00000000000000     
    18.2075723112092120   -0.0057618698010590    0.0000000000000000
    -9.1087777492242026   15.8008106046255516    0.0000000000000000
     0.0000000000000012    0.0000000000000021   19.7119615342342804
   C 
   168
Direct
  0.4412215849005392  0.7541037681347262  0.5851072466335410
  0.1354070010221378  0.0544232110602323  0.5427484740553510
  0.3611102902957484  0.7221463179446843  0.6173595644398446
  0.0842580169380653  0.0410093136014851  0.6009690092648086
  0.4527527680837053  0.6856489304454740  0.5649802916532209
  0.1101120431591127  0.9758960992031120  0.5086120565543979
  0.3134875079340489  0.6269931463078962  0.6065067779739977
  0.0132537031447413  0.9496005064223425  0.5956411396603940
  0.3705034472614770  0.6068008518375976  0.5729586932031481
  0.0322598293857936  0.9119426805720536  0.5380125602907597
  0.4676633222492796  0.6907679541065548  0.4923723205368375
  0.1001231145238393  0.9805834191302054  0.4359866482430022
  0.4144780116146691  0.6124523695677979  0.4579131632395885
  0.0200584934498238  0.9120060032681252  0.4160647774282822
  0.3477929083018125  0.5622578945808741  0.5082261716024092
  0.9744080005917652  0.8723034707096318  0.4819071993203963
  0.4539379091544546  0.7548733214267287  0.4631923712247143
  0.0968444905146555  0.0594200897383175  0.4276332106134362
  0.4355906564027734  0.7942008088667833  0.5194201592261507
  0.1188242607955701  0.1043136888121197  0.4922067649232886
  0.3588395609257233  0.7942023331336330  0.5193907410336465
  0.0645045224113048  0.1289971269142782  0.5234835583387394
  0.3974694759799888  0.7175860138144756  0.4053639767031285
  0.0195376016679205  0.0390314579394584  0.3941133243530288
  0.3203540511302450  0.7175622784369153  0.4053457536751068
  0.9626272010751791  0.0594675995652594  0.4275707160528412
  0.3011657417638673  0.7548504624427181  0.4631453199267170
  0.9855231634621973  0.1043886983231772  0.4921451981447049
  0.3770019328250598  0.6261988301541734  0.3996895776570923
  0.9718871807571361  0.9438230120873214  0.3836638583241765
  0.2329741181242824  0.6856193500898655  0.5648964375682297
  0.9566412144252965  0.0410509982839002  0.6009121315817083
  0.3130114963353989  0.7540920127166757  0.5850592279399152
  0.0458802925007760  0.0918277079290206  0.5951952921033694
  0.2232370925359675  0.6907334025891387  0.4922826665931339
  0.9189656278195031  0.0545051519976596  0.5426621469456450
  0.1980585285862162  0.6124206188735926  0.4578291421879470
  0.8657191181895456  0.9759836078626165  0.5085083430988604
  0.2493419229947449  0.6261765047291306  0.3996313365229938
  0.8804516984668354  0.9806533556666608  0.4358948301661698
  0.2877376320505363  0.5753669587690666  0.4052154143874276
  0.8918516105079348  0.9120458662165163  0.4160029794036859
  0.2362680176830381  0.6067652258504808  0.5729243687210825
  0.9361522541784240  0.9496292162304982  0.5955959210744766
  0.2144520128250633  0.5622271969578705  0.5081800171703037
  0.8795173501136873  0.9120226572805024  0.5379334353817384
  0.2688985495665861  0.5377906416618288  0.4767851995288837
  0.8977157925676238  0.8723650039866584  0.4818656744041121
  0.0070115853354054  0.4605015479644550  0.4605135327330601
  0.5391801287975326  0.5463890026345624  0.4605190526772844
  0.4525606491770091  0.9916642888223635  0.4605665705108919
  0.5389066400881077  0.9916267009885402  0.4605581321874297
  0.4533863548369510  0.4604188460847070  0.4605090235674609
  0.0072031009594724  0.5464062871675850  0.4605084811386178
  0.0467293537176374  0.4089820706861147  0.4399182306176002
  0.5905327176796789  0.6372013616904155  0.4399031197418353
  0.3611973169841178  0.9530186353164751  0.4403065433825830
  0.5915996056715471  0.9529933017976475  0.4402616858438293
  0.3620961646713496  0.4087457035043798  0.4399401836621593
  0.0467969037974854  0.6371938881260206  0.4398802917557134
  0.0071897574413740  0.4606267989773656  0.5394748546340793
  0.5389712412876122  0.5466810962508930  0.5396026869033079
  0.4527712627110958  0.9917740732824498  0.5396908836658696
  0.5388123278751920  0.9917305143635389  0.5396676691650768
  0.4533411583530551  0.4605375292005718  0.5394968992937237
  0.0077203631405496  0.5467008124250086  0.5395867796319536
  0.0469059825666989  0.4092081168912856  0.5600875242677574
  0.5899926907314210  0.6378761409626961  0.5603142952124713
  0.3614921719310331  0.9529308066796247  0.5604040544807560
  0.5912225649931102  0.9528791138389110  0.5603628479310174
  0.3621586945275368  0.4089547999743530  0.5600702184910347
  0.0480382955784080  0.6378888386672159  0.5602939050058779
  0.0684746560297569  0.3801375535637419  0.4999611477503194
  0.6192728759911219  0.6879978787128209  0.4996887339280534
  0.3106557522649709  0.9316706412441320  0.5003170073028684
  0.6207951919473587  0.9316665809352997  0.5002642213248265
  0.3114085487945601  0.3798728254476558  0.4999662217524303
  0.0689052178815643  0.6879891513261356  0.4996620915227865
  0.9130251929772655  0.4112164502071707  0.5640456907553784
  0.5891383196492441  0.5025233553710748  0.5641367098401062
  0.4973612784755232  0.0859818868826920  0.5640439516008655
  0.5885362907472143  0.0859119849888259  0.5640286172010249
  0.4981581678284996  0.4112155892658222  0.5640745911471967
  0.9133700377941665  0.5025037568030584  0.5641385460061841
  0.9027052262879991  0.3335472723628286  0.5979740238320872
  0.6668234452520920  0.5703369632710107  0.5978941695401048
  0.4303916222386377  0.0968300642496231  0.5981714465409738
  0.6663529528493726  0.0967552492468613  0.5981567331681603
  0.4308047246138926  0.3334917187368163  0.5979955258917542
  0.9035929436045791  0.5703282780248173  0.5979028737839727
  0.9806488475444795  0.3335327447065737  0.5927732272190411
  0.6661728908653259  0.6477338382701205  0.5928972540452619
  0.3523748001426483  0.0193330685944915  0.5934296544298263
  0.6668268660448575  0.0192793766771757  0.5933729322202979
  0.3527663029409780  0.3333468617761497  0.5928266282294246
  0.9817306207619154  0.6477268464768855  0.5928637085061865
  0.8528482989321873  0.3829148092516164  0.5000230378767228
  0.6177069077670083  0.4710264534967834  0.5000098072533774
  0.5289909422065477  0.1456604757100308  0.4998300541828655
  0.6166527040004368  0.1456051717225435  0.4998248318746477
  0.5299952101778302  0.3829462460389124  0.5000207064891171
  0.8532645564198873  0.4709826238585961  0.5000096816406270
  0.8032841435202798  0.2838366526384988  0.4999590964345089
  0.7166232039691494  0.5209627511961017  0.5000419541409542
  0.4802098661135972  0.1957679220901696  0.4999050394422255
  0.7155422285906710  0.1956862951387563  0.4999158369101764
  0.4805603779888798  0.2838825273463570  0.4999417992099708
  0.8043830599601804  0.5209647110623763  0.5000395157181359
  0.8350771715196643  0.2557983649362399  0.5640908453419371
  0.7445658144163687  0.5809743587468930  0.5639267141194750
  0.4206255819333080  0.1646165660923700  0.5641228962307494
  0.7439673402084139  0.1645760896025692  0.5641207554505172
  0.4207089059155891  0.2557973623457741  0.5640863189231453
  0.8365164131682903  0.5809855747315495  0.5639346297015564
  0.9127637406615889  0.4109973343906717  0.4359267410396868
  0.5891795811593639  0.5020793540915705  0.4358272499147020
  0.4968806849347160  0.0856734310042597  0.4359282439189371
  0.5887052205969212  0.0856285305522420  0.4359296087806825
  0.4981837096919364  0.4109945608765742  0.4359055499241649
  0.9128685415533795  0.5020544489478382  0.4358182519557730
  0.9026493109598732  0.3332798636922050  0.4020389596579435
  0.6668121289522446  0.5698045145328621  0.4017494871800125
  0.4297992202737433  0.0963687396008339  0.4020030343097361
  0.6665028070538099  0.0963523748175774  0.4019992728680748
  0.4305733996217214  0.3332250682006404  0.4020141495903999
  0.9030352213694641  0.5697732791811134  0.4017239192598936
  0.8352458720527665  0.2556275107660468  0.4359462185103240
  0.7446676298147139  0.5806296401713666  0.4358219539336545
  0.4200590420428369  0.1642040378066056  0.4357859901435504
  0.7441307752289674  0.1641934778450249  0.4357944897424062
  0.4203529473697429  0.2556073254535463  0.4359206722323066
  0.8360474990826319  0.5806331190974205  0.4358081921829893
  0.9806284958883182  0.3333306209782307  0.4072997666519456
  0.6664081390111818  0.6473165097100022  0.4064931484721228
  0.3516692016684075  0.0189847384660666  0.4070078181146641
  0.6671956294799202  0.0189891539841867  0.4069995697818740
  0.3525723662509108  0.3331609909000548  0.4072501589143513
  0.9810414662975759  0.6472773455345688  0.4064816678420584
  0.9711383531367161  0.2576182818383188  0.4399883821847297
  0.7420690266319454  0.7137299537121180  0.4394486528427777
  0.2853829737680016  0.0288505212457437  0.4396342781910221
  0.7433732308419181  0.0288855992400769  0.4396145676916206
  0.2863887598289026  0.2574596341643627  0.4400061507708699
  0.9718933208249254  0.7137191121140347  0.4394190682725139
  0.8799341840008950  0.2061688681124991  0.4605265885002652
  0.7944755665334569  0.6748455643919371  0.4601318446369191
  0.3257129117066455  0.1200462203536432  0.4603594127003916
  0.7943260202933047  0.1200901346041618  0.4603405050608629
  0.3261948023264836  0.2061017326642727  0.4605386905031779
  0.8805687423750257  0.6748612329404367  0.4601102746188204
  0.8798005359270107  0.2062581347294881  0.5395489769596580
  0.7943958829120632  0.6749738828331502  0.5392753871860378
  0.3262649100757642  0.1203176931253864  0.5394554448258972
  0.7940385427596084  0.1203363885961224  0.5394569436685899
  0.3264316757515928  0.2062033601136406  0.5395263957115475
  0.8807880672652146  0.6749936289172922  0.5392783229271814
  0.9710613243429691  0.2578268478426935  0.5601960061845546
  0.7417367472682344  0.7136540032914453  0.5595516263995890
  0.2866295953104654  0.0294957141952352  0.5600638243533425
  0.7427710719142127  0.0294946158037988  0.5600175762459756
  0.2866672668877968  0.2576568761479123  0.5601821982949460
  0.9721546250365449  0.7136588218271243  0.5595315732196937
  0.0217126836338366  0.2867043969087248  0.5001709782351256
  0.7125478721345146  0.7349910901009338  0.4995576749454997
  0.2645338297932938  0.9787415189719724  0.5002399036074152
  0.7140680205674386  0.9787419780586859  0.5001955001198297
  0.2647669340948084  0.2864501195405396  0.5001731816768427
  0.0226872366558766  0.7349737973278678  0.4995263483715107
 
  0.00000000E+00  0.00000000E+00  0.00000000E+00
  0.00000000E+00  0.00000000E+00  0.00000000E+00
  0.00000000E+00  0.00000000E+00  0.00000000E+00
  0.00000000E+00  0.00000000E+00  0.00000000E+00
  0.00000000E+00  0.00000000E+00  0.00000000E+00
  0.00000000E+00  0.00000000E+00  0.00000000E+00
  0.00000000E+00  0.00000000E+00  0.00000000E+00
  0.00000000E+00  0.00000000E+00  0.00000000E+00
  0.00000000E+00  0.00000000E+00  0.00000000E+00
  0.00000000E+00  0.00000000E+00  0.00000000E+00
  0.00000000E+00  0.00000000E+00  0.00000000E+00
  0.00000000E+00  0.00000000E+00  0.00000000E+00
  0.00000000E+00  0.00000000E+00  0.00000000E+00
  0.00000000E+00  0.00000000E+00  0.00000000E+00
  0.00000000E+00  0.00000000E+00  0.00000000E+00
  0.00000000E+00  0.00000000E+00  0.00000000E+00
  0.00000000E+00  0.00000000E+00  0.00000000E+00
  0.00000000E+00  0.00000000E+00  0.00000000E+00
  0.00000000E+00  0.00000000E+00  0.00000000E+00
  0.00000000E+00  0.00000000E+00  0.00000000E+00
  0.00000000E+00  0.00000000E+00  0.00000000E+00
  0.00000000E+00  0.00000000E+00  0.00000000E+00
  0.00000000E+00  0.00000000E+00  0.00000000E+00
  0.00000000E+00  0.00000000E+00  0.00000000E+00
  0.00000000E+00  0.00000000E+00  0.00000000E+00
  0.00000000E+00  0.00000000E+00  0.00000000E+00
  0.00000000E+00  0.00000000E+00  0.00000000E+00
  0.00000000E+00  0.00000000E+00  0.00000000E+00
  0.00000000E+00  0.00000000E+00  0.00000000E+00
  0.00000000E+00  0.00000000E+00  0.00000000E+00
  0.00000000E+00  0.00000000E+00  0.00000000E+00
  0.00000000E+00  0.00000000E+00  0.00000000E+00
  0.00000000E+00  0.00000000E+00  0.00000000E+00
  0.00000000E+00  0.00000000E+00  0.00000000E+00
  0.00000000E+00  0.00000000E+00  0.00000000E+00
  0.00000000E+00  0.00000000E+00  0.00000000E+00
  0.00000000E+00  0.00000000E+00  0.00000000E+00
  0.00000000E+00  0.00000000E+00  0.00000000E+00
  0.00000000E+00  0.00000000E+00  0.00000000E+00
  0.00000000E+00  0.00000000E+00  0.00000000E+00
  0.00000000E+00  0.00000000E+00  0.00000000E+00
  0.00000000E+00  0.00000000E+00  0.00000000E+00
  0.00000000E+00  0.00000000E+00  0.00000000E+00
  0.00000000E+00  0.00000000E+00  0.00000000E+00
  0.00000000E+00  0.00000000E+00  0.00000000E+00
  0.00000000E+00  0.00000000E+00  0.00000000E+00
  0.00000000E+00  0.00000000E+00  0.00000000E+00
  0.00000000E+00  0.00000000E+00  0.00000000E+00
  0.00000000E+00  0.00000000E+00  0.00000000E+00
  0.00000000E+00  0.00000000E+00  0.00000000E+00
  0.00000000E+00  0.00000000E+00  0.00000000E+00
  0.00000000E+00  0.00000000E+00  0.00000000E+00
  0.00000000E+00  0.00000000E+00  0.00000000E+00
  0.00000000E+00  0.00000000E+00  0.00000000E+00
  0.00000000E+00  0.00000000E+00  0.00000000E+00
  0.00000000E+00  0.00000000E+00  0.00000000E+00
  0.00000000E+00  0.00000000E+00  0.00000000E+00
  0.00000000E+00  0.00000000E+00  0.00000000E+00
  0.00000000E+00  0.00000000E+00  0.00000000E+00
  0.00000000E+00  0.00000000E+00  0.00000000E+00
  0.00000000E+00  0.00000000E+00  0.00000000E+00
  0.00000000E+00  0.00000000E+00  0.00000000E+00
  0.00000000E+00  0.00000000E+00  0.00000000E+00
  0.00000000E+00  0.00000000E+00  0.00000000E+00
  0.00000000E+00  0.00000000E+00  0.00000000E+00
  0.00000000E+00  0.00000000E+00  0.00000000E+00
  0.00000000E+00  0.00000000E+00  0.00000000E+00
  0.00000000E+00  0.00000000E+00  0.00000000E+00
  0.00000000E+00  0.00000000E+00  0.00000000E+00
  0.00000000E+00  0.00000000E+00  0.00000000E+00
  0.00000000E+00  0.00000000E+00  0.00000000E+00
  0.00000000E+00  0.00000000E+00  0.00000000E+00
  0.00000000E+00  0.00000000E+00  0.00000000E+00
  0.00000000E+00  0.00000000E+00  0.00000000E+00
  0.00000000E+00  0.00000000E+00  0.00000000E+00
  0.00000000E+00  0.00000000E+00  0.00000000E+00
  0.00000000E+00  0.00000000E+00  0.00000000E+00
  0.00000000E+00  0.00000000E+00  0.00000000E+00
  0.00000000E+00  0.00000000E+00  0.00000000E+00
  0.00000000E+00  0.00000000E+00  0.00000000E+00
  0.00000000E+00  0.00000000E+00  0.00000000E+00
  0.00000000E+00  0.00000000E+00  0.00000000E+00
  0.00000000E+00  0.00000000E+00  0.00000000E+00
  0.00000000E+00  0.00000000E+00  0.00000000E+00
  0.00000000E+00  0.00000000E+00  0.00000000E+00
  0.00000000E+00  0.00000000E+00  0.00000000E+00
  0.00000000E+00  0.00000000E+00  0.00000000E+00
  0.00000000E+00  0.00000000E+00  0.00000000E+00
  0.00000000E+00  0.00000000E+00  0.00000000E+00
  0.00000000E+00  0.00000000E+00  0.00000000E+00
  0.00000000E+00  0.00000000E+00  0.00000000E+00
  0.00000000E+00  0.00000000E+00  0.00000000E+00
  0.00000000E+00  0.00000000E+00  0.00000000E+00
  0.00000000E+00  0.00000000E+00  0.00000000E+00
  0.00000000E+00  0.00000000E+00  0.00000000E+00
  0.00000000E+00  0.00000000E+00  0.00000000E+00
  0.00000000E+00  0.00000000E+00  0.00000000E+00
  0.00000000E+00  0.00000000E+00  0.00000000E+00
  0.00000000E+00  0.00000000E+00  0.00000000E+00
  0.00000000E+00  0.00000000E+00  0.00000000E+00
  0.00000000E+00  0.00000000E+00  0.00000000E+00
  0.00000000E+00  0.00000000E+00  0.00000000E+00
  0.00000000E+00  0.00000000E+00  0.00000000E+00
  0.00000000E+00  0.00000000E+00  0.00000000E+00
  0.00000000E+00  0.00000000E+00  0.00000000E+00
  0.00000000E+00  0.00000000E+00  0.00000000E+00
  0.00000000E+00  0.00000000E+00  0.00000000E+00
  0.00000000E+00  0.00000000E+00  0.00000000E+00
  0.00000000E+00  0.00000000E+00  0.00000000E+00
  0.00000000E+00  0.00000000E+00  0.00000000E+00
  0.00000000E+00  0.00000000E+00  0.00000000E+00
  0.00000000E+00  0.00000000E+00  0.00000000E+00
  0.00000000E+00  0.00000000E+00  0.00000000E+00
  0.00000000E+00  0.00000000E+00  0.00000000E+00
  0.00000000E+00  0.00000000E+00  0.00000000E+00
  0.00000000E+00  0.00000000E+00  0.00000000E+00
  0.00000000E+00  0.00000000E+00  0.00000000E+00
  0.00000000E+00  0.00000000E+00  0.00000000E+00
  0.00000000E+00  0.00000000E+00  0.00000000E+00
  0.00000000E+00  0.00000000E+00  0.00000000E+00
  0.00000000E+00  0.00000000E+00  0.00000000E+00
  0.00000000E+00  0.00000000E+00  0.00000000E+00
  0.00000000E+00  0.00000000E+00  0.00000000E+00
  0.00000000E+00  0.00000000E+00  0.00000000E+00
  0.00000000E+00  0.00000000E+00  0.00000000E+00
  0.00000000E+00  0.00000000E+00  0.00000000E+00
  0.00000000E+00  0.00000000E+00  0.00000000E+00
  0.00000000E+00  0.00000000E+00  0.00000000E+00
  0.00000000E+00  0.00000000E+00  0.00000000E+00
  0.00000000E+00  0.00000000E+00  0.00000000E+00
  0.00000000E+00  0.00000000E+00  0.00000000E+00
  0.00000000E+00  0.00000000E+00  0.00000000E+00
  0.00000000E+00  0.00000000E+00  0.00000000E+00
  0.00000000E+00  0.00000000E+00  0.00000000E+00
  0.00000000E+00  0.00000000E+00  0.00000000E+00
  0.00000000E+00  0.00000000E+00  0.00000000E+00
  0.00000000E+00  0.00000000E+00  0.00000000E+00
  0.00000000E+00  0.00000000E+00  0.00000000E+00
  0.00000000E+00  0.00000000E+00  0.00000000E+00
  0.00000000E+00  0.00000000E+00  0.00000000E+00
  0.00000000E+00  0.00000000E+00  0.00000000E+00
  0.00000000E+00  0.00000000E+00  0.00000000E+00
  0.00000000E+00  0.00000000E+00  0.00000000E+00
  0.00000000E+00  0.00000000E+00  0.00000000E+00
  0.00000000E+00  0.00000000E+00  0.00000000E+00
  0.00000000E+00  0.00000000E+00  0.00000000E+00
  0.00000000E+00  0.00000000E+00  0.00000000E+00
  0.00000000E+00  0.00000000E+00  0.00000000E+00
  0.00000000E+00  0.00000000E+00  0.00000000E+00
  0.00000000E+00  0.00000000E+00  0.00000000E+00
  0.00000000E+00  0.00000000E+00  0.00000000E+00
  0.00000000E+00  0.00000000E+00  0.00000000E+00
  0.00000000E+00  0.00000000E+00  0.00000000E+00
  0.00000000E+00  0.00000000E+00  0.00000000E+00
  0.00000000E+00  0.00000000E+00  0.00000000E+00
  0.00000000E+00  0.00000000E+00  0.00000000E+00
  0.00000000E+00  0.00000000E+00  0.00000000E+00
  0.00000000E+00  0.00000000E+00  0.00000000E+00
  0.00000000E+00  0.00000000E+00  0.00000000E+00
  0.00000000E+00  0.00000000E+00  0.00000000E+00
  0.00000000E+00  0.00000000E+00  0.00000000E+00
  0.00000000E+00  0.00000000E+00  0.00000000E+00
  0.00000000E+00  0.00000000E+00  0.00000000E+00
  0.00000000E+00  0.00000000E+00  0.00000000E+00
  0.00000000E+00  0.00000000E+00  0.00000000E+00
  0.00000000E+00  0.00000000E+00  0.00000000E+00
  0.00000000E+00  0.00000000E+00  0.00000000E+00
  0.00000000E+00  0.00000000E+00  0.00000000E+00
