C                                       
   1.00000000000000     
    10.0093632532642580   -0.4370544027288764    0.0000000000000000
    -5.3880630051446161    8.4817637198783604    0.0000000000000000
     0.0000000000000000    0.0000000000000000   16.0000000000000000
   C 
    64
Direct
  0.9336864817086075  0.7178666628687124  0.5656853819764051
  0.0470824819798950  0.8104978871686080  0.4960419189511431
  0.0067422619620341  0.8405849969191310  0.6340399929342709
  0.1737155837296154  0.9622205421957821  0.5153672626439314
  0.1618928764512817  0.9940403761467803  0.6024572054852725
  0.9039581462934502  0.8819469479675219  0.6595074494269112
  0.0054451668648051  0.0610248750116780  0.6596276358001362
  0.1730409270437600  0.1331528606645978  0.6243915975249640
  0.7593038602995306  0.8131735331064636  0.5947745816317132
  0.7918112601293810  0.7225299862007500  0.5342010003754357
  0.8136279983810841  0.7668413731995767  0.4371692208978937
  0.7823190729676407  0.9774076232455531  0.5711978244016025
  0.8400366649905064  0.0189165509646903  0.4799803082600205
  0.8417405558385405  0.9245783079827612  0.4167860866472929
  0.9319377067989476  0.1167629977030355  0.6148899472285219
  0.0870565490718272  0.9612860531438070  0.3815343653712639
  0.9755657964632132  0.7882433982087350  0.4114703289685272
  0.0052688316603487  0.0331648172822457  0.3773313036262110
  0.0962728297947835  0.1929333013975408  0.4153043291266226
  0.9875665041489550  0.1779691584515840  0.4743553392217577
  0.0512628665545465  0.2485588485467789  0.5572595283261957
  0.2343457657455525  0.0662104136787903  0.4388822025773016
  0.2468511411679722  0.2252377379133618  0.4598658165022302
  0.2161812142243222  0.2602259269216279  0.5565218382318364
  0.1199462259303246  0.6426631365547399  0.4907448101241895
  0.2745158740309663  0.7815111132677891  0.4482037792347051
  0.1748733190561453  0.6833203690627490  0.5813938841324111
  0.3290198001827035  0.8417502484233290  0.5908429344251325
  0.3927505011797874  0.9252122451868487  0.5084504886282623
  0.1781554400967891  0.5652567010065382  0.6225098381337651
  0.3474569281761292  0.6549600561834640  0.6547893903281075
  0.4406074951552702  0.8336804583654336  0.6368873864832609
  0.1408272905622992  0.4326725486159073  0.5609350549965263
  0.3068746301814080  0.4513959372000652  0.5579571010356803
  0.4226493022704313  0.5923292372551731  0.6171702909265330
  0.1095398398065651  0.4846727559098160  0.4742911716535537
  0.2618042072105031  0.5435844292556851  0.4251345200348220
  0.3709504123806240  0.5346189180415788  0.4746818367114368
  0.3492993835724292  0.7184622915125420  0.4089432245204841
  0.5145862886946452  0.8037248894307247  0.4410420132020339
  0.5225891686058218  0.6887818208649920  0.4840041539602014
  0.5746192294015515  0.7312310465770288  0.5755170408228222
  0.5928203409362849  0.8956171068701062  0.5809109468994784
  0.5530147721267185  0.9407684068814268  0.4959886120668176
  0.8249041508419320  0.3337934426661724  0.3661253467420559
  0.6638286985455695  0.1795200081194283  0.3779074612341827
  0.9211647460706021  0.3886440528847209  0.4480111487043880
  0.7873242914695440  0.2704876859518814  0.5085694823662412
  0.6415885866633617  0.1209774533857172  0.4674525049735527
  0.9368459484339166  0.5464746176178853  0.4654854006664617
  0.8342299929235453  0.5283020211030508  0.5410999622369624
  0.7422907600265508  0.3463507578473674  0.5612646234715335
  0.8757240881241113  0.5961966268316636  0.3908380729147750
  0.7178033475154092  0.5822208221735692  0.4168949219355745
  0.6943084464347294  0.5397578762117455  0.5121155092167693
  0.8042053719002913  0.4494898804496854  0.3328407748954076
  0.6242881257893879  0.3647572010677466  0.3278919874311856
  0.5710820768845954  0.4397294421304266  0.3762868231646445
  0.5399813007062075  0.1945740403667601  0.3521581268258402
  0.4183262115458837  0.1561374998200888  0.4219693638363323
  0.4400200640863939  0.3205530194456531  0.4405436330243340
  0.5396110343333701  0.3768664884039732  0.5203384082933636
  0.5653994152801324  0.2654932971783020  0.5506139970371330
  0.4886933271220156  0.1151954500795697  0.4943893634574992
 
  0.00000000E+00  0.00000000E+00  0.00000000E+00
  0.00000000E+00  0.00000000E+00  0.00000000E+00
  0.00000000E+00  0.00000000E+00  0.00000000E+00
  0.00000000E+00  0.00000000E+00  0.00000000E+00
  0.00000000E+00  0.00000000E+00  0.00000000E+00
  0.00000000E+00  0.00000000E+00  0.00000000E+00
  0.00000000E+00  0.00000000E+00  0.00000000E+00
  0.00000000E+00  0.00000000E+00  0.00000000E+00
  0.00000000E+00  0.00000000E+00  0.00000000E+00
  0.00000000E+00  0.00000000E+00  0.00000000E+00
  0.00000000E+00  0.00000000E+00  0.00000000E+00
  0.00000000E+00  0.00000000E+00  0.00000000E+00
  0.00000000E+00  0.00000000E+00  0.00000000E+00
  0.00000000E+00  0.00000000E+00  0.00000000E+00
  0.00000000E+00  0.00000000E+00  0.00000000E+00
  0.00000000E+00  0.00000000E+00  0.00000000E+00
  0.00000000E+00  0.00000000E+00  0.00000000E+00
  0.00000000E+00  0.00000000E+00  0.00000000E+00
  0.00000000E+00  0.00000000E+00  0.00000000E+00
  0.00000000E+00  0.00000000E+00  0.00000000E+00
  0.00000000E+00  0.00000000E+00  0.00000000E+00
  0.00000000E+00  0.00000000E+00  0.00000000E+00
  0.00000000E+00  0.00000000E+00  0.00000000E+00
  0.00000000E+00  0.00000000E+00  0.00000000E+00
  0.00000000E+00  0.00000000E+00  0.00000000E+00
  0.00000000E+00  0.00000000E+00  0.00000000E+00
  0.00000000E+00  0.00000000E+00  0.00000000E+00
  0.00000000E+00  0.00000000E+00  0.00000000E+00
  0.00000000E+00  0.00000000E+00  0.00000000E+00
  0.00000000E+00  0.00000000E+00  0.00000000E+00
  0.00000000E+00  0.00000000E+00  0.00000000E+00
  0.00000000E+00  0.00000000E+00  0.00000000E+00
  0.00000000E+00  0.00000000E+00  0.00000000E+00
  0.00000000E+00  0.00000000E+00  0.00000000E+00
  0.00000000E+00  0.00000000E+00  0.00000000E+00
  0.00000000E+00  0.00000000E+00  0.00000000E+00
  0.00000000E+00  0.00000000E+00  0.00000000E+00
  0.00000000E+00  0.00000000E+00  0.00000000E+00
  0.00000000E+00  0.00000000E+00  0.00000000E+00
  0.00000000E+00  0.00000000E+00  0.00000000E+00
  0.00000000E+00  0.00000000E+00  0.00000000E+00
  0.00000000E+00  0.00000000E+00  0.00000000E+00
  0.00000000E+00  0.00000000E+00  0.00000000E+00
  0.00000000E+00  0.00000000E+00  0.00000000E+00
  0.00000000E+00  0.00000000E+00  0.00000000E+00
  0.00000000E+00  0.00000000E+00  0.00000000E+00
  0.00000000E+00  0.00000000E+00  0.00000000E+00
  0.00000000E+00  0.00000000E+00  0.00000000E+00
  0.00000000E+00  0.00000000E+00  0.00000000E+00
  0.00000000E+00  0.00000000E+00  0.00000000E+00
  0.00000000E+00  0.00000000E+00  0.00000000E+00
  0.00000000E+00  0.00000000E+00  0.00000000E+00
  0.00000000E+00  0.00000000E+00  0.00000000E+00
  0.00000000E+00  0.00000000E+00  0.00000000E+00
  0.00000000E+00  0.00000000E+00  0.00000000E+00
  0.00000000E+00  0.00000000E+00  0.00000000E+00
  0.00000000E+00  0.00000000E+00  0.00000000E+00
  0.00000000E+00  0.00000000E+00  0.00000000E+00
  0.00000000E+00  0.00000000E+00  0.00000000E+00
  0.00000000E+00  0.00000000E+00  0.00000000E+00
  0.00000000E+00  0.00000000E+00  0.00000000E+00
  0.00000000E+00  0.00000000E+00  0.00000000E+00
  0.00000000E+00  0.00000000E+00  0.00000000E+00
  0.00000000E+00  0.00000000E+00  0.00000000E+00
