C                                       
   1.00000000000000     
     9.8026322744747230    0.0081784695763197    0.0000000000000000
     0.0247661228270751   11.8977563335349750    0.0000000000000000
     0.0000000000000000    0.0000000000000000   16.0000000000000000
   C 
    68
Direct
  0.6027664705571874  0.1648516358960544  0.4701799414411505
  0.5256551715701010  0.2103906688129380  0.3971846396242658
  0.7148769961031566  0.2551809005302286  0.4772566922854377
  0.5789391936764107  0.3173385544997262  0.3667411528422078
  0.6970837772026151  0.3433271210106130  0.4156336109863979
  0.7130378883941209  0.3050805908606657  0.5568823494023913
  0.7336545648550274  0.4285973251119393  0.5538342360731275
  0.7057490102954896  0.4603873582907204  0.4585043044303996
  0.5800854445083632  0.2843531144331107  0.5929275155126758
  0.5105120433897956  0.2085092520681684  0.5422906679825897
  0.3796024908650397  0.2279628423640297  0.5104601259041671
  0.5157966817334237  0.3916066850581078  0.6130874499375244
  0.3767540664286954  0.4136472336676615  0.5860939866346808
  0.3169670402653884  0.3342244113149717  0.5317488381499471
  0.6056324704711267  0.4799123250626748  0.5957569038124989
  0.3434954740900903  0.3267602425794509  0.3869051867821687
  0.3870723957159360  0.2182319264841908  0.4166241448614474
  0.2832293535486889  0.3867857028641010  0.4526089509508018
  0.3275780871896734  0.5072979774732496  0.4544996711304602
  0.3687259684748245  0.5308140870673209  0.5480436651509215
  0.5296147101756278  0.5672278475279581  0.5429382564182955
  0.4631068840197272  0.3900397425849243  0.3574039014701195
  0.4617686461180291  0.4923648852882388  0.4066476209683848
  0.5681942434944102  0.5143636395504879  0.4585585202726365
  0.5744310399632832  0.9911966090017788  0.5735053968399598
  0.4387114472009508  0.9668583722119745  0.5952862110299674
  0.6365596168349333  0.8822212415936292  0.5729425427390442
  0.4156357691032503  0.8460943483300505  0.6085193841201468
  0.5387003219761974  0.7920808427088085  0.5923255543955525
  0.6870935431632341  0.8588333897517064  0.4939204607227164
  0.6712322669388531  0.7377505826632056  0.4680006612314745
  0.5526740812477008  0.6957199886996422  0.5282304919803146
  0.6449510273227180  0.9391088424174373  0.4331245174159828
  0.5758076053746719  0.0364649902443672  0.4800665762703062
  0.4233127684839313  0.0250615843234588  0.4595294463288115
  0.5906253891617194  0.8768472483605656  0.3651622997918033
  0.4435489121829373  0.8904817970554355  0.3411724493102484
  0.3644576388344486  0.9664038712455438  0.3922057676377927
  0.6173978398336810  0.7569066306210847  0.3778852203034571
  0.2410941406117093  0.9250017504914860  0.5143733849732135
  0.3444985195408976  0.0042644921840751  0.5332269606692868
  0.2472728184634061  0.9076479337076255  0.4258346538946611
  0.2561109769519313  0.7854582023538841  0.3978707322134765
  0.3783809937584307  0.7835173748596491  0.3367525923143187
  0.4840577909708481  0.7159558579608813  0.3761908917658429
  0.2878156481609726  0.8137201611950546  0.5604899897747410
  0.3347373724519925  0.7637504184958863  0.4784077484521251
  0.4483563627980762  0.7098786663076883  0.4633591087445221
  0.2247195962076725  0.5979362255142296  0.5592564162056040
  0.1959440989949416  0.5801832149285197  0.4600080854192768
  0.1049220156562021  0.5348640789403823  0.5989813853623256
  0.0240160947463132  0.4751132297222989  0.5402334797730592
  0.0680940607575419  0.5071616714975113  0.4587902259884418
  0.0179665661066484  0.6064802676290773  0.6462558972405957
  0.8774776966734172  0.5872241888318138  0.6162651998267125
  0.8693762218040714  0.4947320080787384  0.5535231067244369
  0.0551756273869863  0.7207784636516742  0.6377970557196618
  0.9391130300272423  0.7696367157686945  0.5943364959360906
  0.8343660385527094  0.6858534862527496  0.5810549225777865
  0.1819188681292994  0.7245530295266678  0.5803090332880984
  0.1074878216487330  0.7528885201108587  0.5017481040361182
  0.9795374721533512  0.7973924581376760  0.5101674295939878
  0.1449633214914152  0.6970361944705371  0.4208282690926026
  0.9955364863880951  0.6698388540420546  0.3956144720758049
  0.9098005437484636  0.7351303087027323  0.4466503697357994
  0.7958152819870689  0.6734186432565051  0.4870984480171559
  0.8260914809195262  0.5475671040287783  0.4652357389537895
  0.9586620777409806  0.5577489326804221  0.4157469762819729
 
  0.00000000E+00  0.00000000E+00  0.00000000E+00
  0.00000000E+00  0.00000000E+00  0.00000000E+00
  0.00000000E+00  0.00000000E+00  0.00000000E+00
  0.00000000E+00  0.00000000E+00  0.00000000E+00
  0.00000000E+00  0.00000000E+00  0.00000000E+00
  0.00000000E+00  0.00000000E+00  0.00000000E+00
  0.00000000E+00  0.00000000E+00  0.00000000E+00
  0.00000000E+00  0.00000000E+00  0.00000000E+00
  0.00000000E+00  0.00000000E+00  0.00000000E+00
  0.00000000E+00  0.00000000E+00  0.00000000E+00
  0.00000000E+00  0.00000000E+00  0.00000000E+00
  0.00000000E+00  0.00000000E+00  0.00000000E+00
  0.00000000E+00  0.00000000E+00  0.00000000E+00
  0.00000000E+00  0.00000000E+00  0.00000000E+00
  0.00000000E+00  0.00000000E+00  0.00000000E+00
  0.00000000E+00  0.00000000E+00  0.00000000E+00
  0.00000000E+00  0.00000000E+00  0.00000000E+00
  0.00000000E+00  0.00000000E+00  0.00000000E+00
  0.00000000E+00  0.00000000E+00  0.00000000E+00
  0.00000000E+00  0.00000000E+00  0.00000000E+00
  0.00000000E+00  0.00000000E+00  0.00000000E+00
  0.00000000E+00  0.00000000E+00  0.00000000E+00
  0.00000000E+00  0.00000000E+00  0.00000000E+00
  0.00000000E+00  0.00000000E+00  0.00000000E+00
  0.00000000E+00  0.00000000E+00  0.00000000E+00
  0.00000000E+00  0.00000000E+00  0.00000000E+00
  0.00000000E+00  0.00000000E+00  0.00000000E+00
  0.00000000E+00  0.00000000E+00  0.00000000E+00
  0.00000000E+00  0.00000000E+00  0.00000000E+00
  0.00000000E+00  0.00000000E+00  0.00000000E+00
  0.00000000E+00  0.00000000E+00  0.00000000E+00
  0.00000000E+00  0.00000000E+00  0.00000000E+00
  0.00000000E+00  0.00000000E+00  0.00000000E+00
  0.00000000E+00  0.00000000E+00  0.00000000E+00
  0.00000000E+00  0.00000000E+00  0.00000000E+00
  0.00000000E+00  0.00000000E+00  0.00000000E+00
  0.00000000E+00  0.00000000E+00  0.00000000E+00
  0.00000000E+00  0.00000000E+00  0.00000000E+00
  0.00000000E+00  0.00000000E+00  0.00000000E+00
  0.00000000E+00  0.00000000E+00  0.00000000E+00
  0.00000000E+00  0.00000000E+00  0.00000000E+00
  0.00000000E+00  0.00000000E+00  0.00000000E+00
  0.00000000E+00  0.00000000E+00  0.00000000E+00
  0.00000000E+00  0.00000000E+00  0.00000000E+00
  0.00000000E+00  0.00000000E+00  0.00000000E+00
  0.00000000E+00  0.00000000E+00  0.00000000E+00
  0.00000000E+00  0.00000000E+00  0.00000000E+00
  0.00000000E+00  0.00000000E+00  0.00000000E+00
  0.00000000E+00  0.00000000E+00  0.00000000E+00
  0.00000000E+00  0.00000000E+00  0.00000000E+00
  0.00000000E+00  0.00000000E+00  0.00000000E+00
  0.00000000E+00  0.00000000E+00  0.00000000E+00
  0.00000000E+00  0.00000000E+00  0.00000000E+00
  0.00000000E+00  0.00000000E+00  0.00000000E+00
  0.00000000E+00  0.00000000E+00  0.00000000E+00
  0.00000000E+00  0.00000000E+00  0.00000000E+00
  0.00000000E+00  0.00000000E+00  0.00000000E+00
  0.00000000E+00  0.00000000E+00  0.00000000E+00
  0.00000000E+00  0.00000000E+00  0.00000000E+00
  0.00000000E+00  0.00000000E+00  0.00000000E+00
  0.00000000E+00  0.00000000E+00  0.00000000E+00
  0.00000000E+00  0.00000000E+00  0.00000000E+00
  0.00000000E+00  0.00000000E+00  0.00000000E+00
  0.00000000E+00  0.00000000E+00  0.00000000E+00
  0.00000000E+00  0.00000000E+00  0.00000000E+00
  0.00000000E+00  0.00000000E+00  0.00000000E+00
  0.00000000E+00  0.00000000E+00  0.00000000E+00
  0.00000000E+00  0.00000000E+00  0.00000000E+00
