Generated by VASPKIT code               
   1.00000000000000     
    18.2344068465426972    0.0002572692015656    0.0000000000000000
     0.0002573832489483   18.2348451754282337    0.0000000000000000
     0.0000000000000012    0.0000000000000012   19.7185703333499518
   C 
   148
Direct
  0.5276160954753593  0.0898583407610332  0.5930859504934105
  0.9100874642223928  0.5273910613834616  0.5931206320721287
  0.4901235707486222  0.1260573029222840  0.5365219309393154
  0.8739067163424110  0.4899976710356384  0.5364707621816294
  0.4826727376940241  0.0355104437280218  0.6231917347335099
  0.9644340682157093  0.4823698264544447  0.6231286805665519
  0.4344944011667025  0.0772193980281628  0.5242035788738093
  0.9227763136334630  0.4344133368718843  0.5240347543348705
  0.4100766779808609  0.0283508186825117  0.5776506710460581
  0.9716110186416671  0.4099412476561923  0.5774501581207900
  0.5175740613744679  0.9650151870249246  0.6232226885186165
  0.0349302807738923  0.5172651998037381  0.6233415355844656
  0.4725989377463620  0.9105454021330175  0.5933705029632037
  0.0894062480294266  0.4723528883659895  0.5933898163344367
  0.4052946394115082  0.9439881905899625  0.5618400950136575
  0.0559663368987486  0.4051515644195831  0.5616764607494460
  0.5900069129010248  0.9720251871966283  0.5775449267334878
  0.0279450099894945  0.5898791458557042  0.5778088561846815
  0.5948798823923838  0.0562933178037781  0.5615599916284495
  0.9436517952417134  0.5947673413653334  0.5617850412989185
  0.5939870769421987  0.0813330192751849  0.4816407074803166
  0.9186968931436610  0.5939204808216516  0.4818452037934122
  0.5656147512334755  0.9229976263280903  0.5242738880383726
  0.0769984423090619  0.5655393363858749  0.5245171850645463
  0.5880268906536941  0.9364150378205736  0.4546108926700114
  0.0636055394879307  0.5879887492226743  0.4548741610800846
  0.5912413533399885  0.0181345808704734  0.4277348269108359
  0.9819280945691062  0.5912141357188290  0.4279845316641300
  0.5100290239952159  0.8741717666725677  0.5368367159473308
  0.1258084859019277  0.5098981134961278  0.5369550286376423
  0.4828884193273666  0.0943447930764094  0.4190226177244867
  0.9056728179619569  0.4829555815628694  0.4189596864689307
  0.5265523414784425  0.1256428905351115  0.4706135240863958
  0.8743637194013019  0.5265348040576185  0.4706371666402944
  0.5204523557701961  0.0323510415145947  0.3896696777325417
  0.9677054181221294  0.5205557073100380  0.3897398734435811
  0.4795578559622982  0.9675991383466993  0.3897879572709471
  0.0324495332651793  0.4796626051993300  0.3897852284188801
  0.5171638701459784  0.9056831618879144  0.4192178663079034
  0.0943271974583269  0.5172201780105681  0.4193716065131810
  0.4735606015520233  0.8745453292416627  0.4709497754986458
  0.1254840526779333  0.4735301988995815  0.4710032452172754
  0.4120795680846854  0.0636728691712776  0.4545976208167843
  0.9363480838846741  0.4120581733473898  0.4544058012203820
  0.4088411385496613  0.9819654528199138  0.4279370472850417
  0.0180880763046147  0.4088103614338863  0.4277509272822613
  0.4061610545383232  0.9188646176413755  0.4819697940357202
  0.0811658620766309  0.4060807956241419  0.4818238299131679
  0.5393841253821989  0.4620869670774468  0.4114850260975018
  0.3261505006667917  0.0552555035153190  0.4730136429760563
  0.6738874585171288  0.9448320281860987  0.4727791788183424
  0.9447345215385567  0.3260911165930338  0.4727481466718402
  0.0551753126307659  0.6738297338878212  0.4730965651468679
  0.5634676839179704  0.5368312538855591  0.4239905284690764
  0.3233638357381352  0.0311802763154319  0.5539794113251659
  0.6767021870271606  0.9689667634905774  0.5537274384969706
  0.9687696985862857  0.3233107774699420  0.5537086699343590
  0.0309899114317247  0.6766784279584925  0.5540333607506867
  0.4606755552822577  0.4620654536853408  0.4114947468379313
  0.2526793533489311  0.0903016559068419  0.4623586738112380
  0.7473321185208377  0.9096973278544027  0.4621499304268184
  0.9096489994241352  0.2526148504719075  0.4621481646319978
  0.0902883032493662  0.7472430075793710  0.4623858554694635
  0.4365566937865921  0.5368013841601780  0.4240030820874594
  0.2116653467808973  0.0912498394385182  0.5236887619802033
  0.7882979505226686  0.9087027114687132  0.5235025272090326
  0.9086593524379722  0.2116576384577797  0.5235265365543000
  0.0912214893053616  0.7882842862655224  0.5236865963840245
  0.5000036476055243  0.5854446400387801  0.4292506356256354
  0.2486013651892236  0.0556409976750913  0.5767524081946576
  0.7513546144173162  0.9443477929590784  0.5765625981431839
  0.9442537124300969  0.2486262912912949  0.5765641734171894
  0.0555603310133179  0.7514038669196310  0.5767788794466711
  0.4340809932403644  0.4137543488480731  0.4653083625755272
  0.2122112423121720  0.0492060122359703  0.4140184345677440
  0.7879178915370559  0.9507791530596776  0.4138670132130642
  0.9508007087482753  0.2120615959217957  0.4139077580152701
  0.0492364877542286  0.7877335693599576  0.4140083280225255
  0.3971882524490127  0.4626983035769214  0.5131527145919748
  0.1414935105323636  0.0292009279288123  0.4451408391142451
  0.8586097691348229  0.9707183724241162  0.4450829123859208
  0.9707741578200739  0.1413846586117486  0.4451343332405102
  0.0292561939737581  0.8584760163885292  0.4450962889954511
  0.3971664859794686  0.5371945805051936  0.4870288814117245
  0.1320718907526199  0.0637544574671622  0.5155546830051208
  0.8679217803024883  0.9361514488658287  0.5154635708616482
  0.9361777013863630  0.1320483181000043  0.5155162229354531
  0.0638039259842387  0.8678956249709984  0.5155035153238501
  0.5000738111428760  0.3900273551670068  0.5006321717010422
  0.2511857739749601  0.9849785949783865  0.3927018532244162
  0.7490285547612388  0.0150301058090960  0.3925072604855160
  0.0150503409825689  0.2509876815886685  0.3925638657845951
  0.9850169853327344  0.7488007699299146  0.3926619793772588
  0.5000727497017436  0.4144805406484267  0.5709221879635180
  0.2082078837377068  0.9256530928229765  0.4178693524426436
  0.7920286073728136  0.0743093687842347  0.4177507278201205
  0.0743384424635920  0.2080157215471132  0.4178361647187288
  0.9256944151456850  0.7918147314333623  0.4178004262100785
  0.4366064158281091  0.4631097868313887  0.5761696270056689
  0.1400876261884108  0.9542066968116600  0.4474985354375036
  0.8600622379916558  0.0457109360892147  0.4474772467753425
  0.0457498129564797  0.1399545346121940  0.4475455246088131
  0.9542656489549515  0.8599154315147928  0.4474346508833094
  0.5660346692123142  0.4137868296426177  0.4652884882653296
  0.3232646143577895  0.9831251766400371  0.4301256911300868
  0.6768637512237063  0.0169320537560367  0.4298416820855664
  0.0169018315789060  0.3231666842310261  0.4298834038186570
  0.9831077598356543  0.6767645988127597  0.4301322419950253
  0.6029117373840975  0.4627506666450003  0.5131293271895956
  0.3201563211833331  0.9177805682297091  0.4806241851171507
  0.6800105577148017  0.0823170432120719  0.4803042683934962
  0.0822209441859627  0.3200574389727748  0.4804292066685250
  0.9176950074659445  0.6799195657916925  0.4805403907590957
  0.5635138746068478  0.4631409276372054  0.5761566475160365
  0.2454939340745383  0.8844666222817636  0.4690415471065350
  0.7547170164693284  0.1155174020721148  0.4688712318721713
  0.1155094795471499  0.2453560625134230  0.4689740604222123
  0.8844565424805992  0.7545817230944323  0.4689482242998650
  0.6028879489812837  0.5372469165426921  0.4870050032946551
  0.3191817409120148  0.9456234492801769  0.5547068496461591
  0.6809308101284373  0.0544976707175664  0.5544060360236145
  0.0543134675203021  0.3191106899888183  0.5544840404607143
  0.9454414603395662  0.6808930108358595  0.5546591838804673
  0.5660079159167282  0.5861966209645928  0.5348573866587856
  0.2434865971925007  0.9267883268936501  0.5811339998585652
  0.7565761196420482  0.0731715317801971  0.5809931319429111
  0.0730953709461915  0.2434805071606050  0.5810429085758386
  0.9267112312575847  0.7566151953518343  0.5811026377100887
  0.5393963961483479  0.5378755375162285  0.5886624308616959
  0.2037344722523358  0.8899151993874312  0.5297530195055913
  0.7963816880998209  0.1099757831356030  0.5296484423283943
  0.1099978853139021  0.2036676475956298  0.5297378492960760
  0.8899498168257409  0.7963398889249831  0.5296687484958511
  0.4606886435508244  0.5378547293249056  0.5886683710840117
  0.1265086462739475  0.9237097502622191  0.5179474306516667
  0.8735675958680744  0.0761654324749017  0.5179397081535626
  0.0762185093615386  0.1264371808108677  0.5180155246604059
  0.9237663136658156  0.8735118655266874  0.5178731183404039
  0.4340350818366190  0.5861667275559626  0.5348724039523134
  0.1321570476845579  0.9946883913910440  0.5610915324881915
  0.8678854571107806  0.0051676590048615  0.5610658929329375
  0.0051966002233499  0.1321516547643924  0.5611187421453963
  0.9947261429399674  0.8678846786961643  0.5610452626204392
  0.5000115875742850  0.6099199574813454  0.4995249414298613
  0.2036485690194425  0.9930807741257226  0.5932134475006521
  0.7963550039660845  0.0068233051592941  0.5931103788515557
  0.0067811937212099  0.2036869229299754  0.5931370297900500
  0.9930465901934014  0.7964088831229859  0.5931986668918796
 
  0.00000000E+00  0.00000000E+00  0.00000000E+00
  0.00000000E+00  0.00000000E+00  0.00000000E+00
  0.00000000E+00  0.00000000E+00  0.00000000E+00
  0.00000000E+00  0.00000000E+00  0.00000000E+00
  0.00000000E+00  0.00000000E+00  0.00000000E+00
  0.00000000E+00  0.00000000E+00  0.00000000E+00
  0.00000000E+00  0.00000000E+00  0.00000000E+00
  0.00000000E+00  0.00000000E+00  0.00000000E+00
  0.00000000E+00  0.00000000E+00  0.00000000E+00
  0.00000000E+00  0.00000000E+00  0.00000000E+00
  0.00000000E+00  0.00000000E+00  0.00000000E+00
  0.00000000E+00  0.00000000E+00  0.00000000E+00
  0.00000000E+00  0.00000000E+00  0.00000000E+00
  0.00000000E+00  0.00000000E+00  0.00000000E+00
  0.00000000E+00  0.00000000E+00  0.00000000E+00
  0.00000000E+00  0.00000000E+00  0.00000000E+00
  0.00000000E+00  0.00000000E+00  0.00000000E+00
  0.00000000E+00  0.00000000E+00  0.00000000E+00
  0.00000000E+00  0.00000000E+00  0.00000000E+00
  0.00000000E+00  0.00000000E+00  0.00000000E+00
  0.00000000E+00  0.00000000E+00  0.00000000E+00
  0.00000000E+00  0.00000000E+00  0.00000000E+00
  0.00000000E+00  0.00000000E+00  0.00000000E+00
  0.00000000E+00  0.00000000E+00  0.00000000E+00
  0.00000000E+00  0.00000000E+00  0.00000000E+00
  0.00000000E+00  0.00000000E+00  0.00000000E+00
  0.00000000E+00  0.00000000E+00  0.00000000E+00
  0.00000000E+00  0.00000000E+00  0.00000000E+00
  0.00000000E+00  0.00000000E+00  0.00000000E+00
  0.00000000E+00  0.00000000E+00  0.00000000E+00
  0.00000000E+00  0.00000000E+00  0.00000000E+00
  0.00000000E+00  0.00000000E+00  0.00000000E+00
  0.00000000E+00  0.00000000E+00  0.00000000E+00
  0.00000000E+00  0.00000000E+00  0.00000000E+00
  0.00000000E+00  0.00000000E+00  0.00000000E+00
  0.00000000E+00  0.00000000E+00  0.00000000E+00
  0.00000000E+00  0.00000000E+00  0.00000000E+00
  0.00000000E+00  0.00000000E+00  0.00000000E+00
  0.00000000E+00  0.00000000E+00  0.00000000E+00
  0.00000000E+00  0.00000000E+00  0.00000000E+00
  0.00000000E+00  0.00000000E+00  0.00000000E+00
  0.00000000E+00  0.00000000E+00  0.00000000E+00
  0.00000000E+00  0.00000000E+00  0.00000000E+00
  0.00000000E+00  0.00000000E+00  0.00000000E+00
  0.00000000E+00  0.00000000E+00  0.00000000E+00
  0.00000000E+00  0.00000000E+00  0.00000000E+00
  0.00000000E+00  0.00000000E+00  0.00000000E+00
  0.00000000E+00  0.00000000E+00  0.00000000E+00
  0.00000000E+00  0.00000000E+00  0.00000000E+00
  0.00000000E+00  0.00000000E+00  0.00000000E+00
  0.00000000E+00  0.00000000E+00  0.00000000E+00
  0.00000000E+00  0.00000000E+00  0.00000000E+00
  0.00000000E+00  0.00000000E+00  0.00000000E+00
  0.00000000E+00  0.00000000E+00  0.00000000E+00
  0.00000000E+00  0.00000000E+00  0.00000000E+00
  0.00000000E+00  0.00000000E+00  0.00000000E+00
  0.00000000E+00  0.00000000E+00  0.00000000E+00
  0.00000000E+00  0.00000000E+00  0.00000000E+00
  0.00000000E+00  0.00000000E+00  0.00000000E+00
  0.00000000E+00  0.00000000E+00  0.00000000E+00
  0.00000000E+00  0.00000000E+00  0.00000000E+00
  0.00000000E+00  0.00000000E+00  0.00000000E+00
  0.00000000E+00  0.00000000E+00  0.00000000E+00
  0.00000000E+00  0.00000000E+00  0.00000000E+00
  0.00000000E+00  0.00000000E+00  0.00000000E+00
  0.00000000E+00  0.00000000E+00  0.00000000E+00
  0.00000000E+00  0.00000000E+00  0.00000000E+00
  0.00000000E+00  0.00000000E+00  0.00000000E+00
  0.00000000E+00  0.00000000E+00  0.00000000E+00
  0.00000000E+00  0.00000000E+00  0.00000000E+00
  0.00000000E+00  0.00000000E+00  0.00000000E+00
  0.00000000E+00  0.00000000E+00  0.00000000E+00
  0.00000000E+00  0.00000000E+00  0.00000000E+00
  0.00000000E+00  0.00000000E+00  0.00000000E+00
  0.00000000E+00  0.00000000E+00  0.00000000E+00
  0.00000000E+00  0.00000000E+00  0.00000000E+00
  0.00000000E+00  0.00000000E+00  0.00000000E+00
  0.00000000E+00  0.00000000E+00  0.00000000E+00
  0.00000000E+00  0.00000000E+00  0.00000000E+00
  0.00000000E+00  0.00000000E+00  0.00000000E+00
  0.00000000E+00  0.00000000E+00  0.00000000E+00
  0.00000000E+00  0.00000000E+00  0.00000000E+00
  0.00000000E+00  0.00000000E+00  0.00000000E+00
  0.00000000E+00  0.00000000E+00  0.00000000E+00
  0.00000000E+00  0.00000000E+00  0.00000000E+00
  0.00000000E+00  0.00000000E+00  0.00000000E+00
  0.00000000E+00  0.00000000E+00  0.00000000E+00
  0.00000000E+00  0.00000000E+00  0.00000000E+00
  0.00000000E+00  0.00000000E+00  0.00000000E+00
  0.00000000E+00  0.00000000E+00  0.00000000E+00
  0.00000000E+00  0.00000000E+00  0.00000000E+00
  0.00000000E+00  0.00000000E+00  0.00000000E+00
  0.00000000E+00  0.00000000E+00  0.00000000E+00
  0.00000000E+00  0.00000000E+00  0.00000000E+00
  0.00000000E+00  0.00000000E+00  0.00000000E+00
  0.00000000E+00  0.00000000E+00  0.00000000E+00
  0.00000000E+00  0.00000000E+00  0.00000000E+00
  0.00000000E+00  0.00000000E+00  0.00000000E+00
  0.00000000E+00  0.00000000E+00  0.00000000E+00
  0.00000000E+00  0.00000000E+00  0.00000000E+00
  0.00000000E+00  0.00000000E+00  0.00000000E+00
  0.00000000E+00  0.00000000E+00  0.00000000E+00
  0.00000000E+00  0.00000000E+00  0.00000000E+00
  0.00000000E+00  0.00000000E+00  0.00000000E+00
  0.00000000E+00  0.00000000E+00  0.00000000E+00
  0.00000000E+00  0.00000000E+00  0.00000000E+00
  0.00000000E+00  0.00000000E+00  0.00000000E+00
  0.00000000E+00  0.00000000E+00  0.00000000E+00
  0.00000000E+00  0.00000000E+00  0.00000000E+00
  0.00000000E+00  0.00000000E+00  0.00000000E+00
  0.00000000E+00  0.00000000E+00  0.00000000E+00
  0.00000000E+00  0.00000000E+00  0.00000000E+00
  0.00000000E+00  0.00000000E+00  0.00000000E+00
  0.00000000E+00  0.00000000E+00  0.00000000E+00
  0.00000000E+00  0.00000000E+00  0.00000000E+00
  0.00000000E+00  0.00000000E+00  0.00000000E+00
  0.00000000E+00  0.00000000E+00  0.00000000E+00
  0.00000000E+00  0.00000000E+00  0.00000000E+00
  0.00000000E+00  0.00000000E+00  0.00000000E+00
  0.00000000E+00  0.00000000E+00  0.00000000E+00
  0.00000000E+00  0.00000000E+00  0.00000000E+00
  0.00000000E+00  0.00000000E+00  0.00000000E+00
  0.00000000E+00  0.00000000E+00  0.00000000E+00
  0.00000000E+00  0.00000000E+00  0.00000000E+00
  0.00000000E+00  0.00000000E+00  0.00000000E+00
  0.00000000E+00  0.00000000E+00  0.00000000E+00
  0.00000000E+00  0.00000000E+00  0.00000000E+00
  0.00000000E+00  0.00000000E+00  0.00000000E+00
  0.00000000E+00  0.00000000E+00  0.00000000E+00
  0.00000000E+00  0.00000000E+00  0.00000000E+00
  0.00000000E+00  0.00000000E+00  0.00000000E+00
  0.00000000E+00  0.00000000E+00  0.00000000E+00
  0.00000000E+00  0.00000000E+00  0.00000000E+00
  0.00000000E+00  0.00000000E+00  0.00000000E+00
  0.00000000E+00  0.00000000E+00  0.00000000E+00
  0.00000000E+00  0.00000000E+00  0.00000000E+00
  0.00000000E+00  0.00000000E+00  0.00000000E+00
  0.00000000E+00  0.00000000E+00  0.00000000E+00
  0.00000000E+00  0.00000000E+00  0.00000000E+00
  0.00000000E+00  0.00000000E+00  0.00000000E+00
  0.00000000E+00  0.00000000E+00  0.00000000E+00
  0.00000000E+00  0.00000000E+00  0.00000000E+00
  0.00000000E+00  0.00000000E+00  0.00000000E+00
  0.00000000E+00  0.00000000E+00  0.00000000E+00
  0.00000000E+00  0.00000000E+00  0.00000000E+00
  0.00000000E+00  0.00000000E+00  0.00000000E+00
  0.00000000E+00  0.00000000E+00  0.00000000E+00
  0.00000000E+00  0.00000000E+00  0.00000000E+00
