Generated by VASPKIT code               
   1.00000000000000     
     8.8775103263569495   -0.0001267265473347    0.0000000000000000
     0.0000601062331328    7.9523140461234743    0.0000000000000000
     0.0000000000000014    0.0000000000000013   19.7187771989365004
   C 
    44
Direct
  0.1336677233351296  0.2628615377787682  0.5375744474115152
  0.9999796636278973  0.2227853491116605  0.5821409865191427
  0.2011270608026337  0.0948870557636639  0.5330187854925299
  0.9999627990839741  0.0423630385889169  0.5892167607588732
  0.1436583900242070  0.9634885792843662  0.5667982818780857
  0.2748069905168435  0.0834777664103896  0.4665104154747155
  0.2425758121764900  0.8928466881975439  0.4588441460636830
  0.1874494214622118  0.8072577878285188  0.5265581284108407
  0.1537318058886257  0.1573707233246466  0.4212417751964779
  0.0766614139222455  0.2682098284087928  0.4636288056577769
  0.9233901056574325  0.2682209673734235  0.4636135037217173
  0.0804389149693492  0.0353557517536416  0.3820904778063081
  0.9196304337542429  0.0353825108658725  0.3820800334892880
  0.8463275105843877  0.1573915395496499  0.4212184588693759
  0.1342905825348311  0.8742894895999882  0.4100469016294639
  0.7988587276351353  0.0949207648850461  0.5329845794152419
  0.8663386125193284  0.2628892181595148  0.5375492646430828
  0.7252108864802764  0.0835348308280430  0.4664644379096998
  0.7574153632920684  0.8928881105876769  0.4588077965943214
  0.8657384504119889  0.8743063451185904  0.4100278539680886
  0.0000021685388418  0.7852413019535547  0.4343012856178845
  0.8562772542586714  0.9635140252486210  0.5667771679082634
  0.8124944993106169  0.8072919789213131  0.5265341555040237
  0.9999804422272831  0.7436065886458323  0.5015179417738906
  0.6322124997428986  0.4140192971938674  0.5905868019083513
  0.5838487662917089  0.5818824806494902  0.5931906134894405
  0.7350731279941343  0.3754436955026321  0.5325567502040158
  0.7168390327931320  0.5371269580657909  0.4942932000723061
  0.6615531485354467  0.6849829480703633  0.5377937996271100
  0.6309349483047555  0.2395428676791553  0.4813456951643857
  0.5778916116675958  0.3561686649471838  0.4265031534039068
  0.6325536340974693  0.5250108237931173  0.4359758551236510
  0.5000345412789713  0.2224344912415219  0.5254510581556033
  0.3690904417895311  0.2395060897811945  0.4813776105419265
  0.4220746022209596  0.3561486110071428  0.4265181592958172
  0.5000438221025476  0.3098516200863415  0.5858194346576298
  0.3678451094652715  0.4139756176001796  0.5906108946865345
  0.2649519232893169  0.3753891842918762  0.5325900080538233
  0.4161668946859436  0.5818571876113765  0.5932044060032311
  0.3384134541944874  0.6849456996078374  0.5378190903266002
  0.2831397581041415  0.5370753938930690  0.4943281177839722
  0.3673890780458464  0.5249718361307174  0.4359987134550494
  0.4999576163922939  0.6354463693900314  0.4427028071329318
  0.4999709559888501  0.7298383852690620  0.5012478043748345
 
  0.00000000E+00  0.00000000E+00  0.00000000E+00
  0.00000000E+00  0.00000000E+00  0.00000000E+00
  0.00000000E+00  0.00000000E+00  0.00000000E+00
  0.00000000E+00  0.00000000E+00  0.00000000E+00
  0.00000000E+00  0.00000000E+00  0.00000000E+00
  0.00000000E+00  0.00000000E+00  0.00000000E+00
  0.00000000E+00  0.00000000E+00  0.00000000E+00
  0.00000000E+00  0.00000000E+00  0.00000000E+00
  0.00000000E+00  0.00000000E+00  0.00000000E+00
  0.00000000E+00  0.00000000E+00  0.00000000E+00
  0.00000000E+00  0.00000000E+00  0.00000000E+00
  0.00000000E+00  0.00000000E+00  0.00000000E+00
  0.00000000E+00  0.00000000E+00  0.00000000E+00
  0.00000000E+00  0.00000000E+00  0.00000000E+00
  0.00000000E+00  0.00000000E+00  0.00000000E+00
  0.00000000E+00  0.00000000E+00  0.00000000E+00
  0.00000000E+00  0.00000000E+00  0.00000000E+00
  0.00000000E+00  0.00000000E+00  0.00000000E+00
  0.00000000E+00  0.00000000E+00  0.00000000E+00
  0.00000000E+00  0.00000000E+00  0.00000000E+00
  0.00000000E+00  0.00000000E+00  0.00000000E+00
  0.00000000E+00  0.00000000E+00  0.00000000E+00
  0.00000000E+00  0.00000000E+00  0.00000000E+00
  0.00000000E+00  0.00000000E+00  0.00000000E+00
  0.00000000E+00  0.00000000E+00  0.00000000E+00
  0.00000000E+00  0.00000000E+00  0.00000000E+00
  0.00000000E+00  0.00000000E+00  0.00000000E+00
  0.00000000E+00  0.00000000E+00  0.00000000E+00
  0.00000000E+00  0.00000000E+00  0.00000000E+00
  0.00000000E+00  0.00000000E+00  0.00000000E+00
  0.00000000E+00  0.00000000E+00  0.00000000E+00
  0.00000000E+00  0.00000000E+00  0.00000000E+00
  0.00000000E+00  0.00000000E+00  0.00000000E+00
  0.00000000E+00  0.00000000E+00  0.00000000E+00
  0.00000000E+00  0.00000000E+00  0.00000000E+00
  0.00000000E+00  0.00000000E+00  0.00000000E+00
  0.00000000E+00  0.00000000E+00  0.00000000E+00
  0.00000000E+00  0.00000000E+00  0.00000000E+00
  0.00000000E+00  0.00000000E+00  0.00000000E+00
  0.00000000E+00  0.00000000E+00  0.00000000E+00
  0.00000000E+00  0.00000000E+00  0.00000000E+00
  0.00000000E+00  0.00000000E+00  0.00000000E+00
  0.00000000E+00  0.00000000E+00  0.00000000E+00
  0.00000000E+00  0.00000000E+00  0.00000000E+00
