Generated by VASPKIT code               
   1.00000000000000     
    11.6367245675174793   -0.0723781674930999    0.0000000000000000
    -5.8771267134386145   10.6429872690318437    0.0000000000000000
     0.0000000000000012    0.0000000000000021   19.7163309129112214
   C 
    84
Direct
  0.9186498541605843  0.8288581395386529  0.5645579598449970
  0.9749061794106098  0.7811597304545117  0.5116340521502352
  0.0009663501643544  0.9218752452536947  0.6127904566745599
  0.1280786112361127  0.9096090885032737  0.5046684781778765
  0.1117888846274440  0.9856448988577426  0.5665642003833540
  0.9447627822698621  0.0043279415800868  0.6220424110867597
  0.0332606730585567  0.1238756472851037  0.5917922076336950
  0.1311810181712403  0.1085368605733805  0.5574975019272514
  0.8412634320975485  0.9658959497705482  0.5712801877948834
  0.8247167698835156  0.8578180663359447  0.5387238187661012
  0.7873583170030898  0.8152235968916841  0.4662409699689860
  0.8420415068575267  0.0721312388904636  0.5286727720272992
  0.8684124312253445  0.0515261467547674  0.4560893871452976
  0.8327489998118978  0.9364861509818070  0.4230933243032879
  0.9751780654836466  0.1873125209933804  0.5473507306574419
  0.9888747443629953  0.8862840829648135  0.4063287070159447
  0.9056585747356110  0.7935485746563629  0.4498581339172603
  0.9394272037246125  0.9624395001333426  0.3752380909054764
  0.0402763506768835  0.0898312638844487  0.3901684884776699
  0.9871826236319876  0.1494891645387852  0.4306354757099271
  0.0732981205945933  0.2319613987176439  0.4859443149053320
  0.1104744754595686  0.9678615666576462  0.4419050686054220
  0.1452072513368776  0.0930912702456297  0.4334652596649136
  0.1856905105244451  0.1863033353678958  0.4962182963099977
  0.4175922642693592  0.0244992621675095  0.5860740635927115
  0.0006156073422261  0.4088495124084730  0.5896829553210381
  0.6044177070365748  0.5646292964802271  0.5766443446856826
  0.3936395045505208  0.8939398307582920  0.5811391806787469
  0.1295944325584344  0.5037401247629347  0.5799482916867049
  0.5094710949297294  0.6106173989695662  0.5734165145436592
  0.3624650876279532  0.0506306896741791  0.5316309350761088
  0.9612611384317660  0.3076127500236083  0.5381837542372878
  0.6787453140633986  0.6034716624744689  0.5196190768906277
  0.2760288399017199  0.9314090129865988  0.4918487064162846
  0.0801843151528630  0.3616653926313660  0.4861337277869637
  0.6523708212933812  0.6942249639660858  0.4736163935199613
  0.3076054710114633  0.8267202839168206  0.5191379343689064
  0.1903317744610433  0.4811495317540704  0.5182607490601185
  0.5276309429233876  0.7009620741311693  0.5110566342237135
  0.4627119667794233  0.1676858104469758  0.4911361086726203
  0.8394066948022498  0.3103781072875833  0.4946418019408512
  0.6939674256373891  0.4994952153154060  0.4838612433760829
  0.4761505907212893  0.1015795352619477  0.4322965110216757
  0.9107215487576639  0.3851233354871368  0.4314048097339267
  0.6107648703454771  0.4919074094940115  0.4221504945282248
  0.3710637765682208  0.9765519396866367  0.4267277333907131
  0.0455108288370880  0.4118072283957233  0.4254838617829435
  0.5867974135045060  0.6009079275358786  0.4172769955209574
  0.5949048348292720  0.2161802416908216  0.5327877932877740
  0.8392311492869879  0.4224784872510838  0.5308720037943360
  0.5899089241288351  0.3692917724652460  0.5258285709818722
  0.6995482709651455  0.1906615864583614  0.4900301031095609
  0.8383046620856476  0.5225933594686012  0.4845922392409179
  0.4615211245738493  0.2919093259919592  0.4800166939779302
  0.6075807971994323  0.1179258195418313  0.4286513133325869
  0.9060277651701938  0.4970416804447240  0.4244872631731411
  0.4918831257691920  0.3807444848748531  0.4177485125289948
  0.5578033415789463  0.1146894030469099  0.5875871540486202
  0.9195556509294107  0.4686741216943702  0.5861079949924886
  0.5390874737214943  0.4239824191413746  0.5785501428310695
  0.6164798119992270  0.0385809738163374  0.5811471993657804
  0.0019700123054491  0.6039681681211775  0.5783418545388272
  0.4046330844349129  0.3813312297579969  0.5742931780291443
  0.7119971742968829  0.0742145191658778  0.5243676746126340
  0.9641698872245144  0.6526394261157336  0.5155786232142319
  0.3380275695609285  0.2961167440260084  0.5100905612901201
  0.5185826564414171  0.9048309195936639  0.5769382340060858
  0.1290241009847861  0.6208977999389731  0.5732390406143679
  0.3946089988187467  0.4962863268336761  0.5705172703630268
  0.5344824404930151  0.8374180621127110  0.5134651646512580
  0.1988806195528952  0.6913390599719875  0.5104427116839503
  0.3204484852893117  0.4887567910719284  0.5096218972410256
  0.6401139914593514  0.9590288852242423  0.4758138035075063
  0.0767980828044372  0.6696038723757312  0.4710626531023365
  0.3273087990605674  0.3903221878047489  0.4688875732914681
  0.5841083854783733  0.9935542680169434  0.4224495055432200
  0.0441816800223336  0.5940830836981874  0.4158402968599759
  0.3934082115551689  0.4236301541471548  0.4097064133898201
  0.4411262619137801  0.9063628546507161  0.4198075827145402
  0.1311723568880652  0.5396371167989642  0.4144826336530159
  0.4540754930142086  0.5615712427289949  0.4103119157678989
  0.4160248799153194  0.8322633359959184  0.4756632559790717
  0.2368172421850119  0.5982324596650486  0.4698130604965129
  0.3957494920468747  0.6085081404488903  0.4670885870977060
 
  0.00000000E+00  0.00000000E+00  0.00000000E+00
  0.00000000E+00  0.00000000E+00  0.00000000E+00
  0.00000000E+00  0.00000000E+00  0.00000000E+00
  0.00000000E+00  0.00000000E+00  0.00000000E+00
  0.00000000E+00  0.00000000E+00  0.00000000E+00
  0.00000000E+00  0.00000000E+00  0.00000000E+00
  0.00000000E+00  0.00000000E+00  0.00000000E+00
  0.00000000E+00  0.00000000E+00  0.00000000E+00
  0.00000000E+00  0.00000000E+00  0.00000000E+00
  0.00000000E+00  0.00000000E+00  0.00000000E+00
  0.00000000E+00  0.00000000E+00  0.00000000E+00
  0.00000000E+00  0.00000000E+00  0.00000000E+00
  0.00000000E+00  0.00000000E+00  0.00000000E+00
  0.00000000E+00  0.00000000E+00  0.00000000E+00
  0.00000000E+00  0.00000000E+00  0.00000000E+00
  0.00000000E+00  0.00000000E+00  0.00000000E+00
  0.00000000E+00  0.00000000E+00  0.00000000E+00
  0.00000000E+00  0.00000000E+00  0.00000000E+00
  0.00000000E+00  0.00000000E+00  0.00000000E+00
  0.00000000E+00  0.00000000E+00  0.00000000E+00
  0.00000000E+00  0.00000000E+00  0.00000000E+00
  0.00000000E+00  0.00000000E+00  0.00000000E+00
  0.00000000E+00  0.00000000E+00  0.00000000E+00
  0.00000000E+00  0.00000000E+00  0.00000000E+00
  0.00000000E+00  0.00000000E+00  0.00000000E+00
  0.00000000E+00  0.00000000E+00  0.00000000E+00
  0.00000000E+00  0.00000000E+00  0.00000000E+00
  0.00000000E+00  0.00000000E+00  0.00000000E+00
  0.00000000E+00  0.00000000E+00  0.00000000E+00
  0.00000000E+00  0.00000000E+00  0.00000000E+00
  0.00000000E+00  0.00000000E+00  0.00000000E+00
  0.00000000E+00  0.00000000E+00  0.00000000E+00
  0.00000000E+00  0.00000000E+00  0.00000000E+00
  0.00000000E+00  0.00000000E+00  0.00000000E+00
  0.00000000E+00  0.00000000E+00  0.00000000E+00
  0.00000000E+00  0.00000000E+00  0.00000000E+00
  0.00000000E+00  0.00000000E+00  0.00000000E+00
  0.00000000E+00  0.00000000E+00  0.00000000E+00
  0.00000000E+00  0.00000000E+00  0.00000000E+00
  0.00000000E+00  0.00000000E+00  0.00000000E+00
  0.00000000E+00  0.00000000E+00  0.00000000E+00
  0.00000000E+00  0.00000000E+00  0.00000000E+00
  0.00000000E+00  0.00000000E+00  0.00000000E+00
  0.00000000E+00  0.00000000E+00  0.00000000E+00
  0.00000000E+00  0.00000000E+00  0.00000000E+00
  0.00000000E+00  0.00000000E+00  0.00000000E+00
  0.00000000E+00  0.00000000E+00  0.00000000E+00
  0.00000000E+00  0.00000000E+00  0.00000000E+00
  0.00000000E+00  0.00000000E+00  0.00000000E+00
  0.00000000E+00  0.00000000E+00  0.00000000E+00
  0.00000000E+00  0.00000000E+00  0.00000000E+00
  0.00000000E+00  0.00000000E+00  0.00000000E+00
  0.00000000E+00  0.00000000E+00  0.00000000E+00
  0.00000000E+00  0.00000000E+00  0.00000000E+00
  0.00000000E+00  0.00000000E+00  0.00000000E+00
  0.00000000E+00  0.00000000E+00  0.00000000E+00
  0.00000000E+00  0.00000000E+00  0.00000000E+00
  0.00000000E+00  0.00000000E+00  0.00000000E+00
  0.00000000E+00  0.00000000E+00  0.00000000E+00
  0.00000000E+00  0.00000000E+00  0.00000000E+00
  0.00000000E+00  0.00000000E+00  0.00000000E+00
  0.00000000E+00  0.00000000E+00  0.00000000E+00
  0.00000000E+00  0.00000000E+00  0.00000000E+00
  0.00000000E+00  0.00000000E+00  0.00000000E+00
  0.00000000E+00  0.00000000E+00  0.00000000E+00
  0.00000000E+00  0.00000000E+00  0.00000000E+00
  0.00000000E+00  0.00000000E+00  0.00000000E+00
  0.00000000E+00  0.00000000E+00  0.00000000E+00
  0.00000000E+00  0.00000000E+00  0.00000000E+00
  0.00000000E+00  0.00000000E+00  0.00000000E+00
  0.00000000E+00  0.00000000E+00  0.00000000E+00
  0.00000000E+00  0.00000000E+00  0.00000000E+00
  0.00000000E+00  0.00000000E+00  0.00000000E+00
  0.00000000E+00  0.00000000E+00  0.00000000E+00
  0.00000000E+00  0.00000000E+00  0.00000000E+00
  0.00000000E+00  0.00000000E+00  0.00000000E+00
  0.00000000E+00  0.00000000E+00  0.00000000E+00
  0.00000000E+00  0.00000000E+00  0.00000000E+00
  0.00000000E+00  0.00000000E+00  0.00000000E+00
  0.00000000E+00  0.00000000E+00  0.00000000E+00
  0.00000000E+00  0.00000000E+00  0.00000000E+00
  0.00000000E+00  0.00000000E+00  0.00000000E+00
  0.00000000E+00  0.00000000E+00  0.00000000E+00
  0.00000000E+00  0.00000000E+00  0.00000000E+00
