C 
 1.0000000000000000
    16.0291422098444407    0.0000000000000000    0.0000000000000000
     0.0000000000000000    8.3348679294262187    0.0000000000000000
     0.0000000000000000    0.0000000000000000   16.0000000000000000
 C  
 128
Direct
  0.4262531418318951  0.7205322894434775  0.6403619352151150
  0.5080685849684041  0.7360501590525822  0.6051575195828759
  0.3851690842100209  0.8730110271907111  0.6437184272192267
  0.5121287014751260  0.9002281901995617  0.5694790722239902
  0.4370894289712878  0.9837940986152007  0.5929053950371262
  0.3058964697076311  0.8654777530567347  0.6027128932185617
  0.2994479531828222  0.9872439114443649  0.5397719150868966
  0.3846798010430133  1.0537172613516064  0.5295281622189925
  0.3042469318843279  0.7100257274502342  0.5575306073078600
  0.3778654481902627  0.6213905881965849  0.5805735008208461
  0.4343127413716544  0.5650793985262939  0.5169701109560778
  0.2870007924579627  0.7423878732656346  0.4708425766381686
  0.3434072812072905  0.6860664831938614  0.4072575939760676
  0.4170463018968819  0.5974466705384653  0.4302970072288341
  0.2775166033043066  0.9186326814148247  0.4607145606544504
  0.5449925802334838  0.7135713539061935  0.4632226304964883
  0.5187735680902897  0.6282242393808040  0.5363455855940014
  0.4903721357708218  0.6813619131457805  0.3943315141343413
  0.4592557491387899  0.8276710163271511  0.3592708952084739
  0.3699652861404974  0.8262425431613610  0.3567103457858062
  0.3363242620687021  0.9647068060542902  0.3977908584269808
  0.5347325721528596  0.8864656280740462  0.4826670459608076
  0.4823026760917724  0.9562173619911707  0.4192578810529507
  0.4072722944692227  1.0398457969290156  0.4427099786075085
  0.5737468581681049  0.2205322894434775  0.6403619352151150
  0.4919314150315958  0.2360501590525822  0.6051575195828759
  0.6148309157899789  0.3730110271907111  0.6437184272192267
  0.4878712985248739  0.4002281901995617  0.5694790722239902
  0.5629105710287121  0.4837940986152008  0.5929053950371262
  0.6941035302923688  0.3654777530567347  0.6027128932185617
  0.7005520468171776  0.4872439114443649  0.5397719150868966
  0.6153201989569866  0.5537172613516066  0.5295281622189925
  0.6957530681156721  0.2100257274502343  0.5575306073078600
  0.6221345518097373  0.1213905881965850  0.5805735008208461
  0.5656872586283456  0.0650793985262939  0.5169701109560778
  0.7129992075420373  0.2423878732656347  0.4708425766381686
  0.6565927187927095  0.1860664831938615  0.4072575939760676
  0.5829536981031180  0.0974466705384653  0.4302970072288341
  0.7224833966956933  0.4186326814148247  0.4607145606544504
  0.4550074197665161  0.2135713539061936  0.4632226304964883
  0.4812264319097102  0.1282242393808040  0.5363455855940014
  0.5096278642291782  0.1813619131457805  0.3943315141343413
  0.5407442508612100  0.3276710163271512  0.3592708952084739
  0.6300347138595026  0.3262425431613611  0.3567103457858062
  0.6636757379312979  0.4647068060542903  0.3977908584269808
  0.4652674278471403  0.3864656280740462  0.4826670459608076
  0.5176973239082275  0.4562173619911709  0.4192578810529507
  0.5927277055307772  0.5398457969290157  0.4427099786075085
  0.6418902363025462 -0.0882629321428066  0.4976614159331310
  0.6495042031100889 -0.2610355599991832  0.5070951075936997
  0.6652408648879228 -0.0487909550533457  0.4135353201865754
  0.6871836975187094 -0.1974104019046035  0.3714405502547764
  0.6744610441705498 -0.3336172972797356  0.4276890943795103
  0.7370466740277067  0.0594957135390037  0.4149709998654904
  0.8047756226184735 -0.0332438357824900  0.3773052950067562
  0.7737145280799984 -0.1877641326377564  0.3489627231338990
  0.7594619118886071  0.0714669373320680  0.5029701423141408
  0.8429868022608437  0.0094481654543272  0.5183690482523942
  0.8679401100176004 -0.0630810994731118  0.4389605797791210
  0.6978658232053662 -0.0067046239384255  0.5560426470586997
  0.7437356424365955 -0.1363556788034912  0.5970950639900621
  0.8302745354332737 -0.1267324916842556  0.5746311394275739
  0.7126640795110027 -0.2908395993635584  0.5687583665354704
  0.7803915733779603 -0.3835838898527538  0.5311008995177379
  0.8522083490680591 -0.2753304998966023  0.5325230896108756
  0.8755565204219364 -0.2358506125332341  0.4483912865734927
  0.8195766599626098 -0.3174346159160732  0.3900093524653578
  0.7579882134675086 -0.3956200917094700  0.4430972868565783
  0.3581097636974539  0.4117370678571934  0.4976614159331310
  0.3504957968899111  0.2389644400008168  0.5070951075936997
  0.3347591351120772  0.4512090449466542  0.4135353201865754
  0.3128163024812906  0.3025895980953965  0.3714405502547764
  0.3255389558294503  0.1663827027202644  0.4276890943795103
  0.2629533259722933  0.5594957135390036  0.4149709998654904
  0.1952243773815265  0.4667561642175100  0.3773052950067562
  0.2262854719200016  0.3122358673622436  0.3489627231338990
  0.2405380881113929  0.5714669373320680  0.5029701423141408
  0.1570131977391563  0.5094481654543271  0.5183690482523942
  0.1320598899823996  0.4369189005268882  0.4389605797791210
  0.3021341767946338  0.4932953760615745  0.5560426470586997
  0.2562643575634045  0.3636443211965087  0.5970950639900621
  0.1697254645667263  0.3732675083157444  0.5746311394275739
  0.2873359204889971  0.2091604006364416  0.5687583665354704
  0.2196084266220396  0.1164161101472462  0.5311008995177379
  0.1477916509319409  0.2246695001033976  0.5325230896108756
  0.1244434795780636  0.2641493874667659  0.4483912865734927
  0.1804233400373902  0.1825653840839267  0.3900093524653578
  0.2420117865324914  0.1043799082905299  0.4430972868565783
  0.1484097057808184 -0.0365755994369321  0.6037146686119557
  0.1160671109542274 -0.1802522072611250  0.6436635319586360
  0.0784095852169878  0.0550826960168944  0.5745678875083768
  0.0031783038771658 -0.0324917904781021  0.5966478967110236
  0.0248112855625986 -0.1776027970647970  0.6433053561259220
  0.0838026032456089  0.0733848500827383  0.4837995115378386
  0.0121074333277575 -0.0157075565262423  0.4514937223111330
 -0.0379458732389747 -0.0763779330397586  0.5203237667039686
  0.1558819821631507 -0.0225199377864752  0.4597855325416751
  0.1322365035371187 -0.1539478294465927  0.4047020984392894
  0.0409911909196391 -0.1512541539487695  0.4043328283042177
  0.2011908407939438 -0.0803043838932339  0.5326990924790173
  0.1950036590838851 -0.2551377527801931  0.5276683891721488
  0.1538840759545065 -0.2990613684984400  0.4513433340712690
  0.1449663709516820 -0.3157780738276872  0.5964974755240237
  0.0732776310125391 -0.4048808065466169  0.5641940643356610
  0.0786486357442143 -0.3865994009006666  0.4734255202597148
  0.0086460458940336 -0.2949276011076083  0.4442788111956421
 -0.0441402129657725 -0.2512135706904849  0.5153049972756040
  0.0011767028615266 -0.3090298312290495  0.5882154898406183
  0.8515902942191815  0.4634244005630679  0.6037146686119557
  0.8839328890457726  0.3197477927388750  0.6436635319586360
  0.9215904147830122  0.5550826960168943  0.5745678875083768
  0.9968216961228342  0.4675082095218979  0.5966478967110236
  0.9751887144374014  0.3223972029352030  0.6433053561259220
  0.9161973967543910  0.5733848500827383  0.4837995115378386
  0.9878925666722425  0.4842924434737577  0.4514937223111330
  1.0379458732389746  0.4236220669602414  0.5203237667039686
  0.8441180178368493  0.4774800622135247  0.4597855325416751
  0.8677634964628813  0.3460521705534073  0.4047020984392894
  0.9590088090803609  0.3487458460512305  0.4043328283042177
  0.7988091592060561  0.4196956161067661  0.5326990924790173
  0.8049963409161148  0.2448622472198069  0.5276683891721488
  0.8461159240454935  0.2009386315015600  0.4513433340712690
  0.8550336290483180  0.1842219261723128  0.5964974755240237
  0.9267223689874609  0.0951191934533831  0.5641940643356610
  0.9213513642557857  0.1134005990993335  0.4734255202597148
  0.9913539541059664  0.2050723988923917  0.4442788111956421
  1.0441402129657724  0.2487864293095151  0.5153049972756040
  0.9988232971384734  0.1909701687709505  0.5882154898406183
