Generated by VASPKIT code               
   1.00000000000000     
    14.6710501056354641   -0.0882527109243921    0.0000000000000000
    -7.4138175163491944   11.9363268965557285    0.0000000000000000
     0.0000000000000013    0.0000000000000021   19.7189510040381961
   C 
   104
Direct
  0.6590906424458964  0.3293799078433324  0.6307263234351268
  0.6799386731443562  0.2482330576367175  0.6066383750623672
  0.7532704221662598  0.4354640213179337  0.6138271610300876
  0.7870893521446405  0.3078949873767058  0.5695657116468595
  0.8340792315288041  0.4250262259720259  0.5766666634260176
  0.7259509230697603  0.5037859304762264  0.5764998371697132
  0.7926934502690912  0.5447469568324266  0.5190029158895157
  0.8792477157859935  0.5126099839103233  0.5166153979765227
  0.6136785534081213  0.4237140431024713  0.5514615902421767
  0.5722264848812415  0.3195963363021121  0.5840029449590958
  0.5391984624425206  0.2221312639613160  0.5409929456939011
  0.6176662154065937  0.4326275201260330  0.4771837811079607
  0.5790271510925820  0.3376134599836789  0.4349256776215640
  0.5423135235249461  0.2307666330941700  0.4682297981850354
  0.7314636557129148  0.5178858726379616  0.4589805252360719
  0.6444652188240454  0.1438083586042467  0.4998955125902214
  0.5999622195650716  0.1723365539285879  0.5609984698874300
  0.6049831124228149  0.1857862114487503  0.4425909183789543
  0.6892045994412044  0.2719830318422538  0.4038887657491799
  0.6706763775331908  0.3586549026899348  0.3890272791825140
  0.7627312553720813  0.4595292000044182  0.4148415843298210
  0.7642918504954110  0.2529522996246740  0.5044235646115709
  0.7924881656680398  0.3222273031168896  0.4453673512553067
  0.8387425062366560  0.4398924662360528  0.4495677729816308
  0.9671745460724850  0.0833345479257659  0.5279745550123209
  0.2446155942031325  0.8056859983055844  0.6099749304997033
  0.1782152182114345  0.4139399350091111  0.6015140815181184
  0.5775021831904965  0.7827757390136370  0.6007698744373471
  0.0890509178390815  0.1324014296801579  0.5344071371993238
  0.1466687649500287  0.6976778890437032  0.6082794563388845
  0.2873959924786362  0.4374758077929215  0.5982957923992842
  0.5663761374079712  0.8792254747668977  0.5977246053415683
  0.9095395339596095  0.9738376287622543  0.5580404956598386
  0.2171935769996978  0.8778388640365904  0.5762928665005163
  0.1111673584973261  0.3177143506957805  0.5625849189515790
  0.6601136239107603  0.8080209961224725  0.5512974578001746
  0.9833060136239169  0.9423350199562393  0.5796444664111675
  0.1013805713841123  0.8147636880470017  0.5679979241008937
  0.1688766876369030  0.2612221464869862  0.5416390203090344
  0.6983588453214011  0.9194438974759720  0.5242616309183177
  0.0897204630433066  0.0334771757052508  0.5613489668576293
  0.0584120003281328  0.7003845204786714  0.5772515510955998
  0.2870548602350382  0.3513765478488224  0.5604400134950893
  0.6463494135511425  0.9668767632653257  0.5520877089604710
  0.8478428082054847  0.8983019899369822  0.5054708231123044
  0.2664187809299392  0.9116932184986339  0.5113275283710266
  0.0626617825652076  0.3364920273645353  0.5060896708021403
  0.6306043492800626  0.7343364862249970  0.4952970583409311
  0.8800764906021001  0.8205964297632136  0.4916174113680327
  0.2004909043520513  0.8744129581873423  0.4488557705800815
  0.1068214214402659  0.3172851471665723  0.4462801254286219
  0.6535656033209918  0.8021841064913531  0.4333840795713115
  0.9593778231666832  0.8452606831093448  0.5405817865010576
  0.0730796932779754  0.8164501362640735  0.4516556296691974
  0.1748723623816844  0.2666672468542259  0.4621576445116276
  0.7204282134649276  0.9272831555760561  0.4496598333668729
  0.8373513189331874  0.9568512658621700  0.4437360775968529
  0.3524702591706728  0.8834972421074454  0.5061306710847120
  0.0927266462486784  0.4576809847284693  0.5082794705699030
  0.5148212074699074  0.6432407857166709  0.4993401238383655
  0.8885141922805246  0.9124812618990177  0.3922689359029192
  0.3224320751784688  0.8070285053079402  0.4409821480537772
  0.1621874964316419  0.5071166789242767  0.4422841572587117
  0.4700941549322124  0.6748474602387233  0.4345968960475872
  0.9070369461870627  0.8275388049497607  0.4195005850272224
  0.2244870604100413  0.8061797811936486  0.4126240816102964
  0.1692029474979293  0.4153411392323605  0.4081886228280567
  0.5641054299621189  0.7753831274277516  0.3967654640528977
  0.9317136224313813  0.0756825464580118  0.4599070133804446
  0.3342871060787687  0.8073995983214033  0.5711139638535698
  0.1705742882692931  0.5068974358828413  0.5711142165597778
  0.4778424669858126  0.6769678459996555  0.5670289830674733
  0.0167274609810306  0.0954837664170043  0.4179997944426859
  0.2719690927210223  0.6862579268575573  0.5447511201284243
  0.2837478082080693  0.5820975691325145  0.5429302433611269
  0.4492486812240202  0.7510493282472055  0.5347340781923293
  0.9936556841243771  0.0026860429617770  0.3774543079540678
  0.2651354658023521  0.6866238436851759  0.4674745988776010
  0.2789457594242961  0.5832004184468857  0.4651912804393277
  0.4462245749716445  0.7514720725699462  0.4684162772534179
  0.1185937279907918  0.1396390297789551  0.4562442660985297
  0.1580119553735244  0.6125151992755136  0.5733416187445499
  0.3654125073893866  0.5545213675192286  0.5671119909135740
  0.4596590370428260  0.8506237843099953  0.5669259847725812
  0.1416102085045878  0.0455229774415002  0.4473514533500307
  0.0777734435697823  0.5641878024588323  0.5122081173713227
  0.4061760173821227  0.5253867031319217  0.5007574494077360
  0.4797907710044242  0.9266453448898204  0.5016415290501328
  0.0723604781651304  0.9715708609202451  0.3934230015023843
  0.1462411649949260  0.6108791499839015  0.4463404566441298
  0.3592769022739262  0.5562709910334220  0.4366581011686606
  0.4512620256861766  0.8489360151452914  0.4376314723813692
  0.0160926553998877  0.8541793826021475  0.4051060228641390
  0.1211686932863643  0.6899738669692894  0.4163627829651801
  0.2804496838520620  0.4417344948024393  0.4056504644153378
  0.5550524289562802  0.8805918076588313  0.4000895718563413
  0.0635269399387184  0.8627244884389711  0.5192843617067666
  0.0424750482553051  0.6928819163080178  0.4521316310960444
  0.2855629851539874  0.3581644504284824  0.4417145249128183
  0.6430092551026263  0.9696109096341274  0.4311499590203383
  0.1286181855346697  0.9923893693575607  0.5115104458269926
  0.0011879155473622  0.6112095448776458  0.5163737289086470
  0.3513849108429312  0.3997019489050189  0.5004063980368869
  0.6106170144134850  0.0177066276348654  0.4958261610007071
 
  0.00000000E+00  0.00000000E+00  0.00000000E+00
  0.00000000E+00  0.00000000E+00  0.00000000E+00
  0.00000000E+00  0.00000000E+00  0.00000000E+00
  0.00000000E+00  0.00000000E+00  0.00000000E+00
  0.00000000E+00  0.00000000E+00  0.00000000E+00
  0.00000000E+00  0.00000000E+00  0.00000000E+00
  0.00000000E+00  0.00000000E+00  0.00000000E+00
  0.00000000E+00  0.00000000E+00  0.00000000E+00
  0.00000000E+00  0.00000000E+00  0.00000000E+00
  0.00000000E+00  0.00000000E+00  0.00000000E+00
  0.00000000E+00  0.00000000E+00  0.00000000E+00
  0.00000000E+00  0.00000000E+00  0.00000000E+00
  0.00000000E+00  0.00000000E+00  0.00000000E+00
  0.00000000E+00  0.00000000E+00  0.00000000E+00
  0.00000000E+00  0.00000000E+00  0.00000000E+00
  0.00000000E+00  0.00000000E+00  0.00000000E+00
  0.00000000E+00  0.00000000E+00  0.00000000E+00
  0.00000000E+00  0.00000000E+00  0.00000000E+00
  0.00000000E+00  0.00000000E+00  0.00000000E+00
  0.00000000E+00  0.00000000E+00  0.00000000E+00
  0.00000000E+00  0.00000000E+00  0.00000000E+00
  0.00000000E+00  0.00000000E+00  0.00000000E+00
  0.00000000E+00  0.00000000E+00  0.00000000E+00
  0.00000000E+00  0.00000000E+00  0.00000000E+00
  0.00000000E+00  0.00000000E+00  0.00000000E+00
  0.00000000E+00  0.00000000E+00  0.00000000E+00
  0.00000000E+00  0.00000000E+00  0.00000000E+00
  0.00000000E+00  0.00000000E+00  0.00000000E+00
  0.00000000E+00  0.00000000E+00  0.00000000E+00
  0.00000000E+00  0.00000000E+00  0.00000000E+00
  0.00000000E+00  0.00000000E+00  0.00000000E+00
  0.00000000E+00  0.00000000E+00  0.00000000E+00
  0.00000000E+00  0.00000000E+00  0.00000000E+00
  0.00000000E+00  0.00000000E+00  0.00000000E+00
  0.00000000E+00  0.00000000E+00  0.00000000E+00
  0.00000000E+00  0.00000000E+00  0.00000000E+00
  0.00000000E+00  0.00000000E+00  0.00000000E+00
  0.00000000E+00  0.00000000E+00  0.00000000E+00
  0.00000000E+00  0.00000000E+00  0.00000000E+00
  0.00000000E+00  0.00000000E+00  0.00000000E+00
  0.00000000E+00  0.00000000E+00  0.00000000E+00
  0.00000000E+00  0.00000000E+00  0.00000000E+00
  0.00000000E+00  0.00000000E+00  0.00000000E+00
  0.00000000E+00  0.00000000E+00  0.00000000E+00
  0.00000000E+00  0.00000000E+00  0.00000000E+00
  0.00000000E+00  0.00000000E+00  0.00000000E+00
  0.00000000E+00  0.00000000E+00  0.00000000E+00
  0.00000000E+00  0.00000000E+00  0.00000000E+00
  0.00000000E+00  0.00000000E+00  0.00000000E+00
  0.00000000E+00  0.00000000E+00  0.00000000E+00
  0.00000000E+00  0.00000000E+00  0.00000000E+00
  0.00000000E+00  0.00000000E+00  0.00000000E+00
  0.00000000E+00  0.00000000E+00  0.00000000E+00
  0.00000000E+00  0.00000000E+00  0.00000000E+00
  0.00000000E+00  0.00000000E+00  0.00000000E+00
  0.00000000E+00  0.00000000E+00  0.00000000E+00
  0.00000000E+00  0.00000000E+00  0.00000000E+00
  0.00000000E+00  0.00000000E+00  0.00000000E+00
  0.00000000E+00  0.00000000E+00  0.00000000E+00
  0.00000000E+00  0.00000000E+00  0.00000000E+00
  0.00000000E+00  0.00000000E+00  0.00000000E+00
  0.00000000E+00  0.00000000E+00  0.00000000E+00
  0.00000000E+00  0.00000000E+00  0.00000000E+00
  0.00000000E+00  0.00000000E+00  0.00000000E+00
  0.00000000E+00  0.00000000E+00  0.00000000E+00
  0.00000000E+00  0.00000000E+00  0.00000000E+00
  0.00000000E+00  0.00000000E+00  0.00000000E+00
  0.00000000E+00  0.00000000E+00  0.00000000E+00
  0.00000000E+00  0.00000000E+00  0.00000000E+00
  0.00000000E+00  0.00000000E+00  0.00000000E+00
  0.00000000E+00  0.00000000E+00  0.00000000E+00
  0.00000000E+00  0.00000000E+00  0.00000000E+00
  0.00000000E+00  0.00000000E+00  0.00000000E+00
  0.00000000E+00  0.00000000E+00  0.00000000E+00
  0.00000000E+00  0.00000000E+00  0.00000000E+00
  0.00000000E+00  0.00000000E+00  0.00000000E+00
  0.00000000E+00  0.00000000E+00  0.00000000E+00
  0.00000000E+00  0.00000000E+00  0.00000000E+00
  0.00000000E+00  0.00000000E+00  0.00000000E+00
  0.00000000E+00  0.00000000E+00  0.00000000E+00
  0.00000000E+00  0.00000000E+00  0.00000000E+00
  0.00000000E+00  0.00000000E+00  0.00000000E+00
  0.00000000E+00  0.00000000E+00  0.00000000E+00
  0.00000000E+00  0.00000000E+00  0.00000000E+00
  0.00000000E+00  0.00000000E+00  0.00000000E+00
  0.00000000E+00  0.00000000E+00  0.00000000E+00
  0.00000000E+00  0.00000000E+00  0.00000000E+00
  0.00000000E+00  0.00000000E+00  0.00000000E+00
  0.00000000E+00  0.00000000E+00  0.00000000E+00
  0.00000000E+00  0.00000000E+00  0.00000000E+00
  0.00000000E+00  0.00000000E+00  0.00000000E+00
  0.00000000E+00  0.00000000E+00  0.00000000E+00
  0.00000000E+00  0.00000000E+00  0.00000000E+00
  0.00000000E+00  0.00000000E+00  0.00000000E+00
  0.00000000E+00  0.00000000E+00  0.00000000E+00
  0.00000000E+00  0.00000000E+00  0.00000000E+00
  0.00000000E+00  0.00000000E+00  0.00000000E+00
  0.00000000E+00  0.00000000E+00  0.00000000E+00
  0.00000000E+00  0.00000000E+00  0.00000000E+00
  0.00000000E+00  0.00000000E+00  0.00000000E+00
  0.00000000E+00  0.00000000E+00  0.00000000E+00
  0.00000000E+00  0.00000000E+00  0.00000000E+00
  0.00000000E+00  0.00000000E+00  0.00000000E+00
  0.00000000E+00  0.00000000E+00  0.00000000E+00
