C 
 1.0000000000000000
     9.8803367944269027    0.0000000000000000    0.0000000000000000
     0.0000000000000000    9.8803367944269027    0.0000000000000000
     0.0000000000000000    0.0000000000000000   16.0000000000000000
 C  
  84
Direct
  0.3684309895675948  0.5615328926270476  0.6190567163764683
  0.3357978240051438  0.4240796117964574  0.5987560736331473
  0.5079890310152992  0.5738528218267983  0.6420712668471239
  0.4670832322253697  0.3517677651749704  0.5926348537112057
  0.5722201950717440  0.4431873111275178  0.6189613464362966
  0.5735772940198801  0.6748091306750059  0.5923029465397684
  0.6914015516884832  0.6203923567495258  0.5522554492624685
  0.6843515071007497  0.4716851268383839  0.5642265728270708
  0.4776463595385494  0.7087322624865524  0.5240847810297757
  0.3521765873944684  0.6394427311386212  0.5404664026974471
  0.2953208953250230  0.5503243541025905  0.4784781658871421
  0.5463568499591164  0.6889832115661170  0.4456725058393368
  0.4895153034136555  0.5999345084017400  0.3836947891098820
  0.3640437315371217  0.5306090104262084  0.4000782258303796
  0.6863250499202402  0.6426018097822280  0.4638679971933152
  0.3471636696107601  0.3213625651439267  0.4661726371045886
  0.2751449079907718  0.4155587353059254  0.5176721271094488
  0.3879010727562353  0.3833818985285636  0.3892168317434156
  0.5304913050643106  0.3679651753404862  0.3763280776033608
  0.5930243719414827  0.4967625396310293  0.3624723478422827
  0.7027754955802860  0.5177446144583241  0.4196130254590801
  0.4740108389411123  0.2889181478233863  0.5115427245429076
  0.5860425183893203  0.3174872089512234  0.4567472393909296
  0.6912094179432838  0.4088842100973739  0.4831093555640286
 -0.2204645391270071  0.2322592713831920  0.4884044278822196
 -0.1558058773567925  0.1037216499455089  0.5071927801907415
 -0.1442064408217240  0.2958231710564124  0.4229143024218778
 -0.0327963538780943  0.2062185454693129  0.4016019666449716
 -0.0408792947823797  0.0820073822663916  0.4511255125262308
 -0.0918517873713584  0.4256681859595586  0.4526564447261021
  0.0551186869335444  0.4080780173499777  0.4539529429390540
  0.0908183454295555  0.2758379815847450  0.4208409685153919
 -0.1305923785408001  0.4308454529194339  0.5404315902604452
 -0.0124508547451672  0.4357889447410751  0.5947547400146606
  0.1024542312511632  0.4141128164540865  0.5386815714260508
 -0.2197569266322536  0.3190542485388950  0.5624667052077534
 -0.1441628663932741  0.2419975250858709  0.6250380486193310
 -0.0205395776170696  0.3116017629699144  0.6442939881625911
 -0.1084938302757183  0.1097769831862028  0.5919250344633061
  0.0384705555721445  0.0921804755507756  0.5932283610762218
  0.0908608332291245  0.2220103155384226  0.6229648955301591
  0.1671170570034009  0.2855798284268682  0.5574682694357248
  0.1664136438773261  0.1987625953127825  0.4834044483840776
  0.0772527773194746  0.0869625685854240  0.5054572941370836
  0.4373650846460900 -0.0444417856945374  0.4054561022961806
  0.3271364277551054  0.0286672872374143  0.4451559200810807
  0.4607824455420740 -0.1653423045889944  0.4530399132294621
  0.3649037460137890 -0.1662662671856674  0.5219114964319916
  0.2757279542496743 -0.0483854301178446  0.5164876070365730
  0.5993306721143074 -0.1642838407060020  0.4852680937735079
  0.5836966197278803 -0.1552774724218822  0.5760008381133812
  0.4411279507222848 -0.1600407343885076  0.5981677720058800
  0.6529056378675098 -0.0328094362850054  0.4607536358175648
  0.6878596335618251  0.0489297121519282  0.5333418050654640
  0.6364836830694623 -0.0281452097051897  0.6046602874101936
  0.5600342399829370  0.0384467459974744  0.4054576021036231
  0.5224957369872615  0.1605696002845862  0.4516528044382401
  0.5987150837412814  0.1668261685007970  0.5279142572760434
  0.3799447664525976  0.1557978616570061  0.4738008510063668
  0.3643085455967253  0.1648167494775329  0.5645297844069093
  0.5028394438404703  0.1658721310385303  0.5967799894190621
  0.5262584643504495  0.0449597859173151  0.6443626913075999
  0.4035675506581799 -0.0379234312537307  0.6443637778444518
  0.3106977188025543  0.0333627724505323  0.5890698902772139
  0.1593806250258094  0.7548887603961354  0.3877362708847055
  0.0263629667346408  0.7689208236417833  0.3499826776767210
  0.1604512085802633  0.6304022921027932  0.4339676747384530
  0.0280516117760721  0.5681929885782515  0.4245482197417417
 -0.0564941249081212  0.6501928131174590  0.3691313990476269
  0.1868535620566469  0.6591771956115529  0.5221573930568641
  0.0619428017477069  0.6206133134609889  0.5650485367758332
 -0.0330348525421364  0.5621064108419213  0.5058396643751019
  0.1899183397068689  0.8063325019438171  0.5272370032308249
  0.0826056473720072  0.8577507938093700  0.5809317761087782
 -0.0002100710283779  0.7390187569936396  0.6000908319433702
  0.1850693875581106  0.8679211128251519  0.4446086022922960
  0.0591812415806422  0.9458384144339643  0.4442377060327903
 -0.0019267238446498  0.9397761129386268  0.5255277085136556
 -0.0357607116241832  0.8873380000604438  0.3850276124122086
 -0.1606728569212038  0.8487865720111216  0.4279147302065572
 -0.1343052396400226  0.8775431619094114  0.5161083462177705
 -0.1332276378602230  0.7530469849088949  0.5623406916560256
 -0.1589323619678522  0.6400115542273245  0.5054584999195960
 -0.1637954887739498  0.7016269015198497  0.4228302504712053
