C                                       
   1.00000000000000     
    17.2379322577083798    0.0000181210013509    0.0000000000000000
     0.0000064363537949   10.0165631533581294    0.0000000000000000
     0.0000000000000000    0.0000000000000000   16.0000000000000000
  C             
   128
Direct
  0.5181994660357057  0.8590335677752930  0.6076262146526936
  0.5883731540552322  0.8993127362940740  0.5685835572380227
  0.4778203415729254  0.9703796260237786  0.6464654461243767
  0.5811948463807488  0.0410399429936065  0.5609768934154126
  0.5173749171692955  0.0865138982639820  0.6100866495170039
  0.4029029074668253  0.9658652091796105  0.6083964081828115
  0.3925587197484438  0.0838340198577409  0.5614350741348346
  0.4624595937126946  0.1510410659093817  0.5559791503156004
  0.3896139130780145  0.8449327244206896  0.5503471342151375
  0.4733320738028549  0.7996341024561270  0.5452124750309781
  0.5191936376180215  0.7640657876441225  0.4673483215528077
  0.3610568949865797  0.9135317620355730  0.4662913524551927
  0.4193649914175989  0.9052420781501475  0.3916411495828140
  0.4926684929171144  0.8431612970910838  0.3931292573539678
  0.3563623835778730  0.0699663920939135  0.4782656962615847
  0.6215286188991863  0.9475132597186191  0.4297426999359866
  0.5983096211050771  0.8346056993020862  0.4854254880925888
  0.5562532375980191  0.9354977995978928  0.3630069387605189
  0.5212258035584142  0.0598326713123285  0.3525405691099076
  0.4379592813310347  0.0404736111252812  0.3611144184102392
  0.4123320726076117  0.1257392725255783  0.4208038346348873
  0.5920664425931790  0.0731960339959171  0.4744235941080021
  0.5426239361202942  0.1480565304049175  0.4248162085083060
  0.4710202910784318  0.2079395501936266  0.4662193379864804
  0.9817940909505655  0.3590523606688642  0.6076362422898635
  0.9116224442149214  0.3993372177421278  0.5685866057369968
  0.0221760084992071  0.4704068700648939  0.6464716508561633
  0.9187984820346388  0.5410572780621801  0.5609733090847197
  0.9826242172989231  0.5865441451669410  0.6100836820104069
  0.0970919354859831  0.4658876973498709  0.6083967641942002
  0.1074464029846214  0.5838461522648503  0.5614344346356809
  0.0375415919923129  0.6510539869174568  0.5559709165025796
  0.1103918186752134  0.3449360206165664  0.5503571789823327
  0.0266638795103821  0.2996506835284440  0.5452272701691901
  0.9808017633478525  0.2640704905666150  0.4673600521308787
  0.1389428464081349  0.4135333149631303  0.4662991893928314
  0.0806369315483007  0.4052311486311436  0.3916483323934285
  0.0073302403532245  0.3431563091339056  0.3931380903349798
  0.1436394196755964  0.5699611378902187  0.4782636514193177
  0.8784717525472302  0.4475105554689608  0.4297429682271291
  0.9016889553826375  0.3346105676520529  0.4854318514384071
  0.9437488708483692  0.4354849789803615  0.3630100872065996
  0.9787772251391681  0.5598196742100257  0.3525414072225039
  0.0620446790627296  0.5404632989934162  0.3611212864167720
  0.0876687006723016  0.6257304043629403  0.4207947903766548
  0.9079308176448159  0.5732013568617566  0.4744164913943059
  0.9573787401018132  0.6480538224626866  0.4248047055377136
  0.0289812216819699  0.7079451480572370  0.4662074826485736
  0.5800810267820840  0.4089675059727002  0.5484530599170307
  0.6441207260652752  0.3682068803058068  0.5993251870460631
  0.5932980571593307  0.3847841811238099  0.4635639011065015
  0.6708838383818886  0.3281471426948542  0.4569661446841271
  0.7045842093779870  0.2979345459703916  0.5449468998300293
  0.5866411448350363  0.5050719556586973  0.4150322973462711
  0.6626578556672906  0.5211465543163055  0.3828506208799796
  0.7141441243656979  0.4077696481366156  0.4039109968763970
  0.5645981405751653  0.6220503600656818  0.4725747905985124
  0.6395401374731287  0.7034307229447487  0.4791423636076051
  0.6958961216466288  0.6376568125841015  0.4197519141382048
  0.5512201332998529  0.5519486160262076  0.5610589601190954
  0.6249133107057939  0.5976692714375390  0.6110636144195151
  0.6719592852161723  0.6747957727268458  0.5613161584756349
  0.6754731442590527  0.4872590838876525  0.6325044994915872
  0.7534024519395078  0.5126555479972279  0.5961361207980667
  0.7579378306094009  0.6526583394122704  0.5526631240176385
  0.7619449142675269  0.6021727914431669  0.4625216235139473
  0.7875019570321107  0.4590419038961048  0.4476102503936619
  0.7670820787480844  0.4104425964910020  0.5396808795827364
  0.3449554480013988  0.7063616882712842  0.5622953204434213
  0.2544285682244973  0.6549338184925615  0.5680421492927992
  0.3621046692540570  0.6512778438886062  0.4774092124859164
  0.3040299898534377  0.6030431396243304  0.4248423898065797
  0.2323732969671061  0.5848217187176025  0.4788869484900229
  0.4280070523874521  0.5678917739208866  0.4792220390360679
  0.4186075643930613  0.4614767125464329  0.4248775692236217
  0.3381748763239804  0.4782530736845956  0.3952219594564538
  0.4596294434575513  0.5417154937745390  0.5674927817957178
  0.4340483827161551  0.3950611383998143  0.5687956314632742
  0.4267247254711712  0.3384441394893763  0.4802874439736665
  0.3933120401546036  0.6089613575090957  0.6175660626801782
  0.3457333432278289  0.5063214959190132  0.6459130960437897
  0.3721824655705423  0.3702130772606744  0.6211685380494638
  0.2681572753698468  0.5227675221834659  0.6148926707392529
  0.2513969597587980  0.4077049403650556  0.5702384916658584
  0.3048438583923732  0.2888388262477285  0.5752387565894942
  0.3406612621581477  0.3025328449696493  0.4880437096120461
  0.2950535158616451  0.3760091696941191  0.4343798783756926
  0.2274277896336576  0.4281714300589944  0.4813867042351316
  0.9199175099639590  0.9089675236333896  0.5484588108232835
  0.8558767934673572  0.8682045925517993  0.5993294702685575
  0.9067039222903999  0.8847906747936550  0.4635698405798637
  0.8291198768204926  0.8281491791512290  0.4569701418217778
  0.7954156257065778  0.7979336563481260  0.5449469126350757
  0.9133618390646618  0.0050795037494466  0.4150420199755864
  0.8373475195065669  0.0211497778256300  0.3828563551889220
  0.7858602749535053  0.9077712117756959  0.4039144161888747
  0.9354003569066230  0.1220524328084721  0.4725884483295363
  0.8604585713581611  0.2034364527331425  0.4791511131274371
  0.8041072646836485  0.1376571789936822  0.4197589972426061
  0.9487811215187003  0.0519464268374718  0.5610694631939571
  0.8750829751052819  0.0976684941619650  0.6110738257916287
  0.8280393470202654  0.1747947920943240  0.5613226768554895
  0.8245237105318511  0.9872549781717881  0.6325089453055519
  0.7465956605061316  0.0126536741136107  0.5961398653654501
  0.7420620370562068  0.1526573314514806  0.5526649689999567
  0.7380573707858025  0.1021742013697398  0.4625249361244395
  0.7125005083891177  0.9590453159953064  0.4476109340979775
  0.7329195905352056  0.9104422445590574  0.5396824929515927
  0.1550435845395049  0.2063680666031633  0.5623037691680197
  0.2455703904786037  0.1549317684571473  0.5680456043683014
  0.1378948720380645  0.1512861715403867  0.4774201060104051
  0.1959647151931980  0.1030504694424191  0.4248499041860027
  0.2676236295342369  0.0848236484346464  0.4788878658989879
  0.0719942333067952  0.0678981040502744  0.4792313541632499
  0.0813932381869476  0.9614957709687852  0.4248803024612983
  0.1618208564075440  0.9782657079266489  0.3952196279590351
  0.0403712936373772  0.0417188339941634  0.5674978958189923
  0.0659516543462684  0.8950646231341375  0.5687958085194892
  0.0732791778994984  0.8384540880800283  0.4802818774702331
  0.1066886506497361  0.1089577089904150  0.6175744472512751
  0.1542700121501753  0.0063130188661335  0.6459142321270652
  0.1278201327540649  0.8702082094546768  0.6211640224606321
  0.2318443861313814  0.0227654505442404  0.6148929206557190
  0.2486047327541899  0.9077092024970445  0.5702339414417642
  0.1951577743238397  0.7888405843564493  0.5752294620684544
  0.1593390641795774  0.8025315646351461  0.4880392497380140
  0.2049429736437766  0.8760262508691784  0.4343780793123888
  0.2725710615982894  0.9281758072360295  0.4813824711706274
 
  0.00000000E+00  0.00000000E+00  0.00000000E+00
  0.00000000E+00  0.00000000E+00  0.00000000E+00
  0.00000000E+00  0.00000000E+00  0.00000000E+00
  0.00000000E+00  0.00000000E+00  0.00000000E+00
  0.00000000E+00  0.00000000E+00  0.00000000E+00
  0.00000000E+00  0.00000000E+00  0.00000000E+00
  0.00000000E+00  0.00000000E+00  0.00000000E+00
  0.00000000E+00  0.00000000E+00  0.00000000E+00
  0.00000000E+00  0.00000000E+00  0.00000000E+00
  0.00000000E+00  0.00000000E+00  0.00000000E+00
  0.00000000E+00  0.00000000E+00  0.00000000E+00
  0.00000000E+00  0.00000000E+00  0.00000000E+00
  0.00000000E+00  0.00000000E+00  0.00000000E+00
  0.00000000E+00  0.00000000E+00  0.00000000E+00
  0.00000000E+00  0.00000000E+00  0.00000000E+00
  0.00000000E+00  0.00000000E+00  0.00000000E+00
  0.00000000E+00  0.00000000E+00  0.00000000E+00
  0.00000000E+00  0.00000000E+00  0.00000000E+00
  0.00000000E+00  0.00000000E+00  0.00000000E+00
  0.00000000E+00  0.00000000E+00  0.00000000E+00
  0.00000000E+00  0.00000000E+00  0.00000000E+00
  0.00000000E+00  0.00000000E+00  0.00000000E+00
  0.00000000E+00  0.00000000E+00  0.00000000E+00
  0.00000000E+00  0.00000000E+00  0.00000000E+00
  0.00000000E+00  0.00000000E+00  0.00000000E+00
  0.00000000E+00  0.00000000E+00  0.00000000E+00
  0.00000000E+00  0.00000000E+00  0.00000000E+00
  0.00000000E+00  0.00000000E+00  0.00000000E+00
  0.00000000E+00  0.00000000E+00  0.00000000E+00
  0.00000000E+00  0.00000000E+00  0.00000000E+00
  0.00000000E+00  0.00000000E+00  0.00000000E+00
  0.00000000E+00  0.00000000E+00  0.00000000E+00
  0.00000000E+00  0.00000000E+00  0.00000000E+00
  0.00000000E+00  0.00000000E+00  0.00000000E+00
  0.00000000E+00  0.00000000E+00  0.00000000E+00
  0.00000000E+00  0.00000000E+00  0.00000000E+00
  0.00000000E+00  0.00000000E+00  0.00000000E+00
  0.00000000E+00  0.00000000E+00  0.00000000E+00
  0.00000000E+00  0.00000000E+00  0.00000000E+00
  0.00000000E+00  0.00000000E+00  0.00000000E+00
  0.00000000E+00  0.00000000E+00  0.00000000E+00
  0.00000000E+00  0.00000000E+00  0.00000000E+00
  0.00000000E+00  0.00000000E+00  0.00000000E+00
  0.00000000E+00  0.00000000E+00  0.00000000E+00
  0.00000000E+00  0.00000000E+00  0.00000000E+00
  0.00000000E+00  0.00000000E+00  0.00000000E+00
  0.00000000E+00  0.00000000E+00  0.00000000E+00
  0.00000000E+00  0.00000000E+00  0.00000000E+00
  0.00000000E+00  0.00000000E+00  0.00000000E+00
  0.00000000E+00  0.00000000E+00  0.00000000E+00
  0.00000000E+00  0.00000000E+00  0.00000000E+00
  0.00000000E+00  0.00000000E+00  0.00000000E+00
  0.00000000E+00  0.00000000E+00  0.00000000E+00
  0.00000000E+00  0.00000000E+00  0.00000000E+00
  0.00000000E+00  0.00000000E+00  0.00000000E+00
  0.00000000E+00  0.00000000E+00  0.00000000E+00
  0.00000000E+00  0.00000000E+00  0.00000000E+00
  0.00000000E+00  0.00000000E+00  0.00000000E+00
  0.00000000E+00  0.00000000E+00  0.00000000E+00
  0.00000000E+00  0.00000000E+00  0.00000000E+00
  0.00000000E+00  0.00000000E+00  0.00000000E+00
  0.00000000E+00  0.00000000E+00  0.00000000E+00
  0.00000000E+00  0.00000000E+00  0.00000000E+00
  0.00000000E+00  0.00000000E+00  0.00000000E+00
  0.00000000E+00  0.00000000E+00  0.00000000E+00
  0.00000000E+00  0.00000000E+00  0.00000000E+00
  0.00000000E+00  0.00000000E+00  0.00000000E+00
  0.00000000E+00  0.00000000E+00  0.00000000E+00
  0.00000000E+00  0.00000000E+00  0.00000000E+00
  0.00000000E+00  0.00000000E+00  0.00000000E+00
  0.00000000E+00  0.00000000E+00  0.00000000E+00
  0.00000000E+00  0.00000000E+00  0.00000000E+00
  0.00000000E+00  0.00000000E+00  0.00000000E+00
  0.00000000E+00  0.00000000E+00  0.00000000E+00
  0.00000000E+00  0.00000000E+00  0.00000000E+00
  0.00000000E+00  0.00000000E+00  0.00000000E+00
  0.00000000E+00  0.00000000E+00  0.00000000E+00
  0.00000000E+00  0.00000000E+00  0.00000000E+00
  0.00000000E+00  0.00000000E+00  0.00000000E+00
  0.00000000E+00  0.00000000E+00  0.00000000E+00
  0.00000000E+00  0.00000000E+00  0.00000000E+00
  0.00000000E+00  0.00000000E+00  0.00000000E+00
  0.00000000E+00  0.00000000E+00  0.00000000E+00
  0.00000000E+00  0.00000000E+00  0.00000000E+00
  0.00000000E+00  0.00000000E+00  0.00000000E+00
  0.00000000E+00  0.00000000E+00  0.00000000E+00
  0.00000000E+00  0.00000000E+00  0.00000000E+00
  0.00000000E+00  0.00000000E+00  0.00000000E+00
  0.00000000E+00  0.00000000E+00  0.00000000E+00
  0.00000000E+00  0.00000000E+00  0.00000000E+00
  0.00000000E+00  0.00000000E+00  0.00000000E+00
  0.00000000E+00  0.00000000E+00  0.00000000E+00
  0.00000000E+00  0.00000000E+00  0.00000000E+00
  0.00000000E+00  0.00000000E+00  0.00000000E+00
  0.00000000E+00  0.00000000E+00  0.00000000E+00
  0.00000000E+00  0.00000000E+00  0.00000000E+00
  0.00000000E+00  0.00000000E+00  0.00000000E+00
  0.00000000E+00  0.00000000E+00  0.00000000E+00
  0.00000000E+00  0.00000000E+00  0.00000000E+00
  0.00000000E+00  0.00000000E+00  0.00000000E+00
  0.00000000E+00  0.00000000E+00  0.00000000E+00
  0.00000000E+00  0.00000000E+00  0.00000000E+00
  0.00000000E+00  0.00000000E+00  0.00000000E+00
  0.00000000E+00  0.00000000E+00  0.00000000E+00
  0.00000000E+00  0.00000000E+00  0.00000000E+00
  0.00000000E+00  0.00000000E+00  0.00000000E+00
  0.00000000E+00  0.00000000E+00  0.00000000E+00
  0.00000000E+00  0.00000000E+00  0.00000000E+00
  0.00000000E+00  0.00000000E+00  0.00000000E+00
  0.00000000E+00  0.00000000E+00  0.00000000E+00
  0.00000000E+00  0.00000000E+00  0.00000000E+00
  0.00000000E+00  0.00000000E+00  0.00000000E+00
  0.00000000E+00  0.00000000E+00  0.00000000E+00
  0.00000000E+00  0.00000000E+00  0.00000000E+00
  0.00000000E+00  0.00000000E+00  0.00000000E+00
  0.00000000E+00  0.00000000E+00  0.00000000E+00
  0.00000000E+00  0.00000000E+00  0.00000000E+00
  0.00000000E+00  0.00000000E+00  0.00000000E+00
  0.00000000E+00  0.00000000E+00  0.00000000E+00
  0.00000000E+00  0.00000000E+00  0.00000000E+00
  0.00000000E+00  0.00000000E+00  0.00000000E+00
  0.00000000E+00  0.00000000E+00  0.00000000E+00
  0.00000000E+00  0.00000000E+00  0.00000000E+00
  0.00000000E+00  0.00000000E+00  0.00000000E+00
  0.00000000E+00  0.00000000E+00  0.00000000E+00
  0.00000000E+00  0.00000000E+00  0.00000000E+00
  0.00000000E+00  0.00000000E+00  0.00000000E+00
  0.00000000E+00  0.00000000E+00  0.00000000E+00
