Generated by VASPKIT code               
   1.00000000000000     
    10.4425403210362315   -0.2068852375748983    0.0000000000000000
    -5.3979502769643544    9.1281689163721076    0.0000000000000000
     0.0000000000000012    0.0000000000000022   19.7198563257726676
   C 
    64
Direct
  0.1093505702490702  0.1873229495493476  0.5567909371524422
  0.1587374396399639  0.0940083100747344  0.5802120766895200
  0.1810459760288481  0.2667240443379413  0.4921635428718574
  0.2497271942285550  0.0762251467088220  0.5263589634587404
  0.2494299240987630  0.1763289811797293  0.4640343502478217
  0.0464029388295728  0.2320278676149101  0.4509549109070790
  0.0427566168235671  0.1495099122556383  0.3957066582509867
  0.1448287682478551  0.0994514624900376  0.4040949584498748
  0.8972875266630069  0.1544964551122447  0.4920753855702529
  0.9518053300518687  0.1145336333999580  0.5553076178523426
  0.8972048783024320  0.9665641273977528  0.5803165500133503
  0.8166378651454451  0.0145647638124444  0.4478100655848323
  0.7408683255659980  0.8573759478752052  0.4740370577075055
  0.8034983042030248  0.8417426125917302  0.5429372560531363
  0.8901806619372081  0.0239836656454102  0.3878095664459877
  0.0257830759653928  0.8361836122316930  0.5682676306307286
  0.0317718376201626  0.9582070958795796  0.5987652309581435
  0.8648314587395163  0.7370298209954669  0.5416332387006690
  0.8896624373538700  0.7337845162440360  0.4649595834621181
  0.8011985731702254  0.7854750987263230  0.4266369053798442
  0.8985950996412342  0.8936010548427404  0.3817597166286930
  0.1545110271857482  0.8980842514949714  0.5125794137805002
  0.0529742991328206  0.8497227968431034  0.4503948981374037
  0.0564425322565114  0.9419768394048944  0.3990047556792433
  0.4445389886795681  0.8287644783734009  0.5721695093355237
  0.8182664250368319  0.4434306107288322  0.5671790419511495
  0.5231937472354957  0.7606520914193027  0.5495960319975950
  0.7676544006364949  0.5484561988755488  0.5437730370299718
  0.3038138864182969  0.7063744883272065  0.5952695562903827
  0.6865994126172339  0.3023823701062582  0.5799753324267343
  0.3119369252973030  0.5711819827710229  0.5902083753776992
  0.5480798709056884  0.3045702337998932  0.5724251869896122
  0.4563897513318906  0.6081772928929681  0.5625580072401348
  0.5969657393604990  0.4418691727977873  0.5461988820955170
  0.1797353888257049  0.6901495266513891  0.5605441505755309
  0.6760031571559750  0.1812551026176763  0.5471788978060133
  0.0934402791136648  0.5282379836685607  0.5269955769896768
  0.5161074151226188  0.0917050673501763  0.5121630945765503
  0.1987614078045183  0.4755585611237549  0.5481947451167173
  0.4300123072985471  0.1742642392466252  0.5291674579199039
  0.2423312681545369  0.8205027751054814  0.5090340267267308
  0.8143338038860293  0.2368787857018759  0.5005664685059514
  0.2265575395128678  0.7304802382698270  0.4452618477309116
  0.7304741583383816  0.2266514484524578  0.4355930061330255
  0.1530403407640719  0.5763851632846908  0.4564437039445153
  0.5702368303574303  0.1498442512180844  0.4407930152473796
  0.4283924931916800  0.9195932664221118  0.5164438289766906
  0.9176322756905790  0.4252171232721409  0.5173829759889941
  0.4845881292420131  0.8671415221100744  0.4567924785742434
  0.8715567649447067  0.4744734292803869  0.4532325251049727
  0.3674045781539093  0.7691434216036797  0.4156640724852849
  0.7783289238296547  0.3665376852007753  0.4074020842618680
  0.5732188384778354  0.7953457424302144  0.4773454596852318
  0.8047975823393188  0.5662679672607567  0.4653339242545158
  0.4834693518758044  0.6442638401987040  0.4456921614296903
  0.6523127139372562  0.4911182158514151  0.4313445216305780
  0.3686779608094497  0.6305804742704595  0.4066560786444100
  0.6417903638129161  0.3743052480663280  0.3950879489954033
  0.2296960357663806  0.5077465210765268  0.4321702757672696
  0.5145161702160408  0.2354796548311668  0.4140829948715776
  0.2626900167077935  0.4303914422706043  0.4904961726019366
  0.4216295220584527  0.2600649520083067  0.4644747699628482
  0.4382262838927815  0.5209116399816196  0.4952079946146952
  0.5170662901191250  0.4347208243731799  0.4820555483133546
 
  0.00000000E+00  0.00000000E+00  0.00000000E+00
  0.00000000E+00  0.00000000E+00  0.00000000E+00
  0.00000000E+00  0.00000000E+00  0.00000000E+00
  0.00000000E+00  0.00000000E+00  0.00000000E+00
  0.00000000E+00  0.00000000E+00  0.00000000E+00
  0.00000000E+00  0.00000000E+00  0.00000000E+00
  0.00000000E+00  0.00000000E+00  0.00000000E+00
  0.00000000E+00  0.00000000E+00  0.00000000E+00
  0.00000000E+00  0.00000000E+00  0.00000000E+00
  0.00000000E+00  0.00000000E+00  0.00000000E+00
  0.00000000E+00  0.00000000E+00  0.00000000E+00
  0.00000000E+00  0.00000000E+00  0.00000000E+00
  0.00000000E+00  0.00000000E+00  0.00000000E+00
  0.00000000E+00  0.00000000E+00  0.00000000E+00
  0.00000000E+00  0.00000000E+00  0.00000000E+00
  0.00000000E+00  0.00000000E+00  0.00000000E+00
  0.00000000E+00  0.00000000E+00  0.00000000E+00
  0.00000000E+00  0.00000000E+00  0.00000000E+00
  0.00000000E+00  0.00000000E+00  0.00000000E+00
  0.00000000E+00  0.00000000E+00  0.00000000E+00
  0.00000000E+00  0.00000000E+00  0.00000000E+00
  0.00000000E+00  0.00000000E+00  0.00000000E+00
  0.00000000E+00  0.00000000E+00  0.00000000E+00
  0.00000000E+00  0.00000000E+00  0.00000000E+00
  0.00000000E+00  0.00000000E+00  0.00000000E+00
  0.00000000E+00  0.00000000E+00  0.00000000E+00
  0.00000000E+00  0.00000000E+00  0.00000000E+00
  0.00000000E+00  0.00000000E+00  0.00000000E+00
  0.00000000E+00  0.00000000E+00  0.00000000E+00
  0.00000000E+00  0.00000000E+00  0.00000000E+00
  0.00000000E+00  0.00000000E+00  0.00000000E+00
  0.00000000E+00  0.00000000E+00  0.00000000E+00
  0.00000000E+00  0.00000000E+00  0.00000000E+00
  0.00000000E+00  0.00000000E+00  0.00000000E+00
  0.00000000E+00  0.00000000E+00  0.00000000E+00
  0.00000000E+00  0.00000000E+00  0.00000000E+00
  0.00000000E+00  0.00000000E+00  0.00000000E+00
  0.00000000E+00  0.00000000E+00  0.00000000E+00
  0.00000000E+00  0.00000000E+00  0.00000000E+00
  0.00000000E+00  0.00000000E+00  0.00000000E+00
  0.00000000E+00  0.00000000E+00  0.00000000E+00
  0.00000000E+00  0.00000000E+00  0.00000000E+00
  0.00000000E+00  0.00000000E+00  0.00000000E+00
  0.00000000E+00  0.00000000E+00  0.00000000E+00
  0.00000000E+00  0.00000000E+00  0.00000000E+00
  0.00000000E+00  0.00000000E+00  0.00000000E+00
  0.00000000E+00  0.00000000E+00  0.00000000E+00
  0.00000000E+00  0.00000000E+00  0.00000000E+00
  0.00000000E+00  0.00000000E+00  0.00000000E+00
  0.00000000E+00  0.00000000E+00  0.00000000E+00
  0.00000000E+00  0.00000000E+00  0.00000000E+00
  0.00000000E+00  0.00000000E+00  0.00000000E+00
  0.00000000E+00  0.00000000E+00  0.00000000E+00
  0.00000000E+00  0.00000000E+00  0.00000000E+00
  0.00000000E+00  0.00000000E+00  0.00000000E+00
  0.00000000E+00  0.00000000E+00  0.00000000E+00
  0.00000000E+00  0.00000000E+00  0.00000000E+00
  0.00000000E+00  0.00000000E+00  0.00000000E+00
  0.00000000E+00  0.00000000E+00  0.00000000E+00
  0.00000000E+00  0.00000000E+00  0.00000000E+00
  0.00000000E+00  0.00000000E+00  0.00000000E+00
  0.00000000E+00  0.00000000E+00  0.00000000E+00
  0.00000000E+00  0.00000000E+00  0.00000000E+00
  0.00000000E+00  0.00000000E+00  0.00000000E+00
