C                                       
   1.00000000000000     
    13.3268356393497740    0.2640861513263494    0.0000000000000000
    -6.4336295416947706   11.4675243861067457    0.0000000000000000
     0.0000000000000000    0.0000000000000000   16.0000000000000000
  C             
   104
Direct
  0.1463421663849892  0.6666182679908796  0.4093700951131407
  0.1841614992782852  0.7606962126158721  0.4830459593550279
  0.2503323966525698  0.6979533809251166  0.3578732305878055
  0.3113952059537157  0.8133776499610508  0.4781750778584840
  0.3480951822019335  0.7882794875119448  0.4009482767768759
  0.2781835430390346  0.6058999576672508  0.3486541326839762
  0.4019730102968479  0.6520447922881289  0.3637231431512670
  0.4394187801037450  0.7620123109527979  0.3990382403113827
  0.2005515146754699  0.5111727523194670  0.3992505325507715
  0.1252667996846842  0.5448978782331129  0.4436230298284422
  0.1285587833074987  0.5497964392077522  0.5429528211459593
  0.2196441691012112  0.4332514651499619  0.4463354465731198
  0.2269561362243890  0.4405175174980248  0.5365894414016043
  0.2123300128079872  0.5223936511241395  0.5827018184277993
  0.4579309723806666  0.5954369391792462  0.4049131945754844
  0.2682245544852529  0.7166291031374822  0.6051559793283253
  0.1533769249188789  0.6777110906499014  0.5650649552705869
  0.3019325610232507  0.6273635636350070  0.6184224319913284
  0.4224132149515473  0.6712351442348204  0.6013751498819770
  0.4685385134925310  0.6070999798039478  0.5616268930547297
  0.5091095517170390  0.6603840168065924  0.4790360819893097
  0.3567705625669370  0.7996090201458659  0.5536826947620701
  0.4639479794202024  0.7909592775215399  0.5597117495921238
  0.5142397251482519  0.7770322278994990  0.4723132059118179
  0.0860093160547031  0.9653311679934801  0.5840880897971324
  0.0557432149182516  0.8588606230839382  0.5489819873467808
  0.9985603877759898  0.0052701580468198  0.5753291139061847
  0.9005531587541946  0.9071348773145029  0.5444882171358768
  0.9304759972425758  0.8117178492524755  0.5302374887952475
  0.0551153209382850  0.1226011709024910  0.5420630410735474
  0.0069809253899320  0.1598660699914792  0.4717022244986080
  0.8290321138738628  0.9059005859271239  0.4775546614376256
  0.1829529104021114  0.1595967151029473  0.5527825782598038
  0.1715289768786328  0.1569071764800010  0.3886494316636352
  0.0518271781643004  0.1195584075641604  0.3991719478745455
  0.1898384831603310  0.0514459464797266  0.5608564558216906
  0.2431766214092309  0.0313640405922444  0.4813421173320698
  0.1891149834036958  0.0553741237426844  0.3994767203335627
  0.1344166509439258  0.8524067043609794  0.4815871038421042
  0.0571224126603809  0.8570911871030452  0.4125422994558576
  0.0872098834192891  0.9621582407750894  0.3767885725423189
  0.9954716412926120  0.9959117633178830  0.3773184341358663
  0.8980207535776743  0.9017377293723484  0.4078519118707991
  0.9291599303203716  0.8063012437298066  0.4252330286233996
  0.7521867167182924  0.9543995827602699  0.4876457850112690
  0.7708104328025056  0.0090598667180584  0.5734693764270475
  0.7993314004762780  0.0632295960027295  0.4347921988965672
  0.8964201438122253  0.1625265959391940  0.4791843010983703
  0.8480179106345147  0.1313689292008534  0.5668283819237808
  0.7143767543125940  0.0769953983501591  0.3970101134813994
  0.7278759554200904  0.1891269488101356  0.4202923088234036
  0.8359716933479450  0.2726048292208652  0.4584255154221750
  0.6049368699515962  0.9866100831472910  0.4238559685602673
  0.5566894417053868  0.0452281865313885  0.4683639601256075
  0.6315172660798972  0.1695072418797356  0.4638689873907559
  0.6162854074736053  0.8993270913538606  0.4802515537533038
  0.5705925469998560  0.9158458864758365  0.5686641191153683
  0.5371807942206841  0.0113953156607691  0.5533848487606183
  0.6762690990604446  0.9838325702959515  0.6215560465466108
  0.6906201319231071  0.0996594807468744  0.6408818607728037
  0.6049360823501322  0.1135963390730421  0.6019258724347311
  0.6467991958040029  0.2237486803761393  0.5500797271917979
  0.7930281556983999  0.2834696753556773  0.5610104553276631
  0.7991906979546900  0.1890517789627969  0.6084692563064733
  0.9068218570788257  0.6617386477231876  0.4834530762576655
  0.8605460385330740  0.6854622685592633  0.5580827193960408
  0.8625148130298705  0.6762358043140324  0.4045241591981795
  0.7428057704770987  0.5992737574326205  0.4364971265587065
  0.7423925879769481  0.6041353981495949  0.5247361926019006
  0.9048859304735434  0.5943720141361342  0.3599754516442579
  0.8213135896951405  0.4820489974186477  0.3598431860223723
  0.7096315807453375  0.4754841496069051  0.4033815452160849
  0.0127025144828204  0.6077160227868393  0.4066835056261310
  0.9954689718736826  0.4917135545671101  0.4444838043791063
  0.8786711243484302  0.4004555545930850  0.4205736162969100
  0.9956326452110474  0.6493412037368557  0.4871357480383960
  0.0151558522552676  0.6198246469399115  0.5714305988760947
  0.9943337025748287  0.4968762506116163  0.5466279005418370
  0.9033553164544098  0.6124426499130162  0.6118503791759961
  0.8205281683679945  0.4998367415232200  0.6137442204094313
  0.8636044877025970  0.4167603567943866  0.5739076736581923
  0.8241778961420962  0.4250522940708457  0.4898001171565526
  0.7377313481719762  0.4437037302630425  0.4851886530572663
  0.7118431388780073  0.4860409294797151  0.5648007961201607
  0.2775280977831904  0.2656754546398164  0.4108575491176348
  0.2834535356946969  0.2149975090044526  0.4928010519754067
  0.3884552101088727  0.2807099071869675  0.3719113939216898
  0.4285058512235380  0.2106307043428603  0.4175336121192283
  0.3538131027518843  0.1480900457646667  0.4897072383272660
  0.4715874079421848  0.3925047200754332  0.3594580235611552
  0.5803200522736649  0.3957239118841378  0.4029005717172381
  0.5399757734381534  0.2758299306505755  0.4413307470298489
  0.4274947493273353  0.4706548923480550  0.4071367726391380
  0.4818892216602085  0.4679576434299024  0.4856842257184614
  0.5544564226446548  0.4292780532719550  0.4852600791358465
  0.3011469288085254  0.3873839313070158  0.4373902122503717
  0.3081681318553212  0.3930771949361180  0.5420755878771792
  0.4355572938346601  0.4780389957896005  0.5659621673570306
  0.2899716258696715  0.2756025739263221  0.5723222383733292
  0.3987869303898944  0.2847423695506652  0.6054017669843198
  0.4827294471254953  0.3998273132258612  0.6143431139206685
  0.5858242843592110  0.4013077821994843  0.5678577203586546
  0.5587686043922043  0.2739913362214206  0.5411245352957056
  0.4324743410620224  0.2060366116965330  0.5668783827836030
 
  0.00000000E+00  0.00000000E+00  0.00000000E+00
  0.00000000E+00  0.00000000E+00  0.00000000E+00
  0.00000000E+00  0.00000000E+00  0.00000000E+00
  0.00000000E+00  0.00000000E+00  0.00000000E+00
  0.00000000E+00  0.00000000E+00  0.00000000E+00
  0.00000000E+00  0.00000000E+00  0.00000000E+00
  0.00000000E+00  0.00000000E+00  0.00000000E+00
  0.00000000E+00  0.00000000E+00  0.00000000E+00
  0.00000000E+00  0.00000000E+00  0.00000000E+00
  0.00000000E+00  0.00000000E+00  0.00000000E+00
  0.00000000E+00  0.00000000E+00  0.00000000E+00
  0.00000000E+00  0.00000000E+00  0.00000000E+00
  0.00000000E+00  0.00000000E+00  0.00000000E+00
  0.00000000E+00  0.00000000E+00  0.00000000E+00
  0.00000000E+00  0.00000000E+00  0.00000000E+00
  0.00000000E+00  0.00000000E+00  0.00000000E+00
  0.00000000E+00  0.00000000E+00  0.00000000E+00
  0.00000000E+00  0.00000000E+00  0.00000000E+00
  0.00000000E+00  0.00000000E+00  0.00000000E+00
  0.00000000E+00  0.00000000E+00  0.00000000E+00
  0.00000000E+00  0.00000000E+00  0.00000000E+00
  0.00000000E+00  0.00000000E+00  0.00000000E+00
  0.00000000E+00  0.00000000E+00  0.00000000E+00
  0.00000000E+00  0.00000000E+00  0.00000000E+00
  0.00000000E+00  0.00000000E+00  0.00000000E+00
  0.00000000E+00  0.00000000E+00  0.00000000E+00
  0.00000000E+00  0.00000000E+00  0.00000000E+00
  0.00000000E+00  0.00000000E+00  0.00000000E+00
  0.00000000E+00  0.00000000E+00  0.00000000E+00
  0.00000000E+00  0.00000000E+00  0.00000000E+00
  0.00000000E+00  0.00000000E+00  0.00000000E+00
  0.00000000E+00  0.00000000E+00  0.00000000E+00
  0.00000000E+00  0.00000000E+00  0.00000000E+00
  0.00000000E+00  0.00000000E+00  0.00000000E+00
  0.00000000E+00  0.00000000E+00  0.00000000E+00
  0.00000000E+00  0.00000000E+00  0.00000000E+00
  0.00000000E+00  0.00000000E+00  0.00000000E+00
  0.00000000E+00  0.00000000E+00  0.00000000E+00
  0.00000000E+00  0.00000000E+00  0.00000000E+00
  0.00000000E+00  0.00000000E+00  0.00000000E+00
  0.00000000E+00  0.00000000E+00  0.00000000E+00
  0.00000000E+00  0.00000000E+00  0.00000000E+00
  0.00000000E+00  0.00000000E+00  0.00000000E+00
  0.00000000E+00  0.00000000E+00  0.00000000E+00
  0.00000000E+00  0.00000000E+00  0.00000000E+00
  0.00000000E+00  0.00000000E+00  0.00000000E+00
  0.00000000E+00  0.00000000E+00  0.00000000E+00
  0.00000000E+00  0.00000000E+00  0.00000000E+00
  0.00000000E+00  0.00000000E+00  0.00000000E+00
  0.00000000E+00  0.00000000E+00  0.00000000E+00
  0.00000000E+00  0.00000000E+00  0.00000000E+00
  0.00000000E+00  0.00000000E+00  0.00000000E+00
  0.00000000E+00  0.00000000E+00  0.00000000E+00
  0.00000000E+00  0.00000000E+00  0.00000000E+00
  0.00000000E+00  0.00000000E+00  0.00000000E+00
  0.00000000E+00  0.00000000E+00  0.00000000E+00
  0.00000000E+00  0.00000000E+00  0.00000000E+00
  0.00000000E+00  0.00000000E+00  0.00000000E+00
  0.00000000E+00  0.00000000E+00  0.00000000E+00
  0.00000000E+00  0.00000000E+00  0.00000000E+00
  0.00000000E+00  0.00000000E+00  0.00000000E+00
  0.00000000E+00  0.00000000E+00  0.00000000E+00
  0.00000000E+00  0.00000000E+00  0.00000000E+00
  0.00000000E+00  0.00000000E+00  0.00000000E+00
  0.00000000E+00  0.00000000E+00  0.00000000E+00
  0.00000000E+00  0.00000000E+00  0.00000000E+00
  0.00000000E+00  0.00000000E+00  0.00000000E+00
  0.00000000E+00  0.00000000E+00  0.00000000E+00
  0.00000000E+00  0.00000000E+00  0.00000000E+00
  0.00000000E+00  0.00000000E+00  0.00000000E+00
  0.00000000E+00  0.00000000E+00  0.00000000E+00
  0.00000000E+00  0.00000000E+00  0.00000000E+00
  0.00000000E+00  0.00000000E+00  0.00000000E+00
  0.00000000E+00  0.00000000E+00  0.00000000E+00
  0.00000000E+00  0.00000000E+00  0.00000000E+00
  0.00000000E+00  0.00000000E+00  0.00000000E+00
  0.00000000E+00  0.00000000E+00  0.00000000E+00
  0.00000000E+00  0.00000000E+00  0.00000000E+00
  0.00000000E+00  0.00000000E+00  0.00000000E+00
  0.00000000E+00  0.00000000E+00  0.00000000E+00
  0.00000000E+00  0.00000000E+00  0.00000000E+00
  0.00000000E+00  0.00000000E+00  0.00000000E+00
  0.00000000E+00  0.00000000E+00  0.00000000E+00
  0.00000000E+00  0.00000000E+00  0.00000000E+00
  0.00000000E+00  0.00000000E+00  0.00000000E+00
  0.00000000E+00  0.00000000E+00  0.00000000E+00
  0.00000000E+00  0.00000000E+00  0.00000000E+00
  0.00000000E+00  0.00000000E+00  0.00000000E+00
  0.00000000E+00  0.00000000E+00  0.00000000E+00
  0.00000000E+00  0.00000000E+00  0.00000000E+00
  0.00000000E+00  0.00000000E+00  0.00000000E+00
  0.00000000E+00  0.00000000E+00  0.00000000E+00
  0.00000000E+00  0.00000000E+00  0.00000000E+00
  0.00000000E+00  0.00000000E+00  0.00000000E+00
  0.00000000E+00  0.00000000E+00  0.00000000E+00
  0.00000000E+00  0.00000000E+00  0.00000000E+00
  0.00000000E+00  0.00000000E+00  0.00000000E+00
  0.00000000E+00  0.00000000E+00  0.00000000E+00
  0.00000000E+00  0.00000000E+00  0.00000000E+00
  0.00000000E+00  0.00000000E+00  0.00000000E+00
  0.00000000E+00  0.00000000E+00  0.00000000E+00
  0.00000000E+00  0.00000000E+00  0.00000000E+00
  0.00000000E+00  0.00000000E+00  0.00000000E+00
  0.00000000E+00  0.00000000E+00  0.00000000E+00
