C                                       
   1.00000000000000     
    13.3706449202266064   -0.0098578351174833    0.0000000000000000
    -6.7071471576654842   12.0521701406754893    0.0000000000000000
     0.0000000000000000    0.0000000000000000   16.0000000000000000
  C             
   108
Direct
  0.6283044024098824  0.2393062269931273  0.6064912559856247
  0.6385001142706942  0.3471953805255023  0.6299620180954201
  0.5380309292790380  0.1966099505354175  0.5548758767672319
  0.5567797827246331  0.3711946720634959  0.5941436137252080
  0.4804506569228550  0.2715366634695605  0.5414265635631503
  0.5420029675432807  0.1378466888651864  0.4790327996074916
  0.5044761694601381  0.1988389838985750  0.4150595514069473
  0.5130093730560956  0.3008275483485485  0.4528729250045680
  0.6836316142417104  0.1952687527451271  0.4658667042406582
  0.7349176640359711  0.2553542115882653  0.5563581516549699
  0.7946259215596017  0.3803402141008118  0.5510537308811284
  0.6981966492354911  0.2732984794182822  0.3948972300395173
  0.7811359920643961  0.3927001140389290  0.3973086547945570
  0.8291485142960352  0.4442275922560132  0.4740037446599135
  0.6008456614974212  0.2589899932917904  0.3531541238350819
  0.7454534991074895  0.5185524885776098  0.5665291756694618
  0.7519813021392837  0.4282179844336125  0.6071025697798097
  0.8139917012323973  0.5449805801812111  0.4852946662188673
  0.7401311192278009  0.5415083937540812  0.4113967441200844
  0.7343760371482478  0.4541020518931042  0.3518811074177160
  0.6204660149043735  0.3731056932914161  0.3394550084339404
  0.6173230978084995  0.4805980597700719  0.5472893465052752
  0.6146404365879816  0.4968683059305316  0.4481625633813189
  0.5509875839572481  0.3911860357054238  0.4027245862363317
  0.3835669187339015  0.6175825368771792  0.3692183819959183
  0.3023551980234040  0.5277019003347521  0.4127997681278495
  0.3320984049375346  0.6883295819064958  0.3617961179454389
  0.1855783168566911  0.5203641736488555  0.4328479790382029
  0.2172009160309192  0.6395694277382290  0.4034090236482654
  0.4054880905369525  0.7965643152085768  0.3902761977609351
  0.3370395658540538  0.8336798003647372  0.4443543179109375
  0.2282628506076115  0.7215424685380498  0.4593224210279657
  0.4808042151812854  0.7820332002102591  0.4454677086378001
  0.4900429536776575  0.6791004849507283  0.4306078295257043
  0.4424465951911239  0.6030768834149484  0.5080308540462608
  0.4824236465445281  0.8168902026552782  0.5285022619891919
  0.4645699666667776  0.7475116809839089  0.6008166439762835
  0.4694724238623850  0.6392725369775424  0.5984869580059129
  0.3931629949579462  0.8453172825203933  0.5278879592893918
  0.2571364550173968  0.4702855958984699  0.5565204932330984
  0.3448434262782289  0.5095149243092760  0.4901426990126165
  0.3323436693645554  0.5467010626961432  0.6328101467821589
  0.2860919353820146  0.6168593981485887  0.6438339335323363
  0.3644479648850971  0.7334572898291961  0.6401927145375529
  0.3186814515809562  0.7885301327634141  0.5914534398537780
  0.1974371408447438  0.5351248339599546  0.5273314177922646
  0.1912805364436102  0.6039585453763789  0.5845682660156809
  0.2001363385358228  0.7162147548943596  0.5547334311782804
  0.8313698343901140  0.2185195955889285  0.5538642104008850
  0.9515794755244851  0.3212525132410959  0.5442273743592878
  0.8778489583097789  0.1452610805537114  0.5886667063743435
  0.0033706031460823  0.2050253512223494  0.6076243480245129
  0.0462306880094719  0.3130611629696938  0.5822984641994410
  0.8779952337725568  0.0884024442076196  0.5213133328102119
  0.9740244068131783  0.0692338326678400  0.5014298274690884
  0.0687039580632984  0.1545068780032199  0.5635984688219243
  0.8078539939322745  0.0610576596182647  0.4452009167019004
  0.9075359074652544  0.1117951135090642  0.3796174648531193
  0.0035834806207564  0.1146996391397343  0.4154062594932649
  0.7856237727854229  0.1693146213547108  0.4610207339136009
  0.8884862668183420  0.2616373682690500  0.4115010652879735
  0.9482277085410402  0.2275918057885299  0.3602495096744410
  0.9736178185014824  0.3533836629906161  0.4624397973012971
  0.0959770176155447  0.3947131559991595  0.4356740704028852
  0.0735696242517335  0.2983471614858427  0.3793721269040188
  0.1000916555496802  0.2245796064215189  0.4181582515733427
  0.1587228595190411  0.2474864127117104  0.5024518895596900
  0.1558115486248463  0.3569308492123690  0.5320517806132437
  0.7678386936705209  0.6350410550376970  0.5826855168202987
  0.6449001896087690  0.6034322517231326  0.5569998430434062
  0.8083008217717506  0.7277108163347517  0.6425744862776342
  0.7219614718818447  0.7557571235023536  0.6513047526453226
  0.6088787984584306  0.6787618503620720  0.6008733061037286
  0.9206970258265429  0.8255691210851102  0.6067991393602967
  0.8779725641226652  0.9047695741874048  0.5896414460163386
  0.7701108683948740  0.8710910922783979  0.6176046902346329
  0.9367433613363012  0.7817071141553767  0.5163912270466960
  0.9098624023007142  0.8541866278235172  0.4578346261386476
  0.8972877710576042  0.9445935979289549  0.5014824120606363
  0.8430795241908760  0.6690247481908251  0.5027849931377163
  0.7691746758934092  0.6661494292141183  0.4284598752630568
  0.8131679027226185  0.7872738483432242  0.4081606209448835
  0.6462643619141636  0.6221882128447176  0.4600698283389453
  0.6181173758127559  0.7167053754143351  0.4421415775281441
  0.7279211503487965  0.8195989314993526  0.4078194850495567
  0.7694275712150148  0.9261522340171580  0.4644231666939765
  0.7058118804195093  0.8693624347384289  0.5433853666843625
  0.6354743353402440  0.7603950212669681  0.5303771967077434
  0.3205634920462727  0.0952561528651364  0.5889293272445991
  0.3356600411506019  0.0043405479291994  0.5687734711475627
  0.2196122645195673  0.0673823611231834  0.6344151075396323
  0.1663583001055491  0.9484430492051057  0.6444767916248842
  0.2335105302502181  0.9049141829412037  0.6049381055133735
  0.1498779939124521  0.1054788647416627  0.5819386450586788
  0.0859309996896646  0.9918077183269757  0.5496156796254722
  0.0551316923303674  0.8916114679025241  0.6007837647099360
  0.2324031632997499  0.1775168883030210  0.5072038856586226
  0.1921330313826879  0.0896197647786740  0.4371788562525128
  0.1049694469753483  0.9837636118670386  0.4656214302792671
  0.3549911391445881  0.1833738060908914  0.5248521263684488
  0.3794971753159008  0.1230664612983624  0.4433684954310634
  0.2697300143744553  0.0637780333126120  0.4027658684661151
  0.4025234233669924  0.0320119868138914  0.4822199253653979
  0.3294967094741723  0.9334123718507519  0.4276630535584242
  0.2330931618103686  0.9443162065737628  0.4081379631614594
  0.1241547763300554  0.8925648483555271  0.4502306521285370
  0.0664357388461014  0.8165354144242968  0.5253112156123445
  0.1506227495909509  0.7924796247166586  0.5704551070337107
 
  0.00000000E+00  0.00000000E+00  0.00000000E+00
  0.00000000E+00  0.00000000E+00  0.00000000E+00
  0.00000000E+00  0.00000000E+00  0.00000000E+00
  0.00000000E+00  0.00000000E+00  0.00000000E+00
  0.00000000E+00  0.00000000E+00  0.00000000E+00
  0.00000000E+00  0.00000000E+00  0.00000000E+00
  0.00000000E+00  0.00000000E+00  0.00000000E+00
  0.00000000E+00  0.00000000E+00  0.00000000E+00
  0.00000000E+00  0.00000000E+00  0.00000000E+00
  0.00000000E+00  0.00000000E+00  0.00000000E+00
  0.00000000E+00  0.00000000E+00  0.00000000E+00
  0.00000000E+00  0.00000000E+00  0.00000000E+00
  0.00000000E+00  0.00000000E+00  0.00000000E+00
  0.00000000E+00  0.00000000E+00  0.00000000E+00
  0.00000000E+00  0.00000000E+00  0.00000000E+00
  0.00000000E+00  0.00000000E+00  0.00000000E+00
  0.00000000E+00  0.00000000E+00  0.00000000E+00
  0.00000000E+00  0.00000000E+00  0.00000000E+00
  0.00000000E+00  0.00000000E+00  0.00000000E+00
  0.00000000E+00  0.00000000E+00  0.00000000E+00
  0.00000000E+00  0.00000000E+00  0.00000000E+00
  0.00000000E+00  0.00000000E+00  0.00000000E+00
  0.00000000E+00  0.00000000E+00  0.00000000E+00
  0.00000000E+00  0.00000000E+00  0.00000000E+00
  0.00000000E+00  0.00000000E+00  0.00000000E+00
  0.00000000E+00  0.00000000E+00  0.00000000E+00
  0.00000000E+00  0.00000000E+00  0.00000000E+00
  0.00000000E+00  0.00000000E+00  0.00000000E+00
  0.00000000E+00  0.00000000E+00  0.00000000E+00
  0.00000000E+00  0.00000000E+00  0.00000000E+00
  0.00000000E+00  0.00000000E+00  0.00000000E+00
  0.00000000E+00  0.00000000E+00  0.00000000E+00
  0.00000000E+00  0.00000000E+00  0.00000000E+00
  0.00000000E+00  0.00000000E+00  0.00000000E+00
  0.00000000E+00  0.00000000E+00  0.00000000E+00
  0.00000000E+00  0.00000000E+00  0.00000000E+00
  0.00000000E+00  0.00000000E+00  0.00000000E+00
  0.00000000E+00  0.00000000E+00  0.00000000E+00
  0.00000000E+00  0.00000000E+00  0.00000000E+00
  0.00000000E+00  0.00000000E+00  0.00000000E+00
  0.00000000E+00  0.00000000E+00  0.00000000E+00
  0.00000000E+00  0.00000000E+00  0.00000000E+00
  0.00000000E+00  0.00000000E+00  0.00000000E+00
  0.00000000E+00  0.00000000E+00  0.00000000E+00
  0.00000000E+00  0.00000000E+00  0.00000000E+00
  0.00000000E+00  0.00000000E+00  0.00000000E+00
  0.00000000E+00  0.00000000E+00  0.00000000E+00
  0.00000000E+00  0.00000000E+00  0.00000000E+00
  0.00000000E+00  0.00000000E+00  0.00000000E+00
  0.00000000E+00  0.00000000E+00  0.00000000E+00
  0.00000000E+00  0.00000000E+00  0.00000000E+00
  0.00000000E+00  0.00000000E+00  0.00000000E+00
  0.00000000E+00  0.00000000E+00  0.00000000E+00
  0.00000000E+00  0.00000000E+00  0.00000000E+00
  0.00000000E+00  0.00000000E+00  0.00000000E+00
  0.00000000E+00  0.00000000E+00  0.00000000E+00
  0.00000000E+00  0.00000000E+00  0.00000000E+00
  0.00000000E+00  0.00000000E+00  0.00000000E+00
  0.00000000E+00  0.00000000E+00  0.00000000E+00
  0.00000000E+00  0.00000000E+00  0.00000000E+00
  0.00000000E+00  0.00000000E+00  0.00000000E+00
  0.00000000E+00  0.00000000E+00  0.00000000E+00
  0.00000000E+00  0.00000000E+00  0.00000000E+00
  0.00000000E+00  0.00000000E+00  0.00000000E+00
  0.00000000E+00  0.00000000E+00  0.00000000E+00
  0.00000000E+00  0.00000000E+00  0.00000000E+00
  0.00000000E+00  0.00000000E+00  0.00000000E+00
  0.00000000E+00  0.00000000E+00  0.00000000E+00
  0.00000000E+00  0.00000000E+00  0.00000000E+00
  0.00000000E+00  0.00000000E+00  0.00000000E+00
  0.00000000E+00  0.00000000E+00  0.00000000E+00
  0.00000000E+00  0.00000000E+00  0.00000000E+00
  0.00000000E+00  0.00000000E+00  0.00000000E+00
  0.00000000E+00  0.00000000E+00  0.00000000E+00
  0.00000000E+00  0.00000000E+00  0.00000000E+00
  0.00000000E+00  0.00000000E+00  0.00000000E+00
  0.00000000E+00  0.00000000E+00  0.00000000E+00
  0.00000000E+00  0.00000000E+00  0.00000000E+00
  0.00000000E+00  0.00000000E+00  0.00000000E+00
  0.00000000E+00  0.00000000E+00  0.00000000E+00
  0.00000000E+00  0.00000000E+00  0.00000000E+00
  0.00000000E+00  0.00000000E+00  0.00000000E+00
  0.00000000E+00  0.00000000E+00  0.00000000E+00
  0.00000000E+00  0.00000000E+00  0.00000000E+00
  0.00000000E+00  0.00000000E+00  0.00000000E+00
  0.00000000E+00  0.00000000E+00  0.00000000E+00
  0.00000000E+00  0.00000000E+00  0.00000000E+00
  0.00000000E+00  0.00000000E+00  0.00000000E+00
  0.00000000E+00  0.00000000E+00  0.00000000E+00
  0.00000000E+00  0.00000000E+00  0.00000000E+00
  0.00000000E+00  0.00000000E+00  0.00000000E+00
  0.00000000E+00  0.00000000E+00  0.00000000E+00
  0.00000000E+00  0.00000000E+00  0.00000000E+00
  0.00000000E+00  0.00000000E+00  0.00000000E+00
  0.00000000E+00  0.00000000E+00  0.00000000E+00
  0.00000000E+00  0.00000000E+00  0.00000000E+00
  0.00000000E+00  0.00000000E+00  0.00000000E+00
  0.00000000E+00  0.00000000E+00  0.00000000E+00
  0.00000000E+00  0.00000000E+00  0.00000000E+00
  0.00000000E+00  0.00000000E+00  0.00000000E+00
  0.00000000E+00  0.00000000E+00  0.00000000E+00
  0.00000000E+00  0.00000000E+00  0.00000000E+00
  0.00000000E+00  0.00000000E+00  0.00000000E+00
  0.00000000E+00  0.00000000E+00  0.00000000E+00
  0.00000000E+00  0.00000000E+00  0.00000000E+00
  0.00000000E+00  0.00000000E+00  0.00000000E+00
  0.00000000E+00  0.00000000E+00  0.00000000E+00
  0.00000000E+00  0.00000000E+00  0.00000000E+00
