C                                       
   1.00000000000000     
    10.5701090222894329    0.1016810924484135    0.0000000000000000
     0.1247920474387471   12.3656753155489518    0.0000000000000000
     0.0000000000000000    0.0000000000000000   16.0000000000000000
  C             
    88
Direct
  0.2724039553826663  0.1484866149715497  0.5354222960379027
  0.2537511495995882  0.2603373342480145  0.4867689641418838
  0.3621803964986682  0.0949870961294605  0.4777092354898368
  0.3583024118926896  0.2564245365789536  0.4149037309145925
  0.4118155231246176  0.1539748778535461  0.4081329051441662
  0.4584058338221443  0.0556536912626561  0.5230907844999666
  0.5727822849239976  0.0426879243549051  0.4732740807822544
  0.5466861489324504  0.1306420225514918  0.4043853894455521
  0.4720777327060023  0.1051882059440977  0.6023476444433871
  0.3606224763725033  0.1743192959419015  0.6111085348186956
  0.3827714173873028  0.2835808982048764  0.6161318994001627
  0.5982512285411737  0.1365365485455504  0.6048266714537591
  0.6142017294706222  0.2506638372537852  0.6074601183544921
  0.5094742660061505  0.3251832047957797  0.6186420904303442
  0.6715274898443135  0.0915491180751344  0.5270099858076867
  0.4224940166901306  0.3841682731291501  0.5050846952436034
  0.3099122191980098  0.3434352354013168  0.5478086539824868
  0.5196763427487593  0.4233070103982190  0.5606508817651361
  0.6599743807052334  0.3874496410041869  0.5045046581630688
  0.6966528724235972  0.2828254040960952  0.5431475935125956
  0.7263268518462860  0.1906713391598002  0.4815607660742780
  0.4525677575803806  0.3378791682927222  0.4298975187617650
  0.5886776478813185  0.3269329708503507  0.4279422342810204
  0.6291653620778840  0.2170117265780651  0.4160990911908006
  0.3288150535199075  0.8720472248022499  0.4823667040049706
  0.4454674137253678  0.8894436545820535  0.4247296169630105
  0.2922162161215672  0.7588869377317453  0.4579723807987676
  0.4718548498381683  0.8004355220806603  0.3768513016337133
  0.3748991479715579  0.7191048058343358  0.3969299723807405
  0.2771342996244530  0.6803771521083684  0.5312091263965734
  0.3432189397590363  0.5745796899186657  0.4968617981281783
  0.4103432259225213  0.6113782867853895  0.4160322978261688
  0.3760102824192116  0.7286891886368626  0.5888162313309899
  0.4081921725830632  0.8345707571800736  0.5594377829372406
  0.5382062500264336  0.8612500882568591  0.5515496836851805
  0.4711192999298630  0.6530643230612296  0.6105559729518891
  0.5993776423229025  0.6851907409627500  0.5986493970163745
  0.6360032265244731  0.7882921776218019  0.5735084108023600
  0.4576779453572293  0.5466933023817561  0.5589499775756399
  0.6828335772566047  0.8559663871746064  0.4382881110767992
  0.5667615998857095  0.9212471445598879  0.4687174816545078
  0.7422068535295254  0.7793029985759689  0.5062784781615477
  0.7323597585056224  0.6608069351063183  0.4695395071444181
  0.6580419269745988  0.6144720117744658  0.5393317001495000
  0.5633124363648382  0.5613202194970622  0.5016933186584253
  0.6089641747458909  0.7751303772933332  0.3788886892494308
  0.6370451770776288  0.6707509055542834  0.3999534246357265
  0.5397300465362435  0.5911095220757346  0.4181913134000378
  0.2013970671175483  0.9398188240414516  0.4901842352697692
  0.1732745979371101  0.0601815067688505  0.5360604469946536
  0.1172990886666796  0.9553456306800836  0.4118454639510140
  0.0613233037343250  0.0646965531771264  0.4040538601953703
  0.0808421760358038  0.1133784179982083  0.4780610488855977
  0.0160081968405169  0.8849437726792354  0.4057036836184582
  0.9019587624238711  0.9529956155950784  0.3943904664768444
  0.9247464019923815  0.0634239993891712  0.3928062891182332
  0.0094305858033704  0.8023834421401087  0.4796984771253377
  0.8705561569075836  0.8398045113025914  0.5174825344823402
  0.8058328846002102  0.9251020969127897  0.4558803018985762
  0.1040647248509625  0.8678324602212452  0.5347911900875714
  0.0469527352645390  0.9173314944501902  0.6010324802747425
  0.9107574479247922  0.9055644695537434  0.5944438219787991
  0.0804984722188378  0.0322440750489951  0.6041547985185219
  0.9681991778167300  0.0921645433754684  0.5961520329117223
  0.8699320115333923  0.0114064917597056  0.5887357400294952
  0.7937631440852947  0.0307064462488331  0.5145766976053564
  0.8568504160180755  0.1273705910247865  0.4662120743360850
  0.9699329991939284  0.1721779834397579  0.5197047811860211
  0.1914214890339307  0.4149163445870728  0.5415714753741432
  0.0951090305098939  0.4428549581177957  0.6049898147785238
  0.2137780720029936  0.5223361357815175  0.4936636139307068
  0.1461442674552277  0.6211206473043946  0.5414252815750569
  0.0727369137861967  0.5544557298065458  0.6089236030769568
  0.1418500432121618  0.5109222660187968  0.4146009080028880
  0.0421003568860189  0.5937239812852811  0.4074336183861942
  0.0352737049656838  0.6720870053481373  0.4830325218179720
  0.0947224732974891  0.4077191072542616  0.4053380348248894
  0.9591951356809905  0.4250083687178670  0.3962283815100786
  0.9279687412310017  0.5414585062918992  0.3940871101138926
  0.1273546148788735  0.3332241068733776  0.4785231414526446
  0.9894361012161772  0.3016740384243141  0.5159686007470476
  0.8960984926825981  0.3728998708927314  0.4585229114021721
  0.9797033035341456  0.3827360650303611  0.5891122454405462
  0.8782666601294097  0.4568981930969981  0.5828045258307620
  0.7960637766858013  0.4487963984874832  0.5012537324423999
  0.8322328192788953  0.5708825813700508  0.4617657358196096
  0.9234380194723858  0.6162113564941250  0.5220729873141648
  0.9370194850942449  0.5630563878083058  0.5951028294971311
 
  0.00000000E+00  0.00000000E+00  0.00000000E+00
  0.00000000E+00  0.00000000E+00  0.00000000E+00
  0.00000000E+00  0.00000000E+00  0.00000000E+00
  0.00000000E+00  0.00000000E+00  0.00000000E+00
  0.00000000E+00  0.00000000E+00  0.00000000E+00
  0.00000000E+00  0.00000000E+00  0.00000000E+00
  0.00000000E+00  0.00000000E+00  0.00000000E+00
  0.00000000E+00  0.00000000E+00  0.00000000E+00
  0.00000000E+00  0.00000000E+00  0.00000000E+00
  0.00000000E+00  0.00000000E+00  0.00000000E+00
  0.00000000E+00  0.00000000E+00  0.00000000E+00
  0.00000000E+00  0.00000000E+00  0.00000000E+00
  0.00000000E+00  0.00000000E+00  0.00000000E+00
  0.00000000E+00  0.00000000E+00  0.00000000E+00
  0.00000000E+00  0.00000000E+00  0.00000000E+00
  0.00000000E+00  0.00000000E+00  0.00000000E+00
  0.00000000E+00  0.00000000E+00  0.00000000E+00
  0.00000000E+00  0.00000000E+00  0.00000000E+00
  0.00000000E+00  0.00000000E+00  0.00000000E+00
  0.00000000E+00  0.00000000E+00  0.00000000E+00
  0.00000000E+00  0.00000000E+00  0.00000000E+00
  0.00000000E+00  0.00000000E+00  0.00000000E+00
  0.00000000E+00  0.00000000E+00  0.00000000E+00
  0.00000000E+00  0.00000000E+00  0.00000000E+00
  0.00000000E+00  0.00000000E+00  0.00000000E+00
  0.00000000E+00  0.00000000E+00  0.00000000E+00
  0.00000000E+00  0.00000000E+00  0.00000000E+00
  0.00000000E+00  0.00000000E+00  0.00000000E+00
  0.00000000E+00  0.00000000E+00  0.00000000E+00
  0.00000000E+00  0.00000000E+00  0.00000000E+00
  0.00000000E+00  0.00000000E+00  0.00000000E+00
  0.00000000E+00  0.00000000E+00  0.00000000E+00
  0.00000000E+00  0.00000000E+00  0.00000000E+00
  0.00000000E+00  0.00000000E+00  0.00000000E+00
  0.00000000E+00  0.00000000E+00  0.00000000E+00
  0.00000000E+00  0.00000000E+00  0.00000000E+00
  0.00000000E+00  0.00000000E+00  0.00000000E+00
  0.00000000E+00  0.00000000E+00  0.00000000E+00
  0.00000000E+00  0.00000000E+00  0.00000000E+00
  0.00000000E+00  0.00000000E+00  0.00000000E+00
  0.00000000E+00  0.00000000E+00  0.00000000E+00
  0.00000000E+00  0.00000000E+00  0.00000000E+00
  0.00000000E+00  0.00000000E+00  0.00000000E+00
  0.00000000E+00  0.00000000E+00  0.00000000E+00
  0.00000000E+00  0.00000000E+00  0.00000000E+00
  0.00000000E+00  0.00000000E+00  0.00000000E+00
  0.00000000E+00  0.00000000E+00  0.00000000E+00
  0.00000000E+00  0.00000000E+00  0.00000000E+00
  0.00000000E+00  0.00000000E+00  0.00000000E+00
  0.00000000E+00  0.00000000E+00  0.00000000E+00
  0.00000000E+00  0.00000000E+00  0.00000000E+00
  0.00000000E+00  0.00000000E+00  0.00000000E+00
  0.00000000E+00  0.00000000E+00  0.00000000E+00
  0.00000000E+00  0.00000000E+00  0.00000000E+00
  0.00000000E+00  0.00000000E+00  0.00000000E+00
  0.00000000E+00  0.00000000E+00  0.00000000E+00
  0.00000000E+00  0.00000000E+00  0.00000000E+00
  0.00000000E+00  0.00000000E+00  0.00000000E+00
  0.00000000E+00  0.00000000E+00  0.00000000E+00
  0.00000000E+00  0.00000000E+00  0.00000000E+00
  0.00000000E+00  0.00000000E+00  0.00000000E+00
  0.00000000E+00  0.00000000E+00  0.00000000E+00
  0.00000000E+00  0.00000000E+00  0.00000000E+00
  0.00000000E+00  0.00000000E+00  0.00000000E+00
  0.00000000E+00  0.00000000E+00  0.00000000E+00
  0.00000000E+00  0.00000000E+00  0.00000000E+00
  0.00000000E+00  0.00000000E+00  0.00000000E+00
  0.00000000E+00  0.00000000E+00  0.00000000E+00
  0.00000000E+00  0.00000000E+00  0.00000000E+00
  0.00000000E+00  0.00000000E+00  0.00000000E+00
  0.00000000E+00  0.00000000E+00  0.00000000E+00
  0.00000000E+00  0.00000000E+00  0.00000000E+00
  0.00000000E+00  0.00000000E+00  0.00000000E+00
  0.00000000E+00  0.00000000E+00  0.00000000E+00
  0.00000000E+00  0.00000000E+00  0.00000000E+00
  0.00000000E+00  0.00000000E+00  0.00000000E+00
  0.00000000E+00  0.00000000E+00  0.00000000E+00
  0.00000000E+00  0.00000000E+00  0.00000000E+00
  0.00000000E+00  0.00000000E+00  0.00000000E+00
  0.00000000E+00  0.00000000E+00  0.00000000E+00
  0.00000000E+00  0.00000000E+00  0.00000000E+00
  0.00000000E+00  0.00000000E+00  0.00000000E+00
  0.00000000E+00  0.00000000E+00  0.00000000E+00
  0.00000000E+00  0.00000000E+00  0.00000000E+00
  0.00000000E+00  0.00000000E+00  0.00000000E+00
  0.00000000E+00  0.00000000E+00  0.00000000E+00
  0.00000000E+00  0.00000000E+00  0.00000000E+00
  0.00000000E+00  0.00000000E+00  0.00000000E+00
