C 
 1.0000000000000000
     8.7172248044910603    0.0000000000000000    0.0000000000000000
    -4.3586124022455346    7.5493381311890930    0.0000000000000000
     0.0000000000000000    0.0000000000000000   16.0000000000000000
 C  
  44
Direct
 -0.1246990342969610  0.0608310821135753  0.6194085132232637
 -0.2652148770834843 -0.0338243673299029  0.5606677410307674
 -0.0520388084266164 -0.0460116995212696  0.6468766608830816
 -0.2567040870894631 -0.1943166563951338  0.5376187180968097
 -0.1264599654416442 -0.2016910137197380  0.5901412346265287
  0.1355985746859496  0.0446414788910377  0.6341198504429739
  0.1860624994131128 -0.0618296579864462  0.5860460479368127
  0.0189894221663692 -0.2114557282307947  0.5531192372280435
  0.1776489916171469  0.2009304478516659  0.5814207284585776
  0.0184219667332397  0.2108090667285361  0.5724371186298737
 -0.0481293038160136  0.2138070633159988  0.4904176260565493
  0.2705019378912616  0.1940917614108115  0.5083732015267789
  0.2040202810613187  0.1971392845951632  0.4263836246895800
  0.0447537966963750  0.2069826372661233  0.4173910970110180
  0.2879489963195741  0.0334303352449571  0.5145182377303907
 -0.2401868736571774 -0.0374877362717916  0.4142647073528468
 -0.2339410289150413  0.0657360390769835  0.4851910724149181
 -0.0815356582423635  0.0545646953216053  0.3655806281628802
 -0.0020440042913170 -0.0531601224902988  0.3534249425826286
  0.1788464798201635  0.0384863147313737  0.3803299435335523
  0.2112208305486844 -0.0653845254615895  0.4396114359223954
 -0.2414354681678668 -0.1965640244799945  0.4480662839506954
 -0.0959150649274329 -0.2061392637054119  0.4110089693230764
  0.0342903974021890 -0.2135854109554579  0.4635570780351336
  0.1662938056292162  0.7340836567482357  0.5170685708579764
  0.0922843631048553  0.5534356729643416  0.5471259689512364
  0.1803716256181615  0.7305798264869772  0.4277930105292506
  0.1150184769790894  0.5477575193062385  0.4031665541392373
  0.0516845760400430  0.4323684520278164  0.4765641663501933
  0.3660031435207179  0.8402322538087792  0.4032302994337271
  0.4139566871198347  0.7150605352891776  0.3679963380741086
  0.2598702685613554  0.5381333887816248  0.3660739804411764
  0.4624926439720505  0.8963559698071164  0.4819442095026211
  0.5852799957919660  0.8299450406034820  0.4907604648764324
  0.5447007685691652  0.7089330130780743  0.4201901278375422
  0.3423484962285278  0.8461000026492325  0.5529423421270154
  0.3771247029511755  0.7242324476089655  0.6012435533269042
  0.5219862890840785  0.7145900382505607  0.5641658894957475
  0.2230427487843676  0.5473482506837590  0.5993238442759795
  0.2709959098010442  0.4221758583331747  0.5640985998100211
  0.4566211335443977  0.5317846658918793  0.5395254889642224
  0.4706955946540027  0.5282865831267193  0.4502438682475997
  0.2946191558702693  0.4162428025807787  0.4143734563630372
  0.1744898654755727  0.3659791915131740  0.4853868419079375
