C                                       
   1.00000000000000     
    20.4139148266286554   -0.0267542731714375    0.0000000000000000
   -10.2302066613877152   17.6626453309322287    0.0000000000000000
     0.0000000000000000    0.0000000000000000   16.0000000000000000
  C             
   108
Direct
  0.4646915780344589  0.7144792728624847  0.5532895034028606
  0.4405393215492606  0.6431655267261815  0.5006287258505504
  0.4560355526291657  0.7674509911216799  0.5089350144761735
  0.3944616868060229  0.6529821739087365  0.4331696688135021
  0.4080729115239255  0.7285795257289618  0.4343586568436503
  0.4211028217639466  0.8061487929437315  0.5601272618777783
  0.3569332169008122  0.7967247352112752  0.5002111707912663
  0.3466603716140753  0.7404514236786687  0.4329765148413955
  0.3837745579561213  0.7472872995222949  0.6302116864319129
  0.4123563297687862  0.6948162611245766  0.6267133408170927
  0.3640452239974831  0.6164595632530951  0.6305196075194155
  0.3054743772932421  0.7170855889862481  0.6266490465439390
  0.2528702587982092  0.6358086222375022  0.6305252839883569
  0.2828136946538251  0.5876030134166265  0.6269962861106304
  0.2857192204505153  0.7496592226112060  0.5532356487745841
  0.3117239543934467  0.5437297764141348  0.5095555178321201
  0.3855882808844440  0.5790719606349406  0.5606885204401597
  0.2499192181508175  0.5349177301658681  0.5537897238130305
  0.2027818948961415  0.5588575940793408  0.5008805864065149
  0.1938838492857078  0.6139639239362237  0.5606924299619277
  0.2325669117004518  0.6876356403521789  0.5092102265507106
  0.3209366908466064  0.5914309227482165  0.4348020979359470
  0.2588777260266421  0.6048077908766317  0.4333630880084228
  0.2710046307745301  0.6782581723399262  0.4345871811936370
  0.5353136852877303  0.2855296439274881  0.5533142274394349
  0.5594685929330383  0.3568455163559259  0.5006577330353887
  0.5439613812877315  0.2325558003098226  0.5089541094689686
  0.6055388053075030  0.3470250167939852  0.4331958816398945
  0.5919216312383209  0.2714251962612531  0.4343747387694123
  0.5788914191490413  0.1938502770341470  0.5601373451810520
  0.6430581097746382  0.2032743412150665  0.5002152997658038
  0.6533304511457315  0.2595511643504056  0.4329891305106099
  0.6162211046969048  0.2527061252023475  0.6302298827734264
  0.5876490955139620  0.3051865038005149  0.6267366234210575
  0.6359665185872909  0.3835430349778519  0.6305461255142514
  0.6945213515923342  0.2829052734686157  0.6266612242684950
  0.7471319242637366  0.3641813557106429  0.6305421465095654
  0.7171970224836896  0.4123936146616763  0.6270161193601643
  0.7142706982117579  0.2503336451926399  0.5532413688428666
  0.6882829922568486  0.4562753655949740  0.5095815400610273
  0.6144204135260412  0.4209395561863581  0.5607196895072003
  0.7500883817940663  0.4650789769343261  0.5538085455763700
  0.7972186911140906  0.4411330498193825  0.5008963710612793
  0.8061128030916528  0.3860212522681200  0.5607080432615668
  0.7674252350637895  0.3123556168725745  0.5092187683027112
  0.6790685179951889  0.4085773379693098  0.4348237771814171
  0.7411203852287264  0.3951914907490893  0.4333774701891793
  0.7289905081322233  0.3217412396352757  0.4345972253758873
  0.4155591365010104  0.9878995709847151  0.5446397795773896
  0.4591932866475810  0.0673605401648991  0.5183170589558745
  0.4624962349391736  0.9670391073187349  0.5903455758274433
  0.5375098400130034  0.0329600423410736  0.5903401079717224
  0.5389315062412258  0.1042752883062897  0.5518572239014180
  0.4610654015273536  0.8957234301945388  0.5518519101960697
  0.5407997769414461  0.9326397958887217  0.5182963505701135
  0.5844414283599271  0.0121022844275876  0.5446192305765986
  0.4046459822444993  0.8798463571671287  0.4735153333579820
  0.4618390958295541  0.9058022755070805  0.4007177144521986
  0.5388096415568085  0.9334120970048183  0.4309957402078137
  0.3822163489484430  0.9401498372457041  0.4738328286184560
  0.4132439387689948  0.9873589425783422  0.4032300568343558
  0.4617837580617227  0.9666290577483151  0.3585698393621636
  0.4611702614897787  0.0665929482867889  0.4310149060462156
  0.5381349727101660  0.0941993106466945  0.4007272198958232
  0.5381848789847866  0.0333738961088901  0.3585666034440383
  0.5867307682608606  0.0126447772743802  0.4032124536422387
  0.6177734822312791  0.0598548109116468  0.4738134113335264
  0.5953403681015478  0.1201551904937366  0.4735094594635950
  0.0108891317913186  0.4269460109093234  0.5455140171739121
  0.9315410564021052  0.3917881926392309  0.5191988674874523
  0.0326211539121394  0.4950372139893697  0.5912224875000022
  0.9673902495717760  0.5049571437820202  0.5912252949566091
  0.8956156022994751  0.4353471963286046  0.5527452804479304
  0.1043865126601925  0.5646430288787561  0.5527274001941327
  0.0684614862704043  0.6082039629347687  0.5191808086795459
  0.9891140793514874  0.5730405247047173  0.5455056758204633
  0.1196259756316884  0.5236233595227904  0.4743727361647408
  0.0943283204594320  0.5554205667300955  0.4016112445710115
  0.0676879199012500  0.6054669485062648  0.4318898249181509
  0.0584883136160464  0.4408968235260607  0.4747037090529427
  0.0113806231674631  0.4251645002445718  0.4041276660869884
  0.0330281371672044  0.4947509485648635  0.3594695818411055
  0.9323023969055945  0.3945083491169738  0.4319084217509208
  0.9056658742959449  0.4445573254250910  0.4016373313875856
  0.9669546492615061  0.5052176867154949  0.3594745170815986
  0.9886056911210764  0.5748068342685000  0.4041242935168911
  0.9415051663669519  0.5590876980808306  0.4747067611133653
  0.8803720554448559  0.4763600886590502  0.4743922713791499
  0.5729150294289981  0.5843852744758913  0.5453650314370719
  0.6082873932530015  0.5405351159561870  0.5190310096129127
  0.5048486555350874  0.5375653205297887  0.5910974530996146
  0.4951481064404205  0.4624525516815368  0.5911042601563247
  0.5649075935059830  0.4608181372680025  0.5526122792272765
  0.4350981287715630  0.5391944707154493  0.5525836236584276
  0.3917199322133248  0.4594818150089212  0.5190019082257397
  0.4270902057475863  0.4156323775763229  0.5453584073489058
  0.4759869819295759  0.5956087970503614  0.4742306308505383
  0.4443785414193608  0.5384240822235494  0.4014289372552327
  0.3945034050460663  0.4614868999563113  0.4317026790266354
  0.5587930336270567  0.6178298249878486  0.4745517220921861
  0.5746680993127313  0.5866487842646423  0.4039536237016058
  0.5051404351121163  0.5382631710116028  0.3592766497675879
  0.6055206121961644  0.5385308111875973  0.4317306147995909
  0.5556471505865529  0.4615946152655336  0.4014669494713697
  0.4948946724875584  0.4617484383497320  0.3592827084523978
  0.4253644865573741  0.4133708867035961  0.4039531901322398
  0.4412210169155760  0.3821815394090221  0.4745612322972321
  0.5240280155821679  0.4044072020781162  0.4742629992477614
 
  0.00000000E+00  0.00000000E+00  0.00000000E+00
  0.00000000E+00  0.00000000E+00  0.00000000E+00
  0.00000000E+00  0.00000000E+00  0.00000000E+00
  0.00000000E+00  0.00000000E+00  0.00000000E+00
  0.00000000E+00  0.00000000E+00  0.00000000E+00
  0.00000000E+00  0.00000000E+00  0.00000000E+00
  0.00000000E+00  0.00000000E+00  0.00000000E+00
  0.00000000E+00  0.00000000E+00  0.00000000E+00
  0.00000000E+00  0.00000000E+00  0.00000000E+00
  0.00000000E+00  0.00000000E+00  0.00000000E+00
  0.00000000E+00  0.00000000E+00  0.00000000E+00
  0.00000000E+00  0.00000000E+00  0.00000000E+00
  0.00000000E+00  0.00000000E+00  0.00000000E+00
  0.00000000E+00  0.00000000E+00  0.00000000E+00
  0.00000000E+00  0.00000000E+00  0.00000000E+00
  0.00000000E+00  0.00000000E+00  0.00000000E+00
  0.00000000E+00  0.00000000E+00  0.00000000E+00
  0.00000000E+00  0.00000000E+00  0.00000000E+00
  0.00000000E+00  0.00000000E+00  0.00000000E+00
  0.00000000E+00  0.00000000E+00  0.00000000E+00
  0.00000000E+00  0.00000000E+00  0.00000000E+00
  0.00000000E+00  0.00000000E+00  0.00000000E+00
  0.00000000E+00  0.00000000E+00  0.00000000E+00
  0.00000000E+00  0.00000000E+00  0.00000000E+00
  0.00000000E+00  0.00000000E+00  0.00000000E+00
  0.00000000E+00  0.00000000E+00  0.00000000E+00
  0.00000000E+00  0.00000000E+00  0.00000000E+00
  0.00000000E+00  0.00000000E+00  0.00000000E+00
  0.00000000E+00  0.00000000E+00  0.00000000E+00
  0.00000000E+00  0.00000000E+00  0.00000000E+00
  0.00000000E+00  0.00000000E+00  0.00000000E+00
  0.00000000E+00  0.00000000E+00  0.00000000E+00
  0.00000000E+00  0.00000000E+00  0.00000000E+00
  0.00000000E+00  0.00000000E+00  0.00000000E+00
  0.00000000E+00  0.00000000E+00  0.00000000E+00
  0.00000000E+00  0.00000000E+00  0.00000000E+00
  0.00000000E+00  0.00000000E+00  0.00000000E+00
  0.00000000E+00  0.00000000E+00  0.00000000E+00
  0.00000000E+00  0.00000000E+00  0.00000000E+00
  0.00000000E+00  0.00000000E+00  0.00000000E+00
  0.00000000E+00  0.00000000E+00  0.00000000E+00
  0.00000000E+00  0.00000000E+00  0.00000000E+00
  0.00000000E+00  0.00000000E+00  0.00000000E+00
  0.00000000E+00  0.00000000E+00  0.00000000E+00
  0.00000000E+00  0.00000000E+00  0.00000000E+00
  0.00000000E+00  0.00000000E+00  0.00000000E+00
  0.00000000E+00  0.00000000E+00  0.00000000E+00
  0.00000000E+00  0.00000000E+00  0.00000000E+00
  0.00000000E+00  0.00000000E+00  0.00000000E+00
  0.00000000E+00  0.00000000E+00  0.00000000E+00
  0.00000000E+00  0.00000000E+00  0.00000000E+00
  0.00000000E+00  0.00000000E+00  0.00000000E+00
  0.00000000E+00  0.00000000E+00  0.00000000E+00
  0.00000000E+00  0.00000000E+00  0.00000000E+00
  0.00000000E+00  0.00000000E+00  0.00000000E+00
  0.00000000E+00  0.00000000E+00  0.00000000E+00
  0.00000000E+00  0.00000000E+00  0.00000000E+00
  0.00000000E+00  0.00000000E+00  0.00000000E+00
  0.00000000E+00  0.00000000E+00  0.00000000E+00
  0.00000000E+00  0.00000000E+00  0.00000000E+00
  0.00000000E+00  0.00000000E+00  0.00000000E+00
  0.00000000E+00  0.00000000E+00  0.00000000E+00
  0.00000000E+00  0.00000000E+00  0.00000000E+00
  0.00000000E+00  0.00000000E+00  0.00000000E+00
  0.00000000E+00  0.00000000E+00  0.00000000E+00
  0.00000000E+00  0.00000000E+00  0.00000000E+00
  0.00000000E+00  0.00000000E+00  0.00000000E+00
  0.00000000E+00  0.00000000E+00  0.00000000E+00
  0.00000000E+00  0.00000000E+00  0.00000000E+00
  0.00000000E+00  0.00000000E+00  0.00000000E+00
  0.00000000E+00  0.00000000E+00  0.00000000E+00
  0.00000000E+00  0.00000000E+00  0.00000000E+00
  0.00000000E+00  0.00000000E+00  0.00000000E+00
  0.00000000E+00  0.00000000E+00  0.00000000E+00
  0.00000000E+00  0.00000000E+00  0.00000000E+00
  0.00000000E+00  0.00000000E+00  0.00000000E+00
  0.00000000E+00  0.00000000E+00  0.00000000E+00
  0.00000000E+00  0.00000000E+00  0.00000000E+00
  0.00000000E+00  0.00000000E+00  0.00000000E+00
  0.00000000E+00  0.00000000E+00  0.00000000E+00
  0.00000000E+00  0.00000000E+00  0.00000000E+00
  0.00000000E+00  0.00000000E+00  0.00000000E+00
  0.00000000E+00  0.00000000E+00  0.00000000E+00
  0.00000000E+00  0.00000000E+00  0.00000000E+00
  0.00000000E+00  0.00000000E+00  0.00000000E+00
  0.00000000E+00  0.00000000E+00  0.00000000E+00
  0.00000000E+00  0.00000000E+00  0.00000000E+00
  0.00000000E+00  0.00000000E+00  0.00000000E+00
  0.00000000E+00  0.00000000E+00  0.00000000E+00
  0.00000000E+00  0.00000000E+00  0.00000000E+00
  0.00000000E+00  0.00000000E+00  0.00000000E+00
  0.00000000E+00  0.00000000E+00  0.00000000E+00
  0.00000000E+00  0.00000000E+00  0.00000000E+00
  0.00000000E+00  0.00000000E+00  0.00000000E+00
  0.00000000E+00  0.00000000E+00  0.00000000E+00
  0.00000000E+00  0.00000000E+00  0.00000000E+00
  0.00000000E+00  0.00000000E+00  0.00000000E+00
  0.00000000E+00  0.00000000E+00  0.00000000E+00
  0.00000000E+00  0.00000000E+00  0.00000000E+00
  0.00000000E+00  0.00000000E+00  0.00000000E+00
  0.00000000E+00  0.00000000E+00  0.00000000E+00
  0.00000000E+00  0.00000000E+00  0.00000000E+00
  0.00000000E+00  0.00000000E+00  0.00000000E+00
  0.00000000E+00  0.00000000E+00  0.00000000E+00
  0.00000000E+00  0.00000000E+00  0.00000000E+00
  0.00000000E+00  0.00000000E+00  0.00000000E+00
  0.00000000E+00  0.00000000E+00  0.00000000E+00
  0.00000000E+00  0.00000000E+00  0.00000000E+00
