Generated by VASPKIT code               
   1.00000000000000     
    10.3679035369100720   -0.0861163047822708    0.0000000000000000
    -5.2583676578313279    9.0898469802496589    0.0000000000000000
     0.0000000000000013    0.0000000000000022   19.7199011187539313
   C 
    64
Direct
  0.6177534399781948  0.8632631219215128  0.4941481320378216
  0.5752460069417467  0.7310032218098357  0.5355222348534667
  0.5696729736410902  0.7990335201419896  0.4256780297161953
  0.5459136759513115  0.5956978685934473  0.4992610254706804
  0.5033307215262184  0.6379774855764495  0.4303157829792923
  0.4792359717921073  0.8424534738359029  0.3944871120497879
  0.3527523958728764  0.7064282935346498  0.3715385433100593
  0.3633825551189389  0.5799895490658074  0.3975066709530140
  0.4259765549039187  0.9149192942684365  0.4483267043354715
  0.5184947625625611  0.9206310180730028  0.5151636866059803
  0.4293857409186543  0.8204108010260285  0.5738937041388041
  0.2624851789930531  0.7964700792403647  0.4533832622904654
  0.1894389094231528  0.7195783340456288  0.5138831571589080
  0.2738632167271575  0.7289551766544236  0.5736133622514430
  0.2214666714499245  0.6889239355929462  0.4018559619407682
  0.3684821554637097  0.5677363839940170  0.5952571427729865
  0.4828971561454694  0.7186023493813778  0.5871875414238659
  0.2364063894255963  0.5739629775668718  0.5903561257768501
  0.1310041701038500  0.4730445596813482  0.5436562135532199
  0.0700142405649373  0.5548617993750256  0.5004471878855625
  0.1277446520205601  0.5412799586804837  0.4313295491644524
  0.3868273418855139  0.4742841889667702  0.5383826007410306
  0.2239152069484334  0.4190281257830364  0.5011984269901362
  0.2252624925087900  0.4872353372102225  0.4344959118372245
  0.9917399824897757  0.1891567075117777  0.5305038741443937
  0.5084442792305168  0.3204756569759866  0.5869573297207467
  0.8675108127262092  0.1241593172529036  0.4776012206744937
  0.6748660941933053  0.4077212768843808  0.5885447180339725
  0.1449483462712067  0.2529199795178840  0.5008106316243470
  0.4709805624277834  0.1731704621273025  0.5736816052918954
  0.1099791124828897  0.1741157678426575  0.4342539199413622
  0.5984895980847682  0.1607472488160226  0.5752566371943360
  0.9577523568228798  0.1089683098882404  0.4179882014910277
  0.7253663322643717  0.2986819009287629  0.5864737704643730
  0.2240387714734382  0.1878478532025127  0.5441296634991204
  0.3964089803591619  0.1298026794985176  0.5024998744191578
  0.2328253470643418  0.0679787671484675  0.4970492549873313
  0.4913805539933307  0.0859198903354823  0.4606242287986078
  0.1652170608840322  0.0742526428907837  0.4292904736488907
  0.6072671995077386  0.0882736292395379  0.5141254219637474
  0.1026151790868184  0.0819521365670326  0.5950575289561115
  0.4461997825112789  0.2893685284197787  0.4826058747505400
  0.0466160564499845  0.9288418077144129  0.5810741052819708
  0.5550763165971233  0.3438432829998845  0.4335092748563838
  0.1140891035510379  0.9151261302626850  0.5213472040938143
  0.5868067105254084  0.2232814332835318  0.4199453484488700
  0.9729054814755500  0.0948412648722083  0.5838345447249011
  0.3905826402280113  0.3327257937296508  0.5459679655943859
  0.8451128260449821  0.9533963472677769  0.5678336961348620
  0.7144449305818128  0.5960384090973179  0.4948433637133149
  0.8847767333408001  0.8460231569243533  0.5666969814972020
  0.6963632053678310  0.4828403409558035  0.4409186544213028
  0.7787631957359693  0.9614675501815029  0.5013650007056043
  0.7676791926695614  0.5216343051958603  0.5453124643766003
  0.8219403556555847  0.8749413782203845  0.4561566095381480
  0.8929327337980411  0.4830853299473929  0.5084901403043389
  0.8460791132529195  0.7650337116808288  0.4952664560819215
  0.8038264978729899  0.4382395325143804  0.4437617922745787
  0.0097693882805530  0.8327162161322406  0.4704167812652145
  0.7389279354369762  0.2821940221878094  0.4303990059288409
  0.0432700573251736  0.9345532104494225  0.4132220332261340
  0.7734176182108783  0.1996132258099124  0.4845149742646271
  0.9153875767823649  0.9562367327248182  0.4044304342206146
  0.8375813980748390  0.3287112087801987  0.5383071210425925
 
  0.00000000E+00  0.00000000E+00  0.00000000E+00
  0.00000000E+00  0.00000000E+00  0.00000000E+00
  0.00000000E+00  0.00000000E+00  0.00000000E+00
  0.00000000E+00  0.00000000E+00  0.00000000E+00
  0.00000000E+00  0.00000000E+00  0.00000000E+00
  0.00000000E+00  0.00000000E+00  0.00000000E+00
  0.00000000E+00  0.00000000E+00  0.00000000E+00
  0.00000000E+00  0.00000000E+00  0.00000000E+00
  0.00000000E+00  0.00000000E+00  0.00000000E+00
  0.00000000E+00  0.00000000E+00  0.00000000E+00
  0.00000000E+00  0.00000000E+00  0.00000000E+00
  0.00000000E+00  0.00000000E+00  0.00000000E+00
  0.00000000E+00  0.00000000E+00  0.00000000E+00
  0.00000000E+00  0.00000000E+00  0.00000000E+00
  0.00000000E+00  0.00000000E+00  0.00000000E+00
  0.00000000E+00  0.00000000E+00  0.00000000E+00
  0.00000000E+00  0.00000000E+00  0.00000000E+00
  0.00000000E+00  0.00000000E+00  0.00000000E+00
  0.00000000E+00  0.00000000E+00  0.00000000E+00
  0.00000000E+00  0.00000000E+00  0.00000000E+00
  0.00000000E+00  0.00000000E+00  0.00000000E+00
  0.00000000E+00  0.00000000E+00  0.00000000E+00
  0.00000000E+00  0.00000000E+00  0.00000000E+00
  0.00000000E+00  0.00000000E+00  0.00000000E+00
  0.00000000E+00  0.00000000E+00  0.00000000E+00
  0.00000000E+00  0.00000000E+00  0.00000000E+00
  0.00000000E+00  0.00000000E+00  0.00000000E+00
  0.00000000E+00  0.00000000E+00  0.00000000E+00
  0.00000000E+00  0.00000000E+00  0.00000000E+00
  0.00000000E+00  0.00000000E+00  0.00000000E+00
  0.00000000E+00  0.00000000E+00  0.00000000E+00
  0.00000000E+00  0.00000000E+00  0.00000000E+00
  0.00000000E+00  0.00000000E+00  0.00000000E+00
  0.00000000E+00  0.00000000E+00  0.00000000E+00
  0.00000000E+00  0.00000000E+00  0.00000000E+00
  0.00000000E+00  0.00000000E+00  0.00000000E+00
  0.00000000E+00  0.00000000E+00  0.00000000E+00
  0.00000000E+00  0.00000000E+00  0.00000000E+00
  0.00000000E+00  0.00000000E+00  0.00000000E+00
  0.00000000E+00  0.00000000E+00  0.00000000E+00
  0.00000000E+00  0.00000000E+00  0.00000000E+00
  0.00000000E+00  0.00000000E+00  0.00000000E+00
  0.00000000E+00  0.00000000E+00  0.00000000E+00
  0.00000000E+00  0.00000000E+00  0.00000000E+00
  0.00000000E+00  0.00000000E+00  0.00000000E+00
  0.00000000E+00  0.00000000E+00  0.00000000E+00
  0.00000000E+00  0.00000000E+00  0.00000000E+00
  0.00000000E+00  0.00000000E+00  0.00000000E+00
  0.00000000E+00  0.00000000E+00  0.00000000E+00
  0.00000000E+00  0.00000000E+00  0.00000000E+00
  0.00000000E+00  0.00000000E+00  0.00000000E+00
  0.00000000E+00  0.00000000E+00  0.00000000E+00
  0.00000000E+00  0.00000000E+00  0.00000000E+00
  0.00000000E+00  0.00000000E+00  0.00000000E+00
  0.00000000E+00  0.00000000E+00  0.00000000E+00
  0.00000000E+00  0.00000000E+00  0.00000000E+00
  0.00000000E+00  0.00000000E+00  0.00000000E+00
  0.00000000E+00  0.00000000E+00  0.00000000E+00
  0.00000000E+00  0.00000000E+00  0.00000000E+00
  0.00000000E+00  0.00000000E+00  0.00000000E+00
  0.00000000E+00  0.00000000E+00  0.00000000E+00
  0.00000000E+00  0.00000000E+00  0.00000000E+00
  0.00000000E+00  0.00000000E+00  0.00000000E+00
  0.00000000E+00  0.00000000E+00  0.00000000E+00
