Generated by VASPKIT code               
   1.00000000000000     
     9.9331308030397878   -0.0010062490346898    0.0000000000000000
    -4.9673763507112936    8.6642477165352130    0.0000000000000000
     0.0000000000000012    0.0000000000000022   19.7140169383910582
   C 
    44
Direct
  0.5725608055512339  0.7894470451467299  0.5194498497193010
  0.5849149600943946  0.6621185477026756  0.4888711274665596
  0.5796006570158454  0.9006468588116476  0.4680911093656803
  0.4605110580063396  0.6340139989155773  0.4338357314598369
  0.4571965310784165  0.7738743306550333  0.4226597736126081
  0.4797209786849592  0.9593543780014002  0.5076075730499525
  0.3210959943627500  0.9006689153796685  0.4681042668372442
  0.3166650417938541  0.7738815683368543  0.4226622529970712
  0.4332842237274335  0.8664970566583747  0.5688286328474632
  0.5063289277337759  0.7738141929332301  0.5802241745588930
  0.4264815752066724  0.6050999876373169  0.5890834355980488
  0.2675076428754011  0.7737975841160534  0.5802313565972383
  0.1785674394900525  0.6050707740798060  0.5890835856723982
  0.2624911156577738  0.5250373369420558  0.5987743503655167
  0.2169053258146079  0.7894617889077651  0.5194573612105060
  0.3325205087914540  0.4073862919732392  0.5067231785758963
  0.4800598980108362  0.5327821503712045  0.5409309172884349
  0.1968842556940871  0.3938370386549437  0.5514997260209498
  0.0747898458236875  0.4073696584602828  0.5067192757740244
  0.0526622079672663  0.5327557057888441  0.5409336927660746
  0.0771870814831601  0.6621167737229996  0.4888911408414032
  0.3213946599723059  0.4983498057226754  0.4462766330208368
  0.1768821918041255  0.4983559096076746  0.4462774974213701
  0.1734453105233698  0.6339949663889186  0.4338402100911125
  0.9889400910973549  0.8390265227657636  0.5450138174710659
  0.0198452692235165  0.7811712281998098  0.4795595517813283
  0.8500783396646199  0.8390202913313090  0.5450035719438588
  0.7613349610348692  0.7811752260294256  0.4795469131995560
  0.8972206075319349  0.7944142214746464  0.4365875971518918
  0.8803950853344489  0.9907346459600603  0.5673990729482910
  0.8393860281181347  0.0652362532449615  0.5184575308726949
  0.7557700928144229  0.9572952325576907  0.4590710247588135
  0.0401940018995646  0.0804152612208071  0.5867376531717525
  0.1103542093529839  0.2207417174896165  0.5455169297670253
  0.9823456578717682  0.2193672422409279  0.4980030015216670
  0.1103552343015153  0.9907779382968727  0.5674080411080027
  0.2259260155049247  0.0653338478713010  0.5184793007543860
  0.2370423573798774  0.2194360831718285  0.4980116538168105
  0.2016407170737295  0.9573831870827121  0.4590902708637898
  0.1335929727847045  0.0223366145298698  0.4085709139685321
  0.1548102664581137  0.1634884016589595  0.4309947429398804
  0.0087026865537112  0.1634760501919530  0.4309806889933583
  0.8887909022157672  0.0222921347410079  0.4085617685652423
  0.9636082666201986  0.9271532350255285  0.3981969139847052
 
  0.00000000E+00  0.00000000E+00  0.00000000E+00
  0.00000000E+00  0.00000000E+00  0.00000000E+00
  0.00000000E+00  0.00000000E+00  0.00000000E+00
  0.00000000E+00  0.00000000E+00  0.00000000E+00
  0.00000000E+00  0.00000000E+00  0.00000000E+00
  0.00000000E+00  0.00000000E+00  0.00000000E+00
  0.00000000E+00  0.00000000E+00  0.00000000E+00
  0.00000000E+00  0.00000000E+00  0.00000000E+00
  0.00000000E+00  0.00000000E+00  0.00000000E+00
  0.00000000E+00  0.00000000E+00  0.00000000E+00
  0.00000000E+00  0.00000000E+00  0.00000000E+00
  0.00000000E+00  0.00000000E+00  0.00000000E+00
  0.00000000E+00  0.00000000E+00  0.00000000E+00
  0.00000000E+00  0.00000000E+00  0.00000000E+00
  0.00000000E+00  0.00000000E+00  0.00000000E+00
  0.00000000E+00  0.00000000E+00  0.00000000E+00
  0.00000000E+00  0.00000000E+00  0.00000000E+00
  0.00000000E+00  0.00000000E+00  0.00000000E+00
  0.00000000E+00  0.00000000E+00  0.00000000E+00
  0.00000000E+00  0.00000000E+00  0.00000000E+00
  0.00000000E+00  0.00000000E+00  0.00000000E+00
  0.00000000E+00  0.00000000E+00  0.00000000E+00
  0.00000000E+00  0.00000000E+00  0.00000000E+00
  0.00000000E+00  0.00000000E+00  0.00000000E+00
  0.00000000E+00  0.00000000E+00  0.00000000E+00
  0.00000000E+00  0.00000000E+00  0.00000000E+00
  0.00000000E+00  0.00000000E+00  0.00000000E+00
  0.00000000E+00  0.00000000E+00  0.00000000E+00
  0.00000000E+00  0.00000000E+00  0.00000000E+00
  0.00000000E+00  0.00000000E+00  0.00000000E+00
  0.00000000E+00  0.00000000E+00  0.00000000E+00
  0.00000000E+00  0.00000000E+00  0.00000000E+00
  0.00000000E+00  0.00000000E+00  0.00000000E+00
  0.00000000E+00  0.00000000E+00  0.00000000E+00
  0.00000000E+00  0.00000000E+00  0.00000000E+00
  0.00000000E+00  0.00000000E+00  0.00000000E+00
  0.00000000E+00  0.00000000E+00  0.00000000E+00
  0.00000000E+00  0.00000000E+00  0.00000000E+00
  0.00000000E+00  0.00000000E+00  0.00000000E+00
  0.00000000E+00  0.00000000E+00  0.00000000E+00
  0.00000000E+00  0.00000000E+00  0.00000000E+00
  0.00000000E+00  0.00000000E+00  0.00000000E+00
  0.00000000E+00  0.00000000E+00  0.00000000E+00
  0.00000000E+00  0.00000000E+00  0.00000000E+00
