C                                       
   1.00000000000000     
    13.8787985717067546   -0.4048865010451827    0.0000000000000000
    -7.3010504106688945   11.9113033963515473    0.0000000000000000
     0.0000000000000000    0.0000000000000000   16.0000000000000000
  C             
   108
Direct
  0.5812827021345524  0.2321615337433272  0.6661315309216967
  0.7033720825492783  0.2712875749137670  0.6627917984762075
  0.5861574817869962  0.3338779101515224  0.6577455555944663
  0.7853064302037521  0.3906382159651680  0.6518948007197923
  0.7101621507028923  0.4311607762462531  0.6414225426356192
  0.5168730235419859  0.3346053747893288  0.5910260487614875
  0.5830414236953650  0.4463239291058397  0.5433960774739666
  0.7081668798311823  0.4860723831877813  0.5693127986652217
  0.4982383392508697  0.2475513743910810  0.5381066733876924
  0.5260134652700900  0.1664814450919821  0.5778964264045026
  0.6350162383447989  0.1877294831703519  0.5439358530837890
  0.5392411655691992  0.2902005929824395  0.4541659241116215
  0.6206451782041770  0.2710410534346683  0.4136129550966276
  0.6465242303346084  0.1872623634991548  0.4512107806876761
  0.5885041659349706  0.4084684940865268  0.4563139068056244
  0.8258035042059105  0.2835392699559098  0.5495927962948084
  0.7211240852157562  0.2117170664038849  0.5975634268106281
  0.7885772071608407  0.2626566492863818  0.4546405552348044
  0.8183534027376751  0.3782926017376981  0.4206493937359146
  0.7170255081401302  0.3745286889774587  0.3876747190503327
  0.7052809774577600  0.4627603084759601  0.4236385096597294
  0.8651143065547260  0.4087155657195349  0.5787830039613089
  0.8595389485958168  0.4677701237849402  0.4964159054959040
  0.7767055939740600  0.5036873400580828  0.4951368439672338
  0.1004922103947981  0.0646427318682734  0.6208025024062162
  0.0054881257657697  0.0735110566936982  0.6269729810899763
  0.0787638502453134  0.9518295585312796  0.6038156488619633
  0.9069902274411847  0.9504902966450424  0.5844929102540619
  0.9699752142163937  0.8915595440441091  0.5674996276382909
  0.1595856550288926  0.9524167638958441  0.5406281629612898
  0.0841884463648722  0.8698312543433442  0.4684833138675193
  0.9650794589773293  0.8389680991690833  0.4890698852808997
  0.2035306307443767  0.0699365082830902  0.5015300362389660
  0.1815256655171355  0.1375655777797501  0.5534867838475136
  0.1317870009049884  0.1890010204482670  0.5150596465508015
  0.1767671963632507  0.0603037457644566  0.4154905742892276
  0.1295983464381262  0.1150147626041115  0.3754755083812683
  0.1059358290569271  0.1778263453114434  0.4285323455178178
  0.1221104370869855  0.9403143628042671  0.3856645431355710
  0.9462509943997445  0.1137175508982442  0.4986597552721724
  0.0338565293044005  0.1810568004712322  0.5656795440267832
  0.9840909552713438  0.1527024759628142  0.4100127673174073
  0.9254166534626964  0.0341853554455153  0.3634080878018204
  0.0166287493783597  0.0256117510965139  0.3374729946988895
  0.0076771054868652  0.9194893513259993  0.3534774013803079
  0.9058106266390441  0.0032501924438806  0.5050013502874279
  0.8596012423689998  0.9275530927947723  0.4312614554299670
  0.9262800074527126  0.8708720989309409  0.4190660270116275
  0.3803470898668057  0.7675934567952386  0.4730183612887221
  0.4672001532697748  0.8897023852150466  0.4966280087569476
  0.3702793823024296  0.7849890130219411  0.3794597705657284
  0.4609752639396629  0.8931354152933572  0.3519763201772588
  0.5226605194319066  0.9579107512915412  0.4289619624515802
  0.2645455789084731  0.7774193572689228  0.3627256028569564
  0.2817548880393669  0.8726606666828786  0.3204614878162754
  0.4084171695126100  0.9504558331440992  0.3162250742730640
  0.1865446432871473  0.7406330405300333  0.4383888269850542
  0.1728373618093249  0.8382254877483379  0.4521754371673353
  0.2255212582804757  0.9204161301577750  0.3737841837848990
  0.2668508314511944  0.7444807154961235  0.5130848904738047
  0.3011680408041933  0.8525693988870459  0.5636007645161381
  0.2451735088222930  0.9131054916616159  0.5293107332495340
  0.4194511036380795  0.9309434374914884  0.5529155650212232
  0.4570858106293524  0.0504469295934645  0.5279730849218879
  0.3467711002400758  0.0175780206847956  0.4915876893141861
  0.3393425119210735  0.0232191742168343  0.4071356808400668
  0.4420918469796166  0.0440517965276754  0.3695838599313712
  0.5342673009366095  0.0688280877577396  0.4368802207154945
  0.2468801740447219  0.5679102798600210  0.4638848705627693
  0.1873965730588903  0.6109995904232902  0.5137250242139486
  0.2261163814907423  0.5521394270792579  0.3791554180215712
  0.1275261748889715  0.5587973164697948  0.3669431774482945
  0.1053757140353567  0.6081826901250302  0.4440925500336346
  0.1967790464645986  0.4377862150194442  0.3567790144431526
  0.0779310907763907  0.3743371480007148  0.3348856012568993
  0.0382245981090105  0.4516748787718508  0.3407485538683966
  0.2059647817118979  0.3989887759437609  0.4411901278105679
  0.0954040972824044  0.3258549026056619  0.4653580996678148
  0.0047047718059607  0.2740592903104084  0.3972589487235089
  0.2658253825011488  0.4879958487530064  0.5111121511989168
  0.1574670377453401  0.4372627710788142  0.5719464312873835
  0.0558324975385792  0.3088060785149429  0.5537599733459562
  0.1194125149990984  0.5101404933260802  0.5732470547549704
  0.9940452968776091  0.4479389997417179  0.5534604598171536
  0.9517419188871775  0.3216953041992201  0.5333716271222900
  0.9210949042636933  0.3005934666011542  0.4370384767721902
  0.9431949003131180  0.4143022351839219  0.4012520271866167
  0.9855559747368222  0.5065410012547195  0.4716231486641942
  0.4366336947109319  0.7050488388823484  0.5093142486525349
  0.3969017428217897  0.5709997291489539  0.5353937881634160
  0.5411413264573218  0.7442779925508130  0.4548251035508470
  0.5647202677378337  0.6582815002436239  0.4455938511043545
  0.4898380074052363  0.5601186641729657  0.4915784514246706
  0.6395171375022111  0.8439257647048745  0.4851418480080875
  0.7436947044819470  0.8381512694402397  0.4783152122780233
  0.6875837346713530  0.7112973015193763  0.4641206527282856
  0.6153966958779333  0.8653640258671916  0.5683652194732418
  0.6860240052859040  0.8617676779156431  0.6276732958779826
  0.7784586570140128  0.8522104832413389  0.5864521739179903
  0.4954394698472224  0.7717866977190305  0.5876301663403927
  0.4931566649441239  0.7105293562896206  0.6559536672696287
  0.6129090919443441  0.7653633006149489  0.6827965036754514
  0.4488848986454774  0.5944653529853312  0.6246101079713169
  0.5380665065124929  0.5771994941061467  0.6331554599100414
  0.6399225916607394  0.6825352167166756  0.6666627066846477
  0.7330578406990286  0.7274494636680091  0.6079724460893672
  0.6864867106451614  0.6562239544638176  0.5364115543873523
  0.5674188984085499  0.5441736998694231  0.5517963831111463
 
  0.00000000E+00  0.00000000E+00  0.00000000E+00
  0.00000000E+00  0.00000000E+00  0.00000000E+00
  0.00000000E+00  0.00000000E+00  0.00000000E+00
  0.00000000E+00  0.00000000E+00  0.00000000E+00
  0.00000000E+00  0.00000000E+00  0.00000000E+00
  0.00000000E+00  0.00000000E+00  0.00000000E+00
  0.00000000E+00  0.00000000E+00  0.00000000E+00
  0.00000000E+00  0.00000000E+00  0.00000000E+00
  0.00000000E+00  0.00000000E+00  0.00000000E+00
  0.00000000E+00  0.00000000E+00  0.00000000E+00
  0.00000000E+00  0.00000000E+00  0.00000000E+00
  0.00000000E+00  0.00000000E+00  0.00000000E+00
  0.00000000E+00  0.00000000E+00  0.00000000E+00
  0.00000000E+00  0.00000000E+00  0.00000000E+00
  0.00000000E+00  0.00000000E+00  0.00000000E+00
  0.00000000E+00  0.00000000E+00  0.00000000E+00
  0.00000000E+00  0.00000000E+00  0.00000000E+00
  0.00000000E+00  0.00000000E+00  0.00000000E+00
  0.00000000E+00  0.00000000E+00  0.00000000E+00
  0.00000000E+00  0.00000000E+00  0.00000000E+00
  0.00000000E+00  0.00000000E+00  0.00000000E+00
  0.00000000E+00  0.00000000E+00  0.00000000E+00
  0.00000000E+00  0.00000000E+00  0.00000000E+00
  0.00000000E+00  0.00000000E+00  0.00000000E+00
  0.00000000E+00  0.00000000E+00  0.00000000E+00
  0.00000000E+00  0.00000000E+00  0.00000000E+00
  0.00000000E+00  0.00000000E+00  0.00000000E+00
  0.00000000E+00  0.00000000E+00  0.00000000E+00
  0.00000000E+00  0.00000000E+00  0.00000000E+00
  0.00000000E+00  0.00000000E+00  0.00000000E+00
  0.00000000E+00  0.00000000E+00  0.00000000E+00
  0.00000000E+00  0.00000000E+00  0.00000000E+00
  0.00000000E+00  0.00000000E+00  0.00000000E+00
  0.00000000E+00  0.00000000E+00  0.00000000E+00
  0.00000000E+00  0.00000000E+00  0.00000000E+00
  0.00000000E+00  0.00000000E+00  0.00000000E+00
  0.00000000E+00  0.00000000E+00  0.00000000E+00
  0.00000000E+00  0.00000000E+00  0.00000000E+00
  0.00000000E+00  0.00000000E+00  0.00000000E+00
  0.00000000E+00  0.00000000E+00  0.00000000E+00
  0.00000000E+00  0.00000000E+00  0.00000000E+00
  0.00000000E+00  0.00000000E+00  0.00000000E+00
  0.00000000E+00  0.00000000E+00  0.00000000E+00
  0.00000000E+00  0.00000000E+00  0.00000000E+00
  0.00000000E+00  0.00000000E+00  0.00000000E+00
  0.00000000E+00  0.00000000E+00  0.00000000E+00
  0.00000000E+00  0.00000000E+00  0.00000000E+00
  0.00000000E+00  0.00000000E+00  0.00000000E+00
  0.00000000E+00  0.00000000E+00  0.00000000E+00
  0.00000000E+00  0.00000000E+00  0.00000000E+00
  0.00000000E+00  0.00000000E+00  0.00000000E+00
  0.00000000E+00  0.00000000E+00  0.00000000E+00
  0.00000000E+00  0.00000000E+00  0.00000000E+00
  0.00000000E+00  0.00000000E+00  0.00000000E+00
  0.00000000E+00  0.00000000E+00  0.00000000E+00
  0.00000000E+00  0.00000000E+00  0.00000000E+00
  0.00000000E+00  0.00000000E+00  0.00000000E+00
  0.00000000E+00  0.00000000E+00  0.00000000E+00
  0.00000000E+00  0.00000000E+00  0.00000000E+00
  0.00000000E+00  0.00000000E+00  0.00000000E+00
  0.00000000E+00  0.00000000E+00  0.00000000E+00
  0.00000000E+00  0.00000000E+00  0.00000000E+00
  0.00000000E+00  0.00000000E+00  0.00000000E+00
  0.00000000E+00  0.00000000E+00  0.00000000E+00
  0.00000000E+00  0.00000000E+00  0.00000000E+00
  0.00000000E+00  0.00000000E+00  0.00000000E+00
  0.00000000E+00  0.00000000E+00  0.00000000E+00
  0.00000000E+00  0.00000000E+00  0.00000000E+00
  0.00000000E+00  0.00000000E+00  0.00000000E+00
  0.00000000E+00  0.00000000E+00  0.00000000E+00
  0.00000000E+00  0.00000000E+00  0.00000000E+00
  0.00000000E+00  0.00000000E+00  0.00000000E+00
  0.00000000E+00  0.00000000E+00  0.00000000E+00
  0.00000000E+00  0.00000000E+00  0.00000000E+00
  0.00000000E+00  0.00000000E+00  0.00000000E+00
  0.00000000E+00  0.00000000E+00  0.00000000E+00
  0.00000000E+00  0.00000000E+00  0.00000000E+00
  0.00000000E+00  0.00000000E+00  0.00000000E+00
  0.00000000E+00  0.00000000E+00  0.00000000E+00
  0.00000000E+00  0.00000000E+00  0.00000000E+00
  0.00000000E+00  0.00000000E+00  0.00000000E+00
  0.00000000E+00  0.00000000E+00  0.00000000E+00
  0.00000000E+00  0.00000000E+00  0.00000000E+00
  0.00000000E+00  0.00000000E+00  0.00000000E+00
  0.00000000E+00  0.00000000E+00  0.00000000E+00
  0.00000000E+00  0.00000000E+00  0.00000000E+00
  0.00000000E+00  0.00000000E+00  0.00000000E+00
  0.00000000E+00  0.00000000E+00  0.00000000E+00
  0.00000000E+00  0.00000000E+00  0.00000000E+00
  0.00000000E+00  0.00000000E+00  0.00000000E+00
  0.00000000E+00  0.00000000E+00  0.00000000E+00
  0.00000000E+00  0.00000000E+00  0.00000000E+00
  0.00000000E+00  0.00000000E+00  0.00000000E+00
  0.00000000E+00  0.00000000E+00  0.00000000E+00
  0.00000000E+00  0.00000000E+00  0.00000000E+00
  0.00000000E+00  0.00000000E+00  0.00000000E+00
  0.00000000E+00  0.00000000E+00  0.00000000E+00
  0.00000000E+00  0.00000000E+00  0.00000000E+00
  0.00000000E+00  0.00000000E+00  0.00000000E+00
  0.00000000E+00  0.00000000E+00  0.00000000E+00
  0.00000000E+00  0.00000000E+00  0.00000000E+00
  0.00000000E+00  0.00000000E+00  0.00000000E+00
  0.00000000E+00  0.00000000E+00  0.00000000E+00
  0.00000000E+00  0.00000000E+00  0.00000000E+00
  0.00000000E+00  0.00000000E+00  0.00000000E+00
  0.00000000E+00  0.00000000E+00  0.00000000E+00
  0.00000000E+00  0.00000000E+00  0.00000000E+00
  0.00000000E+00  0.00000000E+00  0.00000000E+00
