Generated by VASPKIT code               
   1.00000000000000     
    16.6813645611638037   -0.3896269330583365    0.0000000000000000
    -0.3957666627823446   17.5036939603562445    0.0000000000000000
     0.0000000000000011    0.0000000000000011   19.7186915736742101
   C 
   168
Direct
  0.4796614135286106  0.6312915360397824  0.5736759758098771
  0.1363157458635840  0.0113312569187940  0.4671284110632783
  0.5574325084591223  0.6333073565889151  0.5362512904090124
  0.1260210219696987  0.9454503938235632  0.4299474999440491
  0.4092454020927860  0.6120313281097154  0.5284876108950840
  0.1250894955692985  0.0828443020032452  0.4266291464754133
  0.5377268732847895  0.5741057372818759  0.4804653532662257
  0.0721506365569269  0.9683619419458935  0.3737938076724845
  0.4543985716514314  0.5626316753965170  0.4747009980220511
  0.0705661165850557  0.0481553428504853  0.3684527379753035
  0.3650692872902823  0.5485739258728302  0.5682097268550379
  0.0653660479862168  0.1301659048754047  0.4694146608429008
  0.3644508066485201  0.4822895253130781  0.5312859862481005
  0.9880918301729338  0.1310087260194663  0.4307332818729250
  0.4218219182251843  0.4862810106269464  0.4744163783393915
  0.9913780547930315  0.0781235877879993  0.3766612318336584
  0.4133171361083328  0.5293526927399625  0.6295580177559543
  0.0390996594392448  0.0752937423323843  0.5276667228866643
  0.4831024989033423  0.5819306848193406  0.6301560855725015
  0.0852714221520472  0.0092839146632357  0.5282999271339719
  0.5635925710109575  0.5572715641433845  0.6416244890574063
  0.0473687421545392  0.9348149905664940  0.5299980651298171
  0.4199009222478409  0.4503077890095994  0.6356698927945956
  0.9551437997931700  0.0669101143947159  0.5299774707100653
  0.5012164051686980  0.4248636613551824  0.6349154489935600
  0.9168079036506427  0.9931005367851498  0.5326336906609015
  0.5708807534832516  0.4777431445005718  0.6401110002900126
  0.9633503303155848  0.9275500076662198  0.5314760079359218
  0.3761263753816451  0.4128215263038797  0.5737156207652063
  0.9146451205365125  0.1158651620688360  0.4749226027090643
  0.6361693537897963  0.5193841080847221  0.5476542904194943
  0.0060363562839996  0.8674520767469431  0.4339776878716251
  0.6175732496778608  0.5925059887712081  0.5838052987133722
  0.0832929013480026  0.8836763848250229  0.4730419217687540
  0.6295195152835760  0.4543978226143892  0.5872592871678108
  0.9314272359076483  0.8710581990412791  0.4774256977921922
  0.5914051927194990  0.3878189642041505  0.5462773759987627
  0.8704687335211929  0.9165553086122955  0.4341426180809975
  0.5131910036572194  0.3715188558393336  0.5825376770759618
  0.8610212558180237  0.9888777201564736  0.4739566680116170
  0.4415509829235162  0.3676928322727946  0.5358108081260440
  0.8690032122629106  0.0535198065784215  0.4348489285930697
  0.5883316824375626  0.5111327739159677  0.4849528864680437
  0.9997975155075309  0.9191700927659738  0.3788584988418009
  0.5557033094383073  0.4347591919277463  0.4853232885218191
  0.9208165778756694  0.9491157821797742  0.3735278691127135
  0.4721259635999218  0.4232168196474504  0.4803004839202600
  0.9189477431832813  0.0289571606442465  0.3765576754843281
  0.4781909601847261  0.0952139393650526  0.5291856166049911
  0.9749957170844183  0.4272638163779234  0.5741000171610722
  0.2369522779372559  0.1631415106005676  0.5573892570945347
  0.7491533372258203  0.8479927801118947  0.5626331384810754
  0.8134392462174489  0.2335150170356641  0.6013007690083825
  0.1835646127979516  0.7448795118156397  0.5819213343879710
  0.5678656410462040  0.1087677691837996  0.5054052726156755
  0.9408034187051442  0.4999493699920308  0.5805822414075834
  0.1644451651329177  0.2041098430894621  0.5522413832056543
  0.8240781893438580  0.8120454394395509  0.5671905030244702
  0.7564781907481191  0.1710928207639526  0.5894218736433530
  0.2393702510946127  0.8127007279167131  0.5831164978750749
  0.4655640284595890  0.0217920711758453  0.5582294533749916
  0.0608618080972434  0.4394160661675386  0.5722001116812550
  0.2998665359286363  0.2170426860672094  0.5832696731108626
  0.6852157499633194  0.7944710960594676  0.5873702452442515
  0.7668074115287951  0.3000884004442597  0.6045314174873582
  0.2295220657298032  0.6777256249030046  0.5780221470437823
  0.5363908990395458  0.9779880939424004  0.5563435419595351
  0.0809489215173755  0.5199799574186699  0.5778927988019475
  0.2641229065367838  0.2899903432436801  0.5934020654839074
  0.7201009027104135  0.7252395836873262  0.6080135717557340
  0.6815758591227521  0.2781954788975369  0.5922641365266301
  0.3108418329907323  0.7060809385570579  0.5706793988225698
  0.5968347002634573  0.0261407732323278  0.5217765547936395
  0.0061767819125791  0.5577081857397204  0.5828452018196231
  0.1830586851382918  0.2812053380627688  0.5706537096662743
  0.8039451117863337  0.7354849352612902  0.5897717116967272
  0.6743513977276123  0.1997445731788829  0.5836347666877089
  0.3200090478480178  0.7867985911362183  0.5757115147650040
  0.4025474829977114  0.9739265376481256  0.5263208054254278
  0.0996811293422084  0.4015242857709467  0.5125950637011059
  0.3643889932142343  0.2203255501346462  0.5389546336723541
  0.6240255171813445  0.7854091951637940  0.5382418033110312
  0.7941667331316395  0.3495402729266743  0.5517304179421529
  0.2001171139173152  0.6245515177212155  0.5209228159882358
  0.4309207428888300  0.8920840195401709  0.5065326165059787
  0.1300996733383641  0.4791341138256513  0.4768883489628664
  0.3801000474893144  0.3024228331705388  0.5157186362348796
  0.6172248012851540  0.7005976471391406  0.5197487541002346
  0.7299160951167778  0.3574784996758922  0.5062126267289955
  0.2736918713120460  0.6381956356352205  0.4749875898172675
  0.5215817985715177  0.9052249828534826  0.5260483453126099
  0.1341926865511738  0.5525760919554941  0.5207767437153663
  0.3114579329113880  0.3503851042404875  0.5554727491411313
  0.6812083807170666  0.6590830291009411  0.5687970335251578
  0.6480997140534868  0.3239484647551407  0.5330114453641670
  0.3513655708167391  0.6723342069704046  0.5097252019787746
  0.3816520827243011  0.0152694831226015  0.4687856132021793
  0.0201177907097403  0.3806970604857938  0.4716720728652675
  0.3486828054095525  0.1595863806640523  0.4809488618817497
  0.6457775407968569  0.8407217193103946  0.4770333947680285
  0.8714790550388827  0.3203952403754400  0.5166027291881861
  0.1337916107457957  0.6763906017671815  0.4848315359329760
  0.4037407274776825  0.9758645984060266  0.4090731132427479
  0.0155040993420812  0.4319669674483180  0.4177140045406631
  0.3251398655232833  0.2156377150627975  0.4266666512658404
  0.6754685153077489  0.7814747073452182  0.4280865629071684
  0.8300527001558748  0.2976842737949994  0.4485491972513458
  0.1772508263415062  0.7108926185687139  0.4245636251015767
  0.4407915567162206  0.9046517829665461  0.4294392118050965
  0.0808815359615238  0.4906638356403121  0.4206691565267136
  0.3454876944679270  0.2926393599923003  0.4450729825030635
  0.6579348119067134  0.7050179622185340  0.4514350128214559
  0.7485661915150246  0.3266690865627808  0.4426342099289116
  0.2577253578208456  0.6836209421685311  0.4200244493297305
  0.4152031935806946  0.0999705144688647  0.4707941475050248
  0.9397512258190659  0.3830205749800868  0.5123992234762085
  0.2595660544770837  0.1300719921790972  0.4968132077084064
  0.7312663935790980  0.8745604555554181  0.4975163184324103
  0.8762953857153590  0.2401390464678741  0.5500906643775778
  0.1281867085222785  0.7479903888370103  0.5286571705681951
  0.4738236425003493  0.0938505189630874  0.4100207224334653
  0.9005723568016180  0.4510690491219265  0.4766333350299803
  0.1954707126529911  0.1445393673175701  0.4418815517710115
  0.8007610496527633  0.8558756247079842  0.4497375069364367
  0.8575488700774372  0.1753371616504893  0.4976865601186518
  0.1431204156769255  0.8234120605730766  0.4892160624428286
  0.4591110061168706  0.0226241339283249  0.3705797379097575
  0.9408014457855955  0.4718807127882059  0.4159783893284725
  0.2440830777592211  0.2053892656181873  0.4037521378538784
  0.7590665313546481  0.7906435597535832  0.4119065711897889
  0.8222610782827857  0.2200500790174402  0.4395909692022570
  0.1832610383924873  0.7904091971254985  0.4264834095270373
  0.5537145060687578  0.0982217178300147  0.4289043618656621
  0.8941497635503310  0.5148427895264902  0.5199506660731430
  0.1292199171925503  0.1939854550453433  0.4830136937252405
  0.8643584911664135  0.8123816771940113  0.4980938805813295
  0.7765174472232488  0.1395924872211296  0.5259815641782524
  0.2213893232133799  0.8553313094311221  0.5245505186831707
  0.5893480067063308  0.0272106209286918  0.4053830537003549
  0.9289796275741011  0.5821373911965821  0.4855356581963548
  0.1452298255544804  0.2754872924912135  0.4580519769725626
  0.8518711222947246  0.7289343942018505  0.4798015993278497
  0.7120816623317410  0.1482465710537966  0.4812894234283078
  0.2882036905757772  0.8588174179974146  0.4809183298168591
  0.5316657884415363  0.9813970451333986  0.3683897129863425
  0.9612561765343060  0.5533045934233201  0.4214754316764981
  0.2092428229487453  0.2785574411499212  0.4133284288921644
  0.7945141818384869  0.7191311770883289  0.4278102859943758
  0.7377436546325313  0.1970737753882332  0.4273622053993265
  0.2658738013338962  0.8169572605649691  0.4214318283149083
  0.5193102289250859  0.9092658247192205  0.4070880333726237
  0.0455835810603773  0.5641787464302723  0.4212362643599334
  0.2727426776031621  0.3328163165727318  0.4390732767686174
  0.7308624299818476  0.6657544239009638  0.4524168737904759
  0.6911919589307089  0.2635982222236564  0.4312314464006946
  0.3146937877155409  0.7504851330599109  0.4176049506118318
  0.5810016483836122  0.9011434004841803  0.4649420885735012
  0.0740070549031770  0.6086176745058509  0.4829276922019545
  0.2497953161750033  0.3649157933030622  0.4997636447969001
  0.7493604194234678  0.6425955313041527  0.5194893894742165
  0.6290137628586692  0.2567234758093520  0.4823619306447497
  0.3685698966221054  0.7491623056813026  0.4712627263770557
  0.6151627406749398  0.9859235233295465  0.4629887852698005
  0.9980989403447111  0.6044667639269150  0.5247093073321238
  0.1616964903525755  0.3373781348191187  0.5145226025617973
  0.8238406121325994  0.6825140780448962  0.5376356423090058
  0.6337079164233757  0.1748585113213110  0.5166164579041634
  0.3644966786840058  0.8249334420163805  0.5142941352551347
 
  0.00000000E+00  0.00000000E+00  0.00000000E+00
  0.00000000E+00  0.00000000E+00  0.00000000E+00
  0.00000000E+00  0.00000000E+00  0.00000000E+00
  0.00000000E+00  0.00000000E+00  0.00000000E+00
  0.00000000E+00  0.00000000E+00  0.00000000E+00
  0.00000000E+00  0.00000000E+00  0.00000000E+00
  0.00000000E+00  0.00000000E+00  0.00000000E+00
  0.00000000E+00  0.00000000E+00  0.00000000E+00
  0.00000000E+00  0.00000000E+00  0.00000000E+00
  0.00000000E+00  0.00000000E+00  0.00000000E+00
  0.00000000E+00  0.00000000E+00  0.00000000E+00
  0.00000000E+00  0.00000000E+00  0.00000000E+00
  0.00000000E+00  0.00000000E+00  0.00000000E+00
  0.00000000E+00  0.00000000E+00  0.00000000E+00
  0.00000000E+00  0.00000000E+00  0.00000000E+00
  0.00000000E+00  0.00000000E+00  0.00000000E+00
  0.00000000E+00  0.00000000E+00  0.00000000E+00
  0.00000000E+00  0.00000000E+00  0.00000000E+00
  0.00000000E+00  0.00000000E+00  0.00000000E+00
  0.00000000E+00  0.00000000E+00  0.00000000E+00
  0.00000000E+00  0.00000000E+00  0.00000000E+00
  0.00000000E+00  0.00000000E+00  0.00000000E+00
  0.00000000E+00  0.00000000E+00  0.00000000E+00
  0.00000000E+00  0.00000000E+00  0.00000000E+00
  0.00000000E+00  0.00000000E+00  0.00000000E+00
  0.00000000E+00  0.00000000E+00  0.00000000E+00
  0.00000000E+00  0.00000000E+00  0.00000000E+00
  0.00000000E+00  0.00000000E+00  0.00000000E+00
  0.00000000E+00  0.00000000E+00  0.00000000E+00
  0.00000000E+00  0.00000000E+00  0.00000000E+00
  0.00000000E+00  0.00000000E+00  0.00000000E+00
  0.00000000E+00  0.00000000E+00  0.00000000E+00
  0.00000000E+00  0.00000000E+00  0.00000000E+00
  0.00000000E+00  0.00000000E+00  0.00000000E+00
  0.00000000E+00  0.00000000E+00  0.00000000E+00
  0.00000000E+00  0.00000000E+00  0.00000000E+00
  0.00000000E+00  0.00000000E+00  0.00000000E+00
  0.00000000E+00  0.00000000E+00  0.00000000E+00
  0.00000000E+00  0.00000000E+00  0.00000000E+00
  0.00000000E+00  0.00000000E+00  0.00000000E+00
  0.00000000E+00  0.00000000E+00  0.00000000E+00
  0.00000000E+00  0.00000000E+00  0.00000000E+00
  0.00000000E+00  0.00000000E+00  0.00000000E+00
  0.00000000E+00  0.00000000E+00  0.00000000E+00
  0.00000000E+00  0.00000000E+00  0.00000000E+00
  0.00000000E+00  0.00000000E+00  0.00000000E+00
  0.00000000E+00  0.00000000E+00  0.00000000E+00
  0.00000000E+00  0.00000000E+00  0.00000000E+00
  0.00000000E+00  0.00000000E+00  0.00000000E+00
  0.00000000E+00  0.00000000E+00  0.00000000E+00
  0.00000000E+00  0.00000000E+00  0.00000000E+00
  0.00000000E+00  0.00000000E+00  0.00000000E+00
  0.00000000E+00  0.00000000E+00  0.00000000E+00
  0.00000000E+00  0.00000000E+00  0.00000000E+00
  0.00000000E+00  0.00000000E+00  0.00000000E+00
  0.00000000E+00  0.00000000E+00  0.00000000E+00
  0.00000000E+00  0.00000000E+00  0.00000000E+00
  0.00000000E+00  0.00000000E+00  0.00000000E+00
  0.00000000E+00  0.00000000E+00  0.00000000E+00
  0.00000000E+00  0.00000000E+00  0.00000000E+00
  0.00000000E+00  0.00000000E+00  0.00000000E+00
  0.00000000E+00  0.00000000E+00  0.00000000E+00
  0.00000000E+00  0.00000000E+00  0.00000000E+00
  0.00000000E+00  0.00000000E+00  0.00000000E+00
  0.00000000E+00  0.00000000E+00  0.00000000E+00
  0.00000000E+00  0.00000000E+00  0.00000000E+00
  0.00000000E+00  0.00000000E+00  0.00000000E+00
  0.00000000E+00  0.00000000E+00  0.00000000E+00
  0.00000000E+00  0.00000000E+00  0.00000000E+00
  0.00000000E+00  0.00000000E+00  0.00000000E+00
  0.00000000E+00  0.00000000E+00  0.00000000E+00
  0.00000000E+00  0.00000000E+00  0.00000000E+00
  0.00000000E+00  0.00000000E+00  0.00000000E+00
  0.00000000E+00  0.00000000E+00  0.00000000E+00
  0.00000000E+00  0.00000000E+00  0.00000000E+00
  0.00000000E+00  0.00000000E+00  0.00000000E+00
  0.00000000E+00  0.00000000E+00  0.00000000E+00
  0.00000000E+00  0.00000000E+00  0.00000000E+00
  0.00000000E+00  0.00000000E+00  0.00000000E+00
  0.00000000E+00  0.00000000E+00  0.00000000E+00
  0.00000000E+00  0.00000000E+00  0.00000000E+00
  0.00000000E+00  0.00000000E+00  0.00000000E+00
  0.00000000E+00  0.00000000E+00  0.00000000E+00
  0.00000000E+00  0.00000000E+00  0.00000000E+00
  0.00000000E+00  0.00000000E+00  0.00000000E+00
  0.00000000E+00  0.00000000E+00  0.00000000E+00
  0.00000000E+00  0.00000000E+00  0.00000000E+00
  0.00000000E+00  0.00000000E+00  0.00000000E+00
  0.00000000E+00  0.00000000E+00  0.00000000E+00
  0.00000000E+00  0.00000000E+00  0.00000000E+00
  0.00000000E+00  0.00000000E+00  0.00000000E+00
  0.00000000E+00  0.00000000E+00  0.00000000E+00
  0.00000000E+00  0.00000000E+00  0.00000000E+00
  0.00000000E+00  0.00000000E+00  0.00000000E+00
  0.00000000E+00  0.00000000E+00  0.00000000E+00
  0.00000000E+00  0.00000000E+00  0.00000000E+00
  0.00000000E+00  0.00000000E+00  0.00000000E+00
  0.00000000E+00  0.00000000E+00  0.00000000E+00
  0.00000000E+00  0.00000000E+00  0.00000000E+00
  0.00000000E+00  0.00000000E+00  0.00000000E+00
  0.00000000E+00  0.00000000E+00  0.00000000E+00
  0.00000000E+00  0.00000000E+00  0.00000000E+00
  0.00000000E+00  0.00000000E+00  0.00000000E+00
  0.00000000E+00  0.00000000E+00  0.00000000E+00
  0.00000000E+00  0.00000000E+00  0.00000000E+00
  0.00000000E+00  0.00000000E+00  0.00000000E+00
  0.00000000E+00  0.00000000E+00  0.00000000E+00
  0.00000000E+00  0.00000000E+00  0.00000000E+00
  0.00000000E+00  0.00000000E+00  0.00000000E+00
  0.00000000E+00  0.00000000E+00  0.00000000E+00
  0.00000000E+00  0.00000000E+00  0.00000000E+00
  0.00000000E+00  0.00000000E+00  0.00000000E+00
  0.00000000E+00  0.00000000E+00  0.00000000E+00
  0.00000000E+00  0.00000000E+00  0.00000000E+00
  0.00000000E+00  0.00000000E+00  0.00000000E+00
  0.00000000E+00  0.00000000E+00  0.00000000E+00
  0.00000000E+00  0.00000000E+00  0.00000000E+00
  0.00000000E+00  0.00000000E+00  0.00000000E+00
  0.00000000E+00  0.00000000E+00  0.00000000E+00
  0.00000000E+00  0.00000000E+00  0.00000000E+00
  0.00000000E+00  0.00000000E+00  0.00000000E+00
  0.00000000E+00  0.00000000E+00  0.00000000E+00
  0.00000000E+00  0.00000000E+00  0.00000000E+00
  0.00000000E+00  0.00000000E+00  0.00000000E+00
  0.00000000E+00  0.00000000E+00  0.00000000E+00
  0.00000000E+00  0.00000000E+00  0.00000000E+00
  0.00000000E+00  0.00000000E+00  0.00000000E+00
  0.00000000E+00  0.00000000E+00  0.00000000E+00
  0.00000000E+00  0.00000000E+00  0.00000000E+00
  0.00000000E+00  0.00000000E+00  0.00000000E+00
  0.00000000E+00  0.00000000E+00  0.00000000E+00
  0.00000000E+00  0.00000000E+00  0.00000000E+00
  0.00000000E+00  0.00000000E+00  0.00000000E+00
  0.00000000E+00  0.00000000E+00  0.00000000E+00
  0.00000000E+00  0.00000000E+00  0.00000000E+00
  0.00000000E+00  0.00000000E+00  0.00000000E+00
  0.00000000E+00  0.00000000E+00  0.00000000E+00
  0.00000000E+00  0.00000000E+00  0.00000000E+00
  0.00000000E+00  0.00000000E+00  0.00000000E+00
  0.00000000E+00  0.00000000E+00  0.00000000E+00
  0.00000000E+00  0.00000000E+00  0.00000000E+00
  0.00000000E+00  0.00000000E+00  0.00000000E+00
  0.00000000E+00  0.00000000E+00  0.00000000E+00
  0.00000000E+00  0.00000000E+00  0.00000000E+00
  0.00000000E+00  0.00000000E+00  0.00000000E+00
  0.00000000E+00  0.00000000E+00  0.00000000E+00
  0.00000000E+00  0.00000000E+00  0.00000000E+00
  0.00000000E+00  0.00000000E+00  0.00000000E+00
  0.00000000E+00  0.00000000E+00  0.00000000E+00
  0.00000000E+00  0.00000000E+00  0.00000000E+00
  0.00000000E+00  0.00000000E+00  0.00000000E+00
  0.00000000E+00  0.00000000E+00  0.00000000E+00
  0.00000000E+00  0.00000000E+00  0.00000000E+00
  0.00000000E+00  0.00000000E+00  0.00000000E+00
  0.00000000E+00  0.00000000E+00  0.00000000E+00
  0.00000000E+00  0.00000000E+00  0.00000000E+00
  0.00000000E+00  0.00000000E+00  0.00000000E+00
  0.00000000E+00  0.00000000E+00  0.00000000E+00
  0.00000000E+00  0.00000000E+00  0.00000000E+00
  0.00000000E+00  0.00000000E+00  0.00000000E+00
  0.00000000E+00  0.00000000E+00  0.00000000E+00
  0.00000000E+00  0.00000000E+00  0.00000000E+00
  0.00000000E+00  0.00000000E+00  0.00000000E+00
  0.00000000E+00  0.00000000E+00  0.00000000E+00
  0.00000000E+00  0.00000000E+00  0.00000000E+00
  0.00000000E+00  0.00000000E+00  0.00000000E+00
  0.00000000E+00  0.00000000E+00  0.00000000E+00
  0.00000000E+00  0.00000000E+00  0.00000000E+00
