C                                       
   1.00000000000000     
    13.7067737663336242    0.0821467535359356    0.0000000000000000
     0.0762727400496142   13.5345284134367461    0.0000000000000000
     0.0000000000000000    0.0000000000000000   16.0000000000000000
  C             
   128
Direct
  0.5332688610924884  0.9412514624973903  0.6417531315525757
  0.4374253316665603  0.9176738825350648  0.6131328051001461
  0.6080049909991830  0.8936714242736549  0.5804201921796386
  0.4405426793560102  0.8656201537928527  0.5305106052345836
  0.5369250350046286  0.8628424079589780  0.5080263385476255
  0.6440476987024902  0.9823417052132971  0.5372288009487415
  0.6446043279263208  0.9732793389571506  0.4504617043470976
  0.5856482699712552  0.8839843326888663  0.4214953685526998
  0.6005199868970402  0.0705607618323585  0.5621752400828238
  0.5326947581287719  0.0481690687138947  0.6245538728320558
  0.4341419540014568  0.0833217135190855  0.6030024968352667
  0.5972441347243340  0.1413183398033018  0.4867049270053390
  0.4930664598610793  0.1794702782886029  0.4638985511327079
  0.4196417147065576  0.1367555803276677  0.5263314590706266
  0.6182528173292868  0.0639159539574512  0.4161039430820313
  0.3186826505306510  0.9959872637399331  0.5252714419372203
  0.3708973816129968  0.9988076109140949  0.6073862930736340
  0.3528875198965613  0.0823338005254837  0.4804548381369428
  0.3852358033246303  0.0603665542393666  0.3993572390960175
  0.4667158228527515  0.1196602087824331  0.3819929970577326
  0.5399272394691530  0.0503013786040172  0.3622793176452730
  0.3595281314570459  0.9019453559394683  0.4727234213712996
  0.4093270533988865  0.9530971359447629  0.3967653964054880
  0.5061976341073058  0.9436255016514942  0.3713867367019260
  0.1145903806586333  0.5614182902639769  0.6188413006120779
  0.1196993412510842  0.4504630971929158  0.6130091016664513
  0.1894932614062450  0.6120181543776558  0.5815247896709719
  0.1921973149236408  0.4318564399473153  0.5549475703402956
  0.2501798849222108  0.5289264652511663  0.5370800828263926
  0.1493705379274120  0.6935288467166453  0.5196301780112765
  0.1801311758492943  0.6455363362351703  0.4399320733153528
  0.2306989009779609  0.5594728369662528  0.4469762532665486
  0.0348709740033248  0.6678938493506150  0.5181384218617815
  0.0201303933915446  0.5901073772637834  0.5827524950174398
  0.9803661824430284  0.4978170222685507  0.5611086134212931
  0.0092983000578264  0.6359758405855676  0.4225219479363361
  0.9549196307567528  0.5345935831134813  0.4057459029955171
  0.9138386706018300  0.4871724930197143  0.4917248036585340
  0.1035971117519044  0.6294764447051685  0.3795499768240505
  0.1085333401320192  0.2817243434665816  0.4825002629575246
  0.0187324631136966  0.4157181322520061  0.5967832912665230
  0.0572107888058465  0.2894937649585249  0.4051009153634760
  0.0761030315118670  0.3797963193076180  0.3666212169860615
  0.0331446520740906  0.4751505897534082  0.3519158083328782
  0.1163623341644657  0.5406291966806935  0.3391585553454349
  0.1773881316234898  0.3601780378216646  0.4883880667765884
  0.1727745508760585  0.4034474611264557  0.4038800081461657
  0.2033524049639545  0.4947830585280581  0.3792893084723264
  0.0919440833566181  0.8805191554322265  0.5603278590076347
  0.1292729945927480  0.9727600356003516  0.5557588508462460
  0.1571153723006518  0.8069411845984421  0.5042482412009529
  0.2431615844154251  0.8744501526710499  0.4592186674416752
  0.2160461340123691  0.9763989648129345  0.4994355285215572
  0.0935841431618061  0.8165736225312958  0.4278411730692402
  0.1188320727585628  0.8284792549955167  0.3442266092248460
  0.2042879837101167  0.8871919775644502  0.3659185764096002
  0.0052206581617082  0.8606895637867570  0.4456165399926567
  0.9436190820511314  0.8754666015115248  0.3684915618605736
  0.0371979615364053  0.8885769152937144  0.3097115057017394
  0.9784246731420428  0.8847817784034170  0.5370861316390436
  0.9634117585966376  0.9912339879813336  0.5059305617913435
  0.9664351908023407  0.9682706221784559  0.4163245261118669
  0.0553916697874442  0.0521059598720578  0.5319391956224091
  0.0889430415684528  0.0794206419156780  0.4447406908238350
  0.0110207000411052  0.0576134795738596  0.3783119044988599
  0.0725836298808437  0.9868834688876374  0.3161768594917955
  0.1734896434418284  0.9842913557308692  0.3478694577154937
  0.1757395661122790  0.0367655924897404  0.4266891014428661
  0.8879873022266285  0.2755234040504696  0.6248600724249898
  0.9038384227888828  0.1741174412334195  0.6282823121600858
  0.7858015633149573  0.2989580975060881  0.6044389791732399
  0.7339061725505752  0.2134212514559897  0.5925075569224340
  0.8069686266917113  0.1347186940923674  0.6063830572392483
  0.7726057695025828  0.3693541297266020  0.5336824587477774
  0.7208059766565829  0.3089332678721083  0.4609642226758944
  0.6889222243986179  0.2065900052242406  0.5021428036199223
  0.8811694325871665  0.3820092571193369  0.5011339500772566
  0.8867552379546153  0.3140991088187163  0.4286268380239496
  0.8016197143032245  0.2752888176063054  0.4031954023424519
  0.9584306006896375  0.3297970868800941  0.5694414160891178
  0.0135335864767598  0.2442185439076427  0.5240264087401281
  0.9674242942886160  0.2416625879487329  0.4305783767387208
  0.9848735378236294  0.1433821153382406  0.5638065395839933
  0.9159652811548917  0.0890722463897208  0.5035377968345813
  0.9273317993045649  0.1380573959906247  0.4114618782208298
  0.8178156419051174  0.1678292067300003  0.3983942977492181
  0.7616552427843815  0.1362564254624774  0.4639736957411537
  0.8162399678234803  0.0923743684569935  0.5288768865406267
  0.5776689656277646  0.6020731378278952  0.4395588088366467
  0.5119777412629968  0.5864701425704359  0.5151946455737135
  0.5329766554175279  0.5296490451928085  0.3798697269103283
  0.4311487298725779  0.5285145307407468  0.3979632983657772
  0.4199760489071206  0.5701071359888141  0.4811180077686688
  0.5667725218657894  0.4278101666202276  0.3922204583346185
  0.4834213443734210  0.3652613680058489  0.3963311057710718
  0.3987934773322345  0.4277381364098374  0.4028084230879270
  0.6402752333978184  0.3903747797514786  0.4584404494133823
  0.5694566951837299  0.3354923583766503  0.5130057658350904
  0.4859913488122325  0.2910832093880954  0.4689250878486903
  0.6908261698345162  0.4564113077826026  0.5316135797317177
  0.6078506276505594  0.4612993034872244  0.5968089370028512
  0.5569101409280776  0.3688496918055214  0.5930589392701171
  0.5260146072673126  0.5287544550698250  0.5896332203949365
  0.4317228133618176  0.4800266702052527  0.6063935030116790
  0.4519845147287657  0.3787752494887039  0.6018838128099013
  0.4068376023599928  0.3331263364906715  0.5277564239354701
  0.3630278226717876  0.4107690059694002  0.4852178086558315
  0.3586540067597037  0.5063265447218016  0.5373702518049965
  0.6253944396682419  0.7022101669610361  0.4631548289038673
  0.6528498587452769  0.7137272353234561  0.5550962520105096
  0.6839722899127829  0.6090023514250879  0.4423123549550139
  0.7311038872145106  0.5597205310195733  0.5183721653647785
  0.7117572351068620  0.6400785790774615  0.5847694513052469
  0.7580365979180309  0.6476405716607031  0.3817568192394496
  0.8541773058851547  0.6126628437767583  0.4130824298873623
  0.8394284317156359  0.5693981072023028  0.5026978513434089
  0.7553799406716967  0.7483553997798772  0.3650741627830376
  0.8611355600723354  0.7962326066911016  0.3899078402872773
  0.9158681173809839  0.7018125187004184  0.4241556560663322
  0.6660955976991416  0.7927863482990223  0.4169786875082077
  0.7303436990136012  0.8277524991185139  0.4870540657997325
  0.8257999905624740  0.8332789063738877  0.4741393756900149
  0.6941894927561899  0.8145361560914298  0.5748324808530472
  0.8008567443826913  0.7907447098111430  0.6130576644088543
  0.8895469704959057  0.8180005568879680  0.5502324791876239
  0.9333100406982758  0.7187732306232661  0.5210365764408137
  0.8792881851409080  0.6420344511456971  0.5671665704365701
  0.8007960110248808  0.6875802809690895  0.6133211950049622
 
  0.00000000E+00  0.00000000E+00  0.00000000E+00
  0.00000000E+00  0.00000000E+00  0.00000000E+00
  0.00000000E+00  0.00000000E+00  0.00000000E+00
  0.00000000E+00  0.00000000E+00  0.00000000E+00
  0.00000000E+00  0.00000000E+00  0.00000000E+00
  0.00000000E+00  0.00000000E+00  0.00000000E+00
  0.00000000E+00  0.00000000E+00  0.00000000E+00
  0.00000000E+00  0.00000000E+00  0.00000000E+00
  0.00000000E+00  0.00000000E+00  0.00000000E+00
  0.00000000E+00  0.00000000E+00  0.00000000E+00
  0.00000000E+00  0.00000000E+00  0.00000000E+00
  0.00000000E+00  0.00000000E+00  0.00000000E+00
  0.00000000E+00  0.00000000E+00  0.00000000E+00
  0.00000000E+00  0.00000000E+00  0.00000000E+00
  0.00000000E+00  0.00000000E+00  0.00000000E+00
  0.00000000E+00  0.00000000E+00  0.00000000E+00
  0.00000000E+00  0.00000000E+00  0.00000000E+00
  0.00000000E+00  0.00000000E+00  0.00000000E+00
  0.00000000E+00  0.00000000E+00  0.00000000E+00
  0.00000000E+00  0.00000000E+00  0.00000000E+00
  0.00000000E+00  0.00000000E+00  0.00000000E+00
  0.00000000E+00  0.00000000E+00  0.00000000E+00
  0.00000000E+00  0.00000000E+00  0.00000000E+00
  0.00000000E+00  0.00000000E+00  0.00000000E+00
  0.00000000E+00  0.00000000E+00  0.00000000E+00
  0.00000000E+00  0.00000000E+00  0.00000000E+00
  0.00000000E+00  0.00000000E+00  0.00000000E+00
  0.00000000E+00  0.00000000E+00  0.00000000E+00
  0.00000000E+00  0.00000000E+00  0.00000000E+00
  0.00000000E+00  0.00000000E+00  0.00000000E+00
  0.00000000E+00  0.00000000E+00  0.00000000E+00
  0.00000000E+00  0.00000000E+00  0.00000000E+00
  0.00000000E+00  0.00000000E+00  0.00000000E+00
  0.00000000E+00  0.00000000E+00  0.00000000E+00
  0.00000000E+00  0.00000000E+00  0.00000000E+00
  0.00000000E+00  0.00000000E+00  0.00000000E+00
  0.00000000E+00  0.00000000E+00  0.00000000E+00
  0.00000000E+00  0.00000000E+00  0.00000000E+00
  0.00000000E+00  0.00000000E+00  0.00000000E+00
  0.00000000E+00  0.00000000E+00  0.00000000E+00
  0.00000000E+00  0.00000000E+00  0.00000000E+00
  0.00000000E+00  0.00000000E+00  0.00000000E+00
  0.00000000E+00  0.00000000E+00  0.00000000E+00
  0.00000000E+00  0.00000000E+00  0.00000000E+00
  0.00000000E+00  0.00000000E+00  0.00000000E+00
  0.00000000E+00  0.00000000E+00  0.00000000E+00
  0.00000000E+00  0.00000000E+00  0.00000000E+00
  0.00000000E+00  0.00000000E+00  0.00000000E+00
  0.00000000E+00  0.00000000E+00  0.00000000E+00
  0.00000000E+00  0.00000000E+00  0.00000000E+00
  0.00000000E+00  0.00000000E+00  0.00000000E+00
  0.00000000E+00  0.00000000E+00  0.00000000E+00
  0.00000000E+00  0.00000000E+00  0.00000000E+00
  0.00000000E+00  0.00000000E+00  0.00000000E+00
  0.00000000E+00  0.00000000E+00  0.00000000E+00
  0.00000000E+00  0.00000000E+00  0.00000000E+00
  0.00000000E+00  0.00000000E+00  0.00000000E+00
  0.00000000E+00  0.00000000E+00  0.00000000E+00
  0.00000000E+00  0.00000000E+00  0.00000000E+00
  0.00000000E+00  0.00000000E+00  0.00000000E+00
  0.00000000E+00  0.00000000E+00  0.00000000E+00
  0.00000000E+00  0.00000000E+00  0.00000000E+00
  0.00000000E+00  0.00000000E+00  0.00000000E+00
  0.00000000E+00  0.00000000E+00  0.00000000E+00
  0.00000000E+00  0.00000000E+00  0.00000000E+00
  0.00000000E+00  0.00000000E+00  0.00000000E+00
  0.00000000E+00  0.00000000E+00  0.00000000E+00
  0.00000000E+00  0.00000000E+00  0.00000000E+00
  0.00000000E+00  0.00000000E+00  0.00000000E+00
  0.00000000E+00  0.00000000E+00  0.00000000E+00
  0.00000000E+00  0.00000000E+00  0.00000000E+00
  0.00000000E+00  0.00000000E+00  0.00000000E+00
  0.00000000E+00  0.00000000E+00  0.00000000E+00
  0.00000000E+00  0.00000000E+00  0.00000000E+00
  0.00000000E+00  0.00000000E+00  0.00000000E+00
  0.00000000E+00  0.00000000E+00  0.00000000E+00
  0.00000000E+00  0.00000000E+00  0.00000000E+00
  0.00000000E+00  0.00000000E+00  0.00000000E+00
  0.00000000E+00  0.00000000E+00  0.00000000E+00
  0.00000000E+00  0.00000000E+00  0.00000000E+00
  0.00000000E+00  0.00000000E+00  0.00000000E+00
  0.00000000E+00  0.00000000E+00  0.00000000E+00
  0.00000000E+00  0.00000000E+00  0.00000000E+00
  0.00000000E+00  0.00000000E+00  0.00000000E+00
  0.00000000E+00  0.00000000E+00  0.00000000E+00
  0.00000000E+00  0.00000000E+00  0.00000000E+00
  0.00000000E+00  0.00000000E+00  0.00000000E+00
  0.00000000E+00  0.00000000E+00  0.00000000E+00
  0.00000000E+00  0.00000000E+00  0.00000000E+00
  0.00000000E+00  0.00000000E+00  0.00000000E+00
  0.00000000E+00  0.00000000E+00  0.00000000E+00
  0.00000000E+00  0.00000000E+00  0.00000000E+00
  0.00000000E+00  0.00000000E+00  0.00000000E+00
  0.00000000E+00  0.00000000E+00  0.00000000E+00
  0.00000000E+00  0.00000000E+00  0.00000000E+00
  0.00000000E+00  0.00000000E+00  0.00000000E+00
  0.00000000E+00  0.00000000E+00  0.00000000E+00
  0.00000000E+00  0.00000000E+00  0.00000000E+00
  0.00000000E+00  0.00000000E+00  0.00000000E+00
  0.00000000E+00  0.00000000E+00  0.00000000E+00
  0.00000000E+00  0.00000000E+00  0.00000000E+00
  0.00000000E+00  0.00000000E+00  0.00000000E+00
  0.00000000E+00  0.00000000E+00  0.00000000E+00
  0.00000000E+00  0.00000000E+00  0.00000000E+00
  0.00000000E+00  0.00000000E+00  0.00000000E+00
  0.00000000E+00  0.00000000E+00  0.00000000E+00
  0.00000000E+00  0.00000000E+00  0.00000000E+00
  0.00000000E+00  0.00000000E+00  0.00000000E+00
  0.00000000E+00  0.00000000E+00  0.00000000E+00
  0.00000000E+00  0.00000000E+00  0.00000000E+00
  0.00000000E+00  0.00000000E+00  0.00000000E+00
  0.00000000E+00  0.00000000E+00  0.00000000E+00
  0.00000000E+00  0.00000000E+00  0.00000000E+00
  0.00000000E+00  0.00000000E+00  0.00000000E+00
  0.00000000E+00  0.00000000E+00  0.00000000E+00
  0.00000000E+00  0.00000000E+00  0.00000000E+00
  0.00000000E+00  0.00000000E+00  0.00000000E+00
  0.00000000E+00  0.00000000E+00  0.00000000E+00
  0.00000000E+00  0.00000000E+00  0.00000000E+00
  0.00000000E+00  0.00000000E+00  0.00000000E+00
  0.00000000E+00  0.00000000E+00  0.00000000E+00
  0.00000000E+00  0.00000000E+00  0.00000000E+00
  0.00000000E+00  0.00000000E+00  0.00000000E+00
  0.00000000E+00  0.00000000E+00  0.00000000E+00
  0.00000000E+00  0.00000000E+00  0.00000000E+00
  0.00000000E+00  0.00000000E+00  0.00000000E+00
  0.00000000E+00  0.00000000E+00  0.00000000E+00
  0.00000000E+00  0.00000000E+00  0.00000000E+00
