Generated by VASPKIT code               
   1.00000000000000     
    19.5966066454678796   -0.2798796708684401    0.0000000000000000
   -10.0453303470145912   17.5303865455273211    0.0000000000000000
     0.0000000000000012    0.0000000000000022   19.7172391295490321
   C 
   188
Direct
  0.3608259761326096  0.7469670942960462  0.3877992895082016
  0.5985489621724156  0.2316891177462566  0.5094845126350407
  0.3960855223145927  0.7049067530585020  0.3657803062786016
  0.5747097095472284  0.2708033147572593  0.4626929582372270
  0.2753360101866349  0.7030784918172301  0.3876781448202422
  0.6833594984324520  0.2665598477048690  0.5047369482544326
  0.3331753740758288  0.6252706612742145  0.3739508166539238
  0.6519064831688439  0.3449000260109969  0.4487985682648699
  0.2587502249886597  0.6251930850415306  0.3860512768518163
  0.7190778556415296  0.3418604595940664  0.4756414426220417
  0.2455703625615087  0.7149054296007478  0.4560456564466335
  0.7250195280279570  0.2687905150372885  0.5693448141593720
  0.2054476844745139  0.6351523410219073  0.4857803400651335
  0.7819146902878558  0.3546530263403724  0.5765872443000291
  0.2146736287388791  0.5840564969564781  0.4447251624571180
  0.7801133981547679  0.3972141269435525  0.5185442757510330
  0.3240726306043058  0.7489426667206587  0.4975855605682256
  0.6590404062950057  0.2573775492656836  0.6187034051863378
  0.3909302602613280  0.7778976104820927  0.4561935326543036
  0.5838094958226847  0.2259118288110429  0.5865631460196710
  0.4602178628647593  0.7687413071946878  0.4751855224519872
  0.5281491922628589  0.2447292822113170  0.6143266201741895
  0.3117472912127894  0.7062685746274653  0.5590760194173185
  0.6875258096942147  0.3243320142110520  0.6601898296740174
  0.3694462361113793  0.6860169961988163  0.5762242177122090
  0.6424349965512235  0.3613958239805513  0.6633731440422181
  0.4377856398459699  0.7119135657432452  0.5359290173422409
  0.5674245081009772  0.3269332080515923  0.6305464935474774
  0.2349773954054228  0.6335261412149507  0.5511918959486906
  0.7692365760295345  0.3840849534527209  0.6362003225752417
  0.4347533436868005  0.6416583347629796  0.4418078418592728
  0.5597200411734349  0.3643534797844126  0.5050666100396057
  0.4630556321817707  0.7184952996175085  0.4118063596647374
  0.5136566430660423  0.2916352059849316  0.4734412956458556
  0.4336769387625452  0.6422263546889937  0.5128395532817152
  0.5758125431369265  0.3831031996500514  0.5771300996966175
  0.3644353441603272  0.5739586035309188  0.5380142305509139
  0.6538398852070131  0.4508957070363238  0.5834909639514763
  0.3245801214685073  0.5987124425182273  0.5789979513207868
  0.6942986819079735  0.4410699429237610  0.6381528176910720
  0.2438575846165350  0.5687115620627239  0.5587471545828890
  0.7686084785664562  0.4527936544598106  0.6195908707065882
  0.3583785233097672  0.5857876654571683  0.4181544771582750
  0.6408822211873755  0.4002569766365838  0.4776342495390011
  0.3123293262257505  0.5322109332607923  0.4770339719631025
  0.7007647789916192  0.4646834589233322  0.5177596968471221
  0.2292787076101561  0.5296279530645762  0.4867299467447381
  0.7828576202563795  0.4705147475853835  0.5432026105212557
  0.9111375355224709  0.9416295980826632  0.5055589553213764
  0.8892188716493479  0.1026179211723814  0.4653824554024766
  0.8951256527286731  0.7509781110569094  0.4959005183351763
  0.2224824606594424  0.1553880893135826  0.5810146346255962
  0.1282691960736244  0.9003852283713201  0.5760409933786619
  0.0500520069190529  0.2387492953097450  0.4865822065068812
  0.7943472344173017  0.8580742951225915  0.4259662554995529
  0.9366596220260064  0.0201466391308287  0.5074353179365829
  0.9581112718321592  0.1923528959163647  0.5014796246081517
  0.8164482418104413  0.7244230919284718  0.5107559553722538
  0.2374682099444811  0.1004705660571261  0.6167945573029030
  0.0708565811902488  0.8181649509708890  0.5802427087824853
  0.1263231324407954  0.2637275284174692  0.5312185701188525
  0.7773457280635938  0.9023381168722509  0.4780571977649331
  0.9702842904234146  0.9307543790593655  0.5372842569445169
  0.8386762146106861  0.1255632147360259  0.4241643931228012
  0.9176534102151450  0.7820393867671385  0.4235537918821848
  0.2147927536924712  0.1398994004653744  0.5046961051931760
  0.1382165568157632  0.9234437444155503  0.5005709163211876
  0.0694725563502629  0.2091057212220875  0.4188934745033350
  0.7521353823228338  0.8693068932700925  0.3628470586171488
  0.0344249343948562  0.0070466281365356  0.5607940024064888
  0.8686109250428586  0.2071350599003807  0.4215414933691051
  0.8346827978726594  0.7405142145043726  0.3936991491493558
  0.2428982893735849  0.0829461792913406  0.5003800084117458
  0.0967524830114570  0.8471963755541552  0.4655486956253441
  0.1557778768098572  0.2303982437735357  0.4294499433698817
  0.7321163365274970  0.9260018642939940  0.3800320097443972
  0.0112976658906234  0.0625127566578882  0.5395296900711486
  0.9288942882494311  0.2427991026941498  0.4700942397420178
  0.7699536857501528  0.7220001615370535  0.4470984718476956
  0.2510315952547089  0.0606831884598904  0.5657498444155280
  0.0550462186696521  0.7914798668392535  0.5126410907097210
  0.1825565581604280  0.2535307117716457  0.4959381292938900
  0.7514478634763364  0.9472949890616746  0.4481201999037694
  0.9992593785582926  0.9010522601981492  0.4905730857656678
  0.7583170159853339  0.0886496142846767  0.4436913870936081
  0.9481066410444328  0.7217717047206307  0.4060708952790719
  0.2902811769142417  0.2112807293351651  0.4796071772297594
  0.2245370350217755  0.9437852546256451  0.4899438584923601
  0.0882246425420590  0.2749682507796294  0.3657387088138080
  0.6768100326902413  0.8027789503106746  0.3519592476697468
  0.0895190980925165  0.9581988892388154  0.4810491636230765
  0.7371878698060002  0.1466951187279051  0.4548906139528555
  0.8885070789625331  0.6650659991569228  0.3670772199365757
  0.3460292083188179  0.1959983128949432  0.4524422388553688
  0.2268861625944183  0.8887091479098501  0.4483286381457603
  0.1699335487900981  0.3111040280177448  0.3439397071967534
  0.6110672023242714  0.8189733080210715  0.3548459170815974
  0.0979655343563763  0.0236285946584260  0.5220124579315950
  0.8048262069703398  0.2208353964892069  0.4406111966420241
  0.8213067344805651  0.6772829621020975  0.3571824387209261
  0.3154555498322154  0.1138406651297998  0.4661053007496250
  0.1476199171018848  0.8277390669471316  0.4299955878439974
  0.2103407630465171  0.2805750710099204  0.3822424254927270
  0.6462517627606985  0.8959425622187567  0.3771169854164853
  0.9522960963449805  0.8731461919422543  0.4253493154218830
  0.7376601484181435  0.0369547516017690  0.5063569246327262
  0.9625923776303935  0.6770354573768529  0.4691218027553035
  0.3175302472311046  0.2773543108645171  0.5294050297897073
  0.2707933481047604  0.9538847902084058  0.5579340345203860
  0.0836969703624035  0.3358999678413426  0.3974555560545809
  0.6637871238136768  0.7473704955249758  0.4022788637143293
  0.0106198717857353  0.9409846848601617  0.3808588996973086
  0.7208866824263467  0.0847122952935635  0.5573381452159865
  0.8949559424604203  0.5902030098917237  0.4569631823657332
  0.4025262956026197  0.2859441413105870  0.5397523601467498
  0.2836299711766657  0.8814833216976368  0.5468677322981108
  0.1595924587042390  0.4105496087822544  0.3929878614453060
  0.5966548157243992  0.7326546744642712  0.4397646842890524
  0.0857965639748954  0.9845345520181823  0.4100931520096793
  0.7142512531219438  0.1425538169191327  0.5244593939649747
  0.8553398999610167  0.5883953028311950  0.3969650578406458
  0.4279268030242278  0.2442023841533469  0.4874456552141666
  0.2647464541120002  0.8519016809496947  0.4803340709730861
  0.2122947356258393  0.3925683251373684  0.3614261135838106
  0.5526828102428993  0.7686315548765776  0.4082865534784190
  0.8854707659122525  0.9037843428616981  0.4353102324373168
  0.8273483829951331  0.0656013423994750  0.5240771905251549
  0.9149144311261992  0.6946700246054149  0.5187787815233520
  0.2796187292942349  0.2294124227435717  0.5960661286162505
  0.1975192067145883  0.9102606161724083  0.6042787552872184
  0.0692906538003655  0.3198352579567185  0.4678601771083422
  0.7351988142387640  0.7725365138535096  0.4491833464562589
  0.9189778013882304  0.9834542437614431  0.3979383619794561
  0.8508487470653989  0.1124134027963777  0.5814378969765528
  0.8486649576744654  0.6315967081513705  0.5483466194684254
  0.3365653536336950  0.2233371262017840  0.6402925651768570
  0.1827408843928851  0.8358157017268724  0.6303416124995564
  0.1298550547322890  0.3783224357551092  0.5077913457426035
  0.6999689824302422  0.7823141241108118  0.5174206700002131
  0.9870157685365442  0.9981172423037350  0.3652932908050062
  0.7864488585066596  0.1243386286595936  0.6043957325349112
  0.8296174779826089  0.5563658924078041  0.5129335283934751
  0.4068326596356329  0.2552924602513258  0.6018721773396649
  0.2322589340351442  0.8188078761636959  0.5904529950098336
  0.1875422094606591  0.4437586682304726  0.4648024672280116
  0.6180415123997705  0.7555936972847093  0.5084266302379490
  0.9333189102570714  0.0586698220533250  0.4424413773727380
  0.9217824438932212  0.1848331787463380  0.5723218315159926
  0.7854265788595711  0.6495876497734017  0.5419202008216075
  0.3130968772733667  0.1437935378950428  0.6514036128666163
  0.1024658845705915  0.7775834757103013  0.6138253072156772
  0.1706471817025346  0.3466467921817937  0.5425026246563576
  0.7319643991871416  0.8607723740517699  0.5338728457947894
  0.0258884550205423  0.1200806490830146  0.4265774653351713
  0.8962805061720474  0.2394951535003642  0.5831255312114010
  0.7296549024687664  0.5990509932494348  0.4954323149312856
  0.3694378289749949  0.1215385303837095  0.6317644691916655
  0.1026828090027223  0.7234961493242480  0.5622822043751654
  0.2537942151796955  0.3832272117576778  0.5261085635855665
  0.6708438758469839  0.8832729771774481  0.5389753832696300
  0.0507900494633446  0.0747105926415870  0.3820322685141662
  0.8154551987568013  0.2038441849724180  0.6075294607064947
  0.7485608525760128  0.5381972200465341  0.4781579327718575
  0.4413796514403998  0.2005535856233962  0.5997716051314299
  0.1820051133298364  0.7480057082411662  0.5506572492325077
  0.2701132357312588  0.4445337215276837  0.4716091096120252
  0.6011777835554994  0.8169493792895892  0.5226186815429372
  0.1097013280140118  0.0647226385376456  0.4106919274898786
  0.7650764052657877  0.2221305742170614  0.5589283431432008
  0.7703476397413169  0.5549721330808879  0.4044560081290669
  0.4238543239512893  0.1775818910717319  0.5278473228534679
  0.2073398266854412  0.7613207580007000  0.4763041041038107
  0.2763829574373418  0.4069676543037062  0.4088798903415025
  0.5541012351335795  0.8251811908395439  0.4663272338166067
  0.1302829211721459  0.0975014326268351  0.4816736266960575
  0.8277875997481985  0.2630536777653560  0.5021124817263782
  0.7504554792153399  0.6103645032077338  0.3832896628704532
  0.3680911011876162  0.1041160573594553  0.5111680387327624
  0.1303953956616866  0.7532475126132923  0.4455469419864642
  0.2775434087162125  0.3403776482498202  0.4219608741455900
  0.6157781396196924  0.9070648923610491  0.4401872119585093
  0.0642033897665613  0.1147529185839531  0.4935752869764372
  0.9045818444312559  0.2800931978515635  0.5209051024870988
  0.7174285358501962  0.6339625124393109  0.4375617212499705
  0.3237427055187965  0.0527214635176634  0.5722652558285048
  0.0562401279538705  0.7189313119516072  0.4950959395819083
  0.2709828682791553  0.3201399543018368  0.4991281434059260
  0.6888143437135668  0.9506170147183681  0.4902145095237955
 
  0.00000000E+00  0.00000000E+00  0.00000000E+00
  0.00000000E+00  0.00000000E+00  0.00000000E+00
  0.00000000E+00  0.00000000E+00  0.00000000E+00
  0.00000000E+00  0.00000000E+00  0.00000000E+00
  0.00000000E+00  0.00000000E+00  0.00000000E+00
  0.00000000E+00  0.00000000E+00  0.00000000E+00
  0.00000000E+00  0.00000000E+00  0.00000000E+00
  0.00000000E+00  0.00000000E+00  0.00000000E+00
  0.00000000E+00  0.00000000E+00  0.00000000E+00
  0.00000000E+00  0.00000000E+00  0.00000000E+00
  0.00000000E+00  0.00000000E+00  0.00000000E+00
  0.00000000E+00  0.00000000E+00  0.00000000E+00
  0.00000000E+00  0.00000000E+00  0.00000000E+00
  0.00000000E+00  0.00000000E+00  0.00000000E+00
  0.00000000E+00  0.00000000E+00  0.00000000E+00
  0.00000000E+00  0.00000000E+00  0.00000000E+00
  0.00000000E+00  0.00000000E+00  0.00000000E+00
  0.00000000E+00  0.00000000E+00  0.00000000E+00
  0.00000000E+00  0.00000000E+00  0.00000000E+00
  0.00000000E+00  0.00000000E+00  0.00000000E+00
  0.00000000E+00  0.00000000E+00  0.00000000E+00
  0.00000000E+00  0.00000000E+00  0.00000000E+00
  0.00000000E+00  0.00000000E+00  0.00000000E+00
  0.00000000E+00  0.00000000E+00  0.00000000E+00
  0.00000000E+00  0.00000000E+00  0.00000000E+00
  0.00000000E+00  0.00000000E+00  0.00000000E+00
  0.00000000E+00  0.00000000E+00  0.00000000E+00
  0.00000000E+00  0.00000000E+00  0.00000000E+00
  0.00000000E+00  0.00000000E+00  0.00000000E+00
  0.00000000E+00  0.00000000E+00  0.00000000E+00
  0.00000000E+00  0.00000000E+00  0.00000000E+00
  0.00000000E+00  0.00000000E+00  0.00000000E+00
  0.00000000E+00  0.00000000E+00  0.00000000E+00
  0.00000000E+00  0.00000000E+00  0.00000000E+00
  0.00000000E+00  0.00000000E+00  0.00000000E+00
  0.00000000E+00  0.00000000E+00  0.00000000E+00
  0.00000000E+00  0.00000000E+00  0.00000000E+00
  0.00000000E+00  0.00000000E+00  0.00000000E+00
  0.00000000E+00  0.00000000E+00  0.00000000E+00
  0.00000000E+00  0.00000000E+00  0.00000000E+00
  0.00000000E+00  0.00000000E+00  0.00000000E+00
  0.00000000E+00  0.00000000E+00  0.00000000E+00
  0.00000000E+00  0.00000000E+00  0.00000000E+00
  0.00000000E+00  0.00000000E+00  0.00000000E+00
  0.00000000E+00  0.00000000E+00  0.00000000E+00
  0.00000000E+00  0.00000000E+00  0.00000000E+00
  0.00000000E+00  0.00000000E+00  0.00000000E+00
  0.00000000E+00  0.00000000E+00  0.00000000E+00
  0.00000000E+00  0.00000000E+00  0.00000000E+00
  0.00000000E+00  0.00000000E+00  0.00000000E+00
  0.00000000E+00  0.00000000E+00  0.00000000E+00
  0.00000000E+00  0.00000000E+00  0.00000000E+00
  0.00000000E+00  0.00000000E+00  0.00000000E+00
  0.00000000E+00  0.00000000E+00  0.00000000E+00
  0.00000000E+00  0.00000000E+00  0.00000000E+00
  0.00000000E+00  0.00000000E+00  0.00000000E+00
  0.00000000E+00  0.00000000E+00  0.00000000E+00
  0.00000000E+00  0.00000000E+00  0.00000000E+00
  0.00000000E+00  0.00000000E+00  0.00000000E+00
  0.00000000E+00  0.00000000E+00  0.00000000E+00
  0.00000000E+00  0.00000000E+00  0.00000000E+00
  0.00000000E+00  0.00000000E+00  0.00000000E+00
  0.00000000E+00  0.00000000E+00  0.00000000E+00
  0.00000000E+00  0.00000000E+00  0.00000000E+00
  0.00000000E+00  0.00000000E+00  0.00000000E+00
  0.00000000E+00  0.00000000E+00  0.00000000E+00
  0.00000000E+00  0.00000000E+00  0.00000000E+00
  0.00000000E+00  0.00000000E+00  0.00000000E+00
  0.00000000E+00  0.00000000E+00  0.00000000E+00
  0.00000000E+00  0.00000000E+00  0.00000000E+00
  0.00000000E+00  0.00000000E+00  0.00000000E+00
  0.00000000E+00  0.00000000E+00  0.00000000E+00
  0.00000000E+00  0.00000000E+00  0.00000000E+00
  0.00000000E+00  0.00000000E+00  0.00000000E+00
  0.00000000E+00  0.00000000E+00  0.00000000E+00
  0.00000000E+00  0.00000000E+00  0.00000000E+00
  0.00000000E+00  0.00000000E+00  0.00000000E+00
  0.00000000E+00  0.00000000E+00  0.00000000E+00
  0.00000000E+00  0.00000000E+00  0.00000000E+00
  0.00000000E+00  0.00000000E+00  0.00000000E+00
  0.00000000E+00  0.00000000E+00  0.00000000E+00
  0.00000000E+00  0.00000000E+00  0.00000000E+00
  0.00000000E+00  0.00000000E+00  0.00000000E+00
  0.00000000E+00  0.00000000E+00  0.00000000E+00
  0.00000000E+00  0.00000000E+00  0.00000000E+00
  0.00000000E+00  0.00000000E+00  0.00000000E+00
  0.00000000E+00  0.00000000E+00  0.00000000E+00
  0.00000000E+00  0.00000000E+00  0.00000000E+00
  0.00000000E+00  0.00000000E+00  0.00000000E+00
  0.00000000E+00  0.00000000E+00  0.00000000E+00
  0.00000000E+00  0.00000000E+00  0.00000000E+00
  0.00000000E+00  0.00000000E+00  0.00000000E+00
  0.00000000E+00  0.00000000E+00  0.00000000E+00
  0.00000000E+00  0.00000000E+00  0.00000000E+00
  0.00000000E+00  0.00000000E+00  0.00000000E+00
  0.00000000E+00  0.00000000E+00  0.00000000E+00
  0.00000000E+00  0.00000000E+00  0.00000000E+00
  0.00000000E+00  0.00000000E+00  0.00000000E+00
  0.00000000E+00  0.00000000E+00  0.00000000E+00
  0.00000000E+00  0.00000000E+00  0.00000000E+00
  0.00000000E+00  0.00000000E+00  0.00000000E+00
  0.00000000E+00  0.00000000E+00  0.00000000E+00
  0.00000000E+00  0.00000000E+00  0.00000000E+00
  0.00000000E+00  0.00000000E+00  0.00000000E+00
  0.00000000E+00  0.00000000E+00  0.00000000E+00
  0.00000000E+00  0.00000000E+00  0.00000000E+00
  0.00000000E+00  0.00000000E+00  0.00000000E+00
  0.00000000E+00  0.00000000E+00  0.00000000E+00
  0.00000000E+00  0.00000000E+00  0.00000000E+00
  0.00000000E+00  0.00000000E+00  0.00000000E+00
  0.00000000E+00  0.00000000E+00  0.00000000E+00
  0.00000000E+00  0.00000000E+00  0.00000000E+00
  0.00000000E+00  0.00000000E+00  0.00000000E+00
  0.00000000E+00  0.00000000E+00  0.00000000E+00
  0.00000000E+00  0.00000000E+00  0.00000000E+00
  0.00000000E+00  0.00000000E+00  0.00000000E+00
  0.00000000E+00  0.00000000E+00  0.00000000E+00
  0.00000000E+00  0.00000000E+00  0.00000000E+00
  0.00000000E+00  0.00000000E+00  0.00000000E+00
  0.00000000E+00  0.00000000E+00  0.00000000E+00
  0.00000000E+00  0.00000000E+00  0.00000000E+00
  0.00000000E+00  0.00000000E+00  0.00000000E+00
  0.00000000E+00  0.00000000E+00  0.00000000E+00
  0.00000000E+00  0.00000000E+00  0.00000000E+00
  0.00000000E+00  0.00000000E+00  0.00000000E+00
  0.00000000E+00  0.00000000E+00  0.00000000E+00
  0.00000000E+00  0.00000000E+00  0.00000000E+00
  0.00000000E+00  0.00000000E+00  0.00000000E+00
  0.00000000E+00  0.00000000E+00  0.00000000E+00
  0.00000000E+00  0.00000000E+00  0.00000000E+00
  0.00000000E+00  0.00000000E+00  0.00000000E+00
  0.00000000E+00  0.00000000E+00  0.00000000E+00
  0.00000000E+00  0.00000000E+00  0.00000000E+00
  0.00000000E+00  0.00000000E+00  0.00000000E+00
  0.00000000E+00  0.00000000E+00  0.00000000E+00
  0.00000000E+00  0.00000000E+00  0.00000000E+00
  0.00000000E+00  0.00000000E+00  0.00000000E+00
  0.00000000E+00  0.00000000E+00  0.00000000E+00
  0.00000000E+00  0.00000000E+00  0.00000000E+00
  0.00000000E+00  0.00000000E+00  0.00000000E+00
  0.00000000E+00  0.00000000E+00  0.00000000E+00
  0.00000000E+00  0.00000000E+00  0.00000000E+00
  0.00000000E+00  0.00000000E+00  0.00000000E+00
  0.00000000E+00  0.00000000E+00  0.00000000E+00
  0.00000000E+00  0.00000000E+00  0.00000000E+00
  0.00000000E+00  0.00000000E+00  0.00000000E+00
  0.00000000E+00  0.00000000E+00  0.00000000E+00
  0.00000000E+00  0.00000000E+00  0.00000000E+00
  0.00000000E+00  0.00000000E+00  0.00000000E+00
  0.00000000E+00  0.00000000E+00  0.00000000E+00
  0.00000000E+00  0.00000000E+00  0.00000000E+00
  0.00000000E+00  0.00000000E+00  0.00000000E+00
  0.00000000E+00  0.00000000E+00  0.00000000E+00
  0.00000000E+00  0.00000000E+00  0.00000000E+00
  0.00000000E+00  0.00000000E+00  0.00000000E+00
  0.00000000E+00  0.00000000E+00  0.00000000E+00
  0.00000000E+00  0.00000000E+00  0.00000000E+00
  0.00000000E+00  0.00000000E+00  0.00000000E+00
  0.00000000E+00  0.00000000E+00  0.00000000E+00
  0.00000000E+00  0.00000000E+00  0.00000000E+00
  0.00000000E+00  0.00000000E+00  0.00000000E+00
  0.00000000E+00  0.00000000E+00  0.00000000E+00
  0.00000000E+00  0.00000000E+00  0.00000000E+00
  0.00000000E+00  0.00000000E+00  0.00000000E+00
  0.00000000E+00  0.00000000E+00  0.00000000E+00
  0.00000000E+00  0.00000000E+00  0.00000000E+00
  0.00000000E+00  0.00000000E+00  0.00000000E+00
  0.00000000E+00  0.00000000E+00  0.00000000E+00
  0.00000000E+00  0.00000000E+00  0.00000000E+00
  0.00000000E+00  0.00000000E+00  0.00000000E+00
  0.00000000E+00  0.00000000E+00  0.00000000E+00
  0.00000000E+00  0.00000000E+00  0.00000000E+00
  0.00000000E+00  0.00000000E+00  0.00000000E+00
  0.00000000E+00  0.00000000E+00  0.00000000E+00
  0.00000000E+00  0.00000000E+00  0.00000000E+00
  0.00000000E+00  0.00000000E+00  0.00000000E+00
  0.00000000E+00  0.00000000E+00  0.00000000E+00
  0.00000000E+00  0.00000000E+00  0.00000000E+00
  0.00000000E+00  0.00000000E+00  0.00000000E+00
  0.00000000E+00  0.00000000E+00  0.00000000E+00
  0.00000000E+00  0.00000000E+00  0.00000000E+00
  0.00000000E+00  0.00000000E+00  0.00000000E+00
  0.00000000E+00  0.00000000E+00  0.00000000E+00
  0.00000000E+00  0.00000000E+00  0.00000000E+00
  0.00000000E+00  0.00000000E+00  0.00000000E+00
  0.00000000E+00  0.00000000E+00  0.00000000E+00
  0.00000000E+00  0.00000000E+00  0.00000000E+00
  0.00000000E+00  0.00000000E+00  0.00000000E+00
