C                                       
   1.00000000000000     
    10.2715738535397278    0.6187308881092716    0.0000000000000000
     1.0104174035896936   16.5125868938519815    0.0000000000000000
     0.0000000000000000    0.0000000000000000   16.0000000000000000
  C             
   128
Direct
  0.1436150227105079  0.2047033716682920  0.3985872652188550
  0.2068138651590795  0.1661979802547295  0.4682596631519781
  0.0669650783635303  0.1548421222212882  0.3554971607227335
  0.1714448304540996  0.0783972216878948  0.4787055753599682
  0.0664454174201720  0.0819180896151208  0.4098842743714811
  0.9363493078588354  0.1955534536893347  0.3437873751380238
  0.8564119666688822  0.1445603397954033  0.3848075258220534
  0.9364494725446962  0.0796694944830436  0.4293873382586175
  0.9226361455842279  0.2782290610497981  0.3919791998936171
  0.0608780485880203  0.2793881670759272  0.4250934137168206
  0.0845375640155433  0.2865841527942921  0.5259259604016380
  0.8258586262698929  0.2678983883278764  0.4601183469053486
  0.8458051850311572  0.2690070351450380  0.5572708526449605
  0.9803875759585802  0.2687460547816851  0.5871183327851152
  0.7636620091984948  0.1881668705279011  0.4426636588047211
  0.1372419546836289  0.1629288302586288  0.6045729607223033
  0.1833977283112282  0.2120255156514898  0.5400688651918072
  0.0156549844715358  0.2039116766202089  0.6400617571079871
  0.9121223966547404  0.1499078020334147  0.6360538939381337
  0.7890183375311801  0.1898045444194685  0.5937923224067563
  0.7607167672804236  0.1300966146887067  0.5223023228799669
  0.1081794812114429  0.0894120523346462  0.5678751597837203
  0.9720079976236227  0.0886425794196529  0.5830926324293599
  0.8880728164426279  0.0601164760654164  0.5162740867874636
  0.6436129075367130  0.7046951196609820  0.3985876248916012
  0.7068194084006412  0.6661941303453883  0.4682603443499513
  0.5669601849457983  0.6548346088676360  0.3555018115912291
  0.6714417174852205  0.5783914696921055  0.4787091675764430
  0.5664433820572754  0.5819144014997020  0.4098893617744450
  0.4363436918726306  0.6955483284157534  0.3437890710559063
  0.3564147904285564  0.6445540753769338  0.3848142428381133
  0.4364441681668916  0.5796647037889964  0.4293982707657977
  0.4226357623645745  0.7782308705535483  0.3919802720184455
  0.5608702467955380  0.7793855793405849  0.4250894438576791
  0.5845343268871047  0.7865844312133620  0.5259212625882378
  0.3258674014492058  0.7678961222574618  0.4601205714558493
  0.3458218778444473  0.7690047940232347  0.5572665407950402
  0.4803958941272500  0.7687445750101332  0.5871136531144807
  0.2636638610927365  0.6881683472990967  0.4426674195121268
  0.6372461794094122  0.6629338874313354  0.6045747377300505
  0.6834043672800285  0.7120263935008529  0.5400687106504074
  0.5156594207984057  0.7039180541548218  0.6400639266168086
  0.4121315438192128  0.6499107093655669  0.6360543919931763
  0.2890246035123487  0.6898064797854931  0.5938042977079712
  0.2607259137604638  0.6300977340016108  0.5223133861026121
  0.6081774908134883  0.5894144726344770  0.5678807330570392
  0.4720088486370922  0.5886428897789127  0.5831006514781540
  0.3880756070920063  0.5601124967978948  0.5162843380767390
  0.9131545463682053  0.7628364206293557  0.6071359414495913
  0.0261709405967417  0.7851098689251308  0.6475310169927861
  0.9461464563281785  0.7105636577482696  0.5258531471891692
  0.0799041062442348  0.7275270863476045  0.5250901065168488
  0.1489921243354079  0.7482933038232806  0.6015799907239295
  0.8956343354323315  0.7694025318087414  0.4580704618439412
  0.9977156930072277  0.7900497224585421  0.4040979457187884
  0.1249766020123104  0.7496296386187723  0.4437964722371725
  0.8327996473726886  0.8397541017523100  0.4930771091065946
  0.8674289753820809  0.9165906150624489  0.4523117511468173
  0.9923015474902807  0.8774885211574803  0.4038187023783723
  0.8410264041861042  0.8401627995210004  0.5812068034527789
  0.8939981117585862  0.9110244696670281  0.6092966414249703
  0.9183518290077066  0.9633606431926296  0.5290088732311238
  0.0178377036445504  0.8745902481265266  0.6439042134999073
  0.1228634938115711  0.8964328954859858  0.5941661562913169
  0.0670049554762607  0.9391355982073454  0.5223867891335170
  0.1042523967991592  0.8967484557391225  0.4474829561053482
  0.1959423409251449  0.8220636837577974  0.4691162699899156
  0.2107144801216970  0.8222774862070160  0.5669482544784467
  0.4131561497661604  0.2628301856081708  0.6071306679305770
  0.5261633341106408  0.2851104776864555  0.6475313559071278
  0.4461594609685253  0.2105557489831367  0.5258507854833111
  0.5799019569005602  0.2275327831130164  0.5250881175068622
  0.6489691414281473  0.2482983829968135  0.6015633278250629
  0.3956432087446398  0.2694006036593475  0.4580737707447691
  0.4977236313501698  0.2900522958844145  0.4041056991223404
  0.6249774852004851  0.2496333900273771  0.4438027777760680
  0.3327873965463846  0.3397489914986612  0.4930749134921745
  0.3674293642110978  0.4165809386165408  0.4523165137056312
  0.4923009231550458  0.3774903337105919  0.4038144602225578
  0.3410307805542411  0.3401621413333812  0.5812022335618725
  0.3939891548636709  0.4110245933618309  0.6093083875034292
  0.4183581335279275  0.4633579152359656  0.5290227490689068
  0.5178388495504318  0.3745835476984777  0.6439009816831034
  0.6228662264568405  0.3964243745186649  0.5941707024081399
  0.5670041440501825  0.4391394926449385  0.5223904714888672
  0.6042451830966961  0.3967433172718239  0.4474937985379012
  0.6959365063608891  0.3220681889811554  0.4691335171073393
  0.7106938360216908  0.3222772057115793  0.5669330636231084
  0.8568244187865030  0.4323464177640674  0.4734470969420406
  0.9155169338208219  0.3923692924074652  0.3918751055209554
  0.8036955157050918  0.5249003945165209  0.4704679466730157
  0.8710249162540862  0.5412390253917884  0.3896457627730755
  0.9223166975551557  0.4708267474248270  0.3435394407882681
  0.8975433106067786  0.5602842662444752  0.5320877041472309
  0.9735248390437665  0.6223099183078169  0.4953368678827054
  0.9593284790106564  0.6006409104822173  0.4009701147862897
  0.9754366941736460  0.5004571398653797  0.5713701798461751
  0.1126862384198213  0.5104699324126967  0.5559004471002604
  0.1348272609681030  0.5868189303650860  0.5088929287092745
  0.9481477630915549  0.4223189380853038  0.5360434285401539
  0.0765913527873500  0.3784669077187962  0.5086034620678269
  0.1621881741377086  0.4432104292302063  0.5128421402381000
  0.0622513690132619  0.3679447903882743  0.4120547023935198
  0.1438393157958741  0.4216712890485855  0.3677083692072687
  0.2313012516098887  0.4591795464092401  0.4296746345183467
  0.1757555309014399  0.5490365992807400  0.4242370692547375
  0.0794453372681439  0.5623697529091893  0.3648769607581216
  0.0580026609351101  0.4823715735420464  0.3299128562600712
  0.3568279490546574  0.9323500800607584  0.4734407648652879
  0.4155210523846672  0.8923693568121894  0.3918734234539808
  0.3036882628611988  0.0248960380108413  0.4704592333993332
  0.3710328334414618  0.0412375520671772  0.3896392797845586
  0.4223094731236137  0.9708243188798720  0.3435280410124597
  0.3975420763887436  0.0602843603707533  0.5320785820010794
  0.4735187473573987  0.1223050722160003  0.4953281463030229
  0.4593167369520921  0.1006455253148560  0.4009596577579892
  0.4754415380423067  0.0004539318724729  0.5713720226447856
  0.6126873839921144  0.0104656459555683  0.5558956764652132
  0.6348261433078229  0.0868189783157055  0.5088851148239552
  0.4481526741522588  0.9223181668324161  0.5360400627651223
  0.5765891382620085  0.8784653248235643  0.5085968862100206
  0.6621829977771871  0.9432165366778976  0.5128356217412565
  0.5622519095884215  0.8679400608021115  0.4120494798548202
  0.6438508629021131  0.9216599960977977  0.3676940689936297
  0.7312973218965929  0.9591790890866840  0.4296668837797835
  0.6757491532342896  0.0490326066904594  0.4242283442691320
  0.5794414026153877  0.0623661685032588  0.3648770469730150
  0.5579994559732308  0.9823696827865739  0.3299212334626891
 
  0.00000000E+00  0.00000000E+00  0.00000000E+00
  0.00000000E+00  0.00000000E+00  0.00000000E+00
  0.00000000E+00  0.00000000E+00  0.00000000E+00
  0.00000000E+00  0.00000000E+00  0.00000000E+00
  0.00000000E+00  0.00000000E+00  0.00000000E+00
  0.00000000E+00  0.00000000E+00  0.00000000E+00
  0.00000000E+00  0.00000000E+00  0.00000000E+00
  0.00000000E+00  0.00000000E+00  0.00000000E+00
  0.00000000E+00  0.00000000E+00  0.00000000E+00
  0.00000000E+00  0.00000000E+00  0.00000000E+00
  0.00000000E+00  0.00000000E+00  0.00000000E+00
  0.00000000E+00  0.00000000E+00  0.00000000E+00
  0.00000000E+00  0.00000000E+00  0.00000000E+00
  0.00000000E+00  0.00000000E+00  0.00000000E+00
  0.00000000E+00  0.00000000E+00  0.00000000E+00
  0.00000000E+00  0.00000000E+00  0.00000000E+00
  0.00000000E+00  0.00000000E+00  0.00000000E+00
  0.00000000E+00  0.00000000E+00  0.00000000E+00
  0.00000000E+00  0.00000000E+00  0.00000000E+00
  0.00000000E+00  0.00000000E+00  0.00000000E+00
  0.00000000E+00  0.00000000E+00  0.00000000E+00
  0.00000000E+00  0.00000000E+00  0.00000000E+00
  0.00000000E+00  0.00000000E+00  0.00000000E+00
  0.00000000E+00  0.00000000E+00  0.00000000E+00
  0.00000000E+00  0.00000000E+00  0.00000000E+00
  0.00000000E+00  0.00000000E+00  0.00000000E+00
  0.00000000E+00  0.00000000E+00  0.00000000E+00
  0.00000000E+00  0.00000000E+00  0.00000000E+00
  0.00000000E+00  0.00000000E+00  0.00000000E+00
  0.00000000E+00  0.00000000E+00  0.00000000E+00
  0.00000000E+00  0.00000000E+00  0.00000000E+00
  0.00000000E+00  0.00000000E+00  0.00000000E+00
  0.00000000E+00  0.00000000E+00  0.00000000E+00
  0.00000000E+00  0.00000000E+00  0.00000000E+00
  0.00000000E+00  0.00000000E+00  0.00000000E+00
  0.00000000E+00  0.00000000E+00  0.00000000E+00
  0.00000000E+00  0.00000000E+00  0.00000000E+00
  0.00000000E+00  0.00000000E+00  0.00000000E+00
  0.00000000E+00  0.00000000E+00  0.00000000E+00
  0.00000000E+00  0.00000000E+00  0.00000000E+00
  0.00000000E+00  0.00000000E+00  0.00000000E+00
  0.00000000E+00  0.00000000E+00  0.00000000E+00
  0.00000000E+00  0.00000000E+00  0.00000000E+00
  0.00000000E+00  0.00000000E+00  0.00000000E+00
  0.00000000E+00  0.00000000E+00  0.00000000E+00
  0.00000000E+00  0.00000000E+00  0.00000000E+00
  0.00000000E+00  0.00000000E+00  0.00000000E+00
  0.00000000E+00  0.00000000E+00  0.00000000E+00
  0.00000000E+00  0.00000000E+00  0.00000000E+00
  0.00000000E+00  0.00000000E+00  0.00000000E+00
  0.00000000E+00  0.00000000E+00  0.00000000E+00
  0.00000000E+00  0.00000000E+00  0.00000000E+00
  0.00000000E+00  0.00000000E+00  0.00000000E+00
  0.00000000E+00  0.00000000E+00  0.00000000E+00
  0.00000000E+00  0.00000000E+00  0.00000000E+00
  0.00000000E+00  0.00000000E+00  0.00000000E+00
  0.00000000E+00  0.00000000E+00  0.00000000E+00
  0.00000000E+00  0.00000000E+00  0.00000000E+00
  0.00000000E+00  0.00000000E+00  0.00000000E+00
  0.00000000E+00  0.00000000E+00  0.00000000E+00
  0.00000000E+00  0.00000000E+00  0.00000000E+00
  0.00000000E+00  0.00000000E+00  0.00000000E+00
  0.00000000E+00  0.00000000E+00  0.00000000E+00
  0.00000000E+00  0.00000000E+00  0.00000000E+00
  0.00000000E+00  0.00000000E+00  0.00000000E+00
  0.00000000E+00  0.00000000E+00  0.00000000E+00
  0.00000000E+00  0.00000000E+00  0.00000000E+00
  0.00000000E+00  0.00000000E+00  0.00000000E+00
  0.00000000E+00  0.00000000E+00  0.00000000E+00
  0.00000000E+00  0.00000000E+00  0.00000000E+00
  0.00000000E+00  0.00000000E+00  0.00000000E+00
  0.00000000E+00  0.00000000E+00  0.00000000E+00
  0.00000000E+00  0.00000000E+00  0.00000000E+00
  0.00000000E+00  0.00000000E+00  0.00000000E+00
  0.00000000E+00  0.00000000E+00  0.00000000E+00
  0.00000000E+00  0.00000000E+00  0.00000000E+00
  0.00000000E+00  0.00000000E+00  0.00000000E+00
  0.00000000E+00  0.00000000E+00  0.00000000E+00
  0.00000000E+00  0.00000000E+00  0.00000000E+00
  0.00000000E+00  0.00000000E+00  0.00000000E+00
  0.00000000E+00  0.00000000E+00  0.00000000E+00
  0.00000000E+00  0.00000000E+00  0.00000000E+00
  0.00000000E+00  0.00000000E+00  0.00000000E+00
  0.00000000E+00  0.00000000E+00  0.00000000E+00
  0.00000000E+00  0.00000000E+00  0.00000000E+00
  0.00000000E+00  0.00000000E+00  0.00000000E+00
  0.00000000E+00  0.00000000E+00  0.00000000E+00
  0.00000000E+00  0.00000000E+00  0.00000000E+00
  0.00000000E+00  0.00000000E+00  0.00000000E+00
  0.00000000E+00  0.00000000E+00  0.00000000E+00
  0.00000000E+00  0.00000000E+00  0.00000000E+00
  0.00000000E+00  0.00000000E+00  0.00000000E+00
  0.00000000E+00  0.00000000E+00  0.00000000E+00
  0.00000000E+00  0.00000000E+00  0.00000000E+00
  0.00000000E+00  0.00000000E+00  0.00000000E+00
  0.00000000E+00  0.00000000E+00  0.00000000E+00
  0.00000000E+00  0.00000000E+00  0.00000000E+00
  0.00000000E+00  0.00000000E+00  0.00000000E+00
  0.00000000E+00  0.00000000E+00  0.00000000E+00
  0.00000000E+00  0.00000000E+00  0.00000000E+00
  0.00000000E+00  0.00000000E+00  0.00000000E+00
  0.00000000E+00  0.00000000E+00  0.00000000E+00
  0.00000000E+00  0.00000000E+00  0.00000000E+00
  0.00000000E+00  0.00000000E+00  0.00000000E+00
  0.00000000E+00  0.00000000E+00  0.00000000E+00
  0.00000000E+00  0.00000000E+00  0.00000000E+00
  0.00000000E+00  0.00000000E+00  0.00000000E+00
  0.00000000E+00  0.00000000E+00  0.00000000E+00
  0.00000000E+00  0.00000000E+00  0.00000000E+00
  0.00000000E+00  0.00000000E+00  0.00000000E+00
  0.00000000E+00  0.00000000E+00  0.00000000E+00
  0.00000000E+00  0.00000000E+00  0.00000000E+00
  0.00000000E+00  0.00000000E+00  0.00000000E+00
  0.00000000E+00  0.00000000E+00  0.00000000E+00
  0.00000000E+00  0.00000000E+00  0.00000000E+00
  0.00000000E+00  0.00000000E+00  0.00000000E+00
  0.00000000E+00  0.00000000E+00  0.00000000E+00
  0.00000000E+00  0.00000000E+00  0.00000000E+00
  0.00000000E+00  0.00000000E+00  0.00000000E+00
  0.00000000E+00  0.00000000E+00  0.00000000E+00
  0.00000000E+00  0.00000000E+00  0.00000000E+00
  0.00000000E+00  0.00000000E+00  0.00000000E+00
  0.00000000E+00  0.00000000E+00  0.00000000E+00
  0.00000000E+00  0.00000000E+00  0.00000000E+00
  0.00000000E+00  0.00000000E+00  0.00000000E+00
  0.00000000E+00  0.00000000E+00  0.00000000E+00
  0.00000000E+00  0.00000000E+00  0.00000000E+00
  0.00000000E+00  0.00000000E+00  0.00000000E+00
