C                                       
   1.00000000000000     
     9.9121759082556942   -0.0123326453725220    0.0000000000000000
    -0.0327170294603636   17.6056977815940883    0.0000000000000000
     0.0000000000000000    0.0000000000000000   16.0000000000000000
  C             
   128
Direct
  0.8798681791357927  0.8681364217649410  0.4965102599528171
  0.8849956681945093  0.8952214373579787  0.5844919818075154
  0.7943487654286566  0.9324636691366543  0.4534205751274739
  0.8330629240191233  0.9667745365792172  0.6002994265013638
  0.7680427565796277  0.9993772088821887  0.5218866418227861
  0.8963052882616196  0.9698627845135686  0.3958324830811130
  0.9023372724407925  0.0506361417237947  0.4060251428705778
  0.8561340007839700  0.0611636055229456  0.4868275735114071
  0.0300109275963989  0.9455066124469317  0.4067946731653120
  0.0295011135581593  0.8763762857876266  0.4627169949260940
  0.0982891039858333  0.9023676116986601  0.5423924796284083
  0.1201107741969901  0.0126706529653619  0.4145471308040394
  0.2238712045107823  0.0244192402195295  0.4832258545593970
  0.2125821635632033  0.9594124940484154  0.5498353701446368
  0.0407931961232652  0.0781797651622460  0.4082594950191172
  0.0457031164835873  0.9627168560545973  0.6649026187135814
  0.0224833078509511  0.8963971822017336  0.6144241608930233
  0.1636894543888151  0.0008476577142835  0.6306285238178907
  0.1271287080335420  0.0744170272889075  0.6113538917731075
  0.1754215779586576  0.0982438784055372  0.5279794391120354
  0.0586171745176071  0.1343074472784791  0.4806192682949604
  0.9285499238186108  0.0088606336899215  0.6513253772749341
  0.9816636625277640  0.0790866121187770  0.6147349050715358
  0.9423585248937179  0.1061038952871528  0.5360987244308979
  0.4801296129037873  0.5179593665433997  0.6496650551596744
  0.3682727475773478  0.5637611057970209  0.6272409827737612
  0.4699483502954461  0.4373740495692327  0.6299632208641515
  0.2929467144211175  0.5123948648903591  0.5558088590428761
  0.3941743478880835  0.4536421820505115  0.5598124042729055
  0.5916478372872519  0.4100042082010297  0.5871059555714602
  0.5518511150758504  0.3695639134302813  0.5054635843258519
  0.4182676357633343  0.4103485343722943  0.4859660420711893
  0.6715695891200431  0.4739002918040988  0.5692366764163206
  0.6111627488347353  0.5408839804536232  0.6106285820717188
  0.5819789976567349  0.6047625913775764  0.5649548922843948
  0.6941177477876980  0.4728559934514905  0.4795534974966373
  0.6889920028753872  0.5412462890601658  0.4248937529449367
  0.6302443961002110  0.6140417902427758  0.4754394258726049
  0.6309350360635938  0.4118855521240802  0.4403141705989657
  0.3962419562823090  0.6325565347895605  0.4884663659542107
  0.4357198497987495  0.6261963309160541  0.5816915371632996
  0.5055782929550862  0.6369350786725392  0.4230743696792797
  0.4729425275188495  0.5658341607557795  0.3734989488765211
  0.5872954732444949  0.5171957870748410  0.3596515655967458
  0.5518859312678134  0.4415263214211869  0.3697675106972402
  0.2986974211511879  0.5656910897019102  0.4775199656687507
  0.3637778900036083  0.5250895044063664  0.4020059726252601
  0.4008735952516738  0.4389741754644688  0.3950389060150459
  0.3693514107864065  0.1413968283638508  0.6123371524639936
  0.4659392144809655  0.0848773509060728  0.6304839937230199
  0.3104711489622408  0.1323982848433252  0.5286809596559779
  0.3838001650925112  0.0651628662443366  0.4873290773467703
  0.4867622803714366  0.0306298086914903  0.5557019075169261
  0.3347530398406376  0.2040696104597421  0.4791290405396726
  0.4482576182886657  0.1863992114615344  0.4234388677204356
  0.4785169528539056  0.1055924835542698  0.4283862333626747
  0.3848780459618887  0.2627968061538157  0.5461099617948496
  0.5338213198115660  0.2860149892012987  0.5151945704019509
  0.5590519701021712  0.2317296868644732  0.4414454431949787
  0.4109461559059590  0.2175969740537411  0.6243613472753559
  0.5494765758065695  0.2129539070843944  0.6450452526999986
  0.6258736503720462  0.2493059953134350  0.5819798091770562
  0.5839327222603885  0.1302494630041380  0.6501303281497917
  0.6778418941718061  0.1168359233303598  0.5884022323718131
  0.7022037557977594  0.1880813032478276  0.5441505796059664
  0.6650423813675015  0.1779956638810828  0.4607347545580441
  0.6130743594004670  0.1003042447475533  0.4514302708406198
  0.6395517343980803  0.0517493432571493  0.5287210402352936
  0.3357235147488214  0.8318799285538253  0.5727472636491343
  0.3306384160187116  0.9090954383097412  0.5315908075281418
  0.4658739601698590  0.8184519866092624  0.5973693119512222
  0.5514754710449780  0.8832197406245189  0.5761832702745278
  0.4736002758868470  0.9468864340320520  0.5367156501906446
  0.5087660399199195  0.7508165022566040  0.5507901215696902
  0.6110151013376585  0.7749553125612217  0.4995039158566404
  0.6337569332767560  0.8529322745618900  0.5158278116259166
  0.3878572560147550  0.7015306085336896  0.5398732807718210
  0.5233674381269831  0.7136917065310182  0.3847462705684556
  0.6520721724524466  0.7578657899963500  0.4078373908986914
  0.2832437782210767  0.7662001040178624  0.5183938945190087
  0.3289803053581098  0.7991737479706799  0.4336236742110193
  0.4279571493168629  0.7720958640771691  0.3729409652993776
  0.3289742343006546  0.8777597018071285  0.4408839651554747
  0.4370873813255791  0.9076973060919747  0.3912606917159362
  0.5000335770677108  0.8420616753304229  0.3504124075467484
  0.6330315341845891  0.8363301205312497  0.3729524611568270
  0.6596404483035837  0.8985656326914039  0.4364336255570334
  0.5275514762387681  0.9410618993674381  0.4439856920350287
  0.9462383983097964  0.4521294777864578  0.4606650588421904
  0.9187397984156561  0.3905598893171624  0.3927368428270364
  0.0976021917159803  0.4713813141055873  0.4394496925277005
  0.1409833657017273  0.4234409248560449  0.3703261965596223
  0.0336021694806010  0.3801296524442767  0.3404524719926478
  0.1795667572964038  0.4480112676222790  0.5218519774007278
  0.2755901696660736  0.3825082083308764  0.4859683699042800
  0.2671246245505574  0.3819118006404474  0.3879835276237616
  0.0815894897995858  0.3979463799370607  0.5688813085297482
  0.1231981472059103  0.3192101005310555  0.5724029320161305
  0.2517528271629208  0.3082685958941790  0.5267112687916651
  0.9514482926537713  0.4001808373503621  0.5358266389463232
  0.9075442807277909  0.3218402873581813  0.5197754340125923
  0.0198202522937458  0.2723776045198558  0.5412305670440825
  0.8983611776356439  0.3171087969382613  0.4308167303824315
  0.9893945855775568  0.2599933291869507  0.3973866748881862
  0.0671362914950185  0.2205044360617209  0.4681831385809623
  0.2147111341013391  0.2505503754670629  0.4522425712295699
  0.2157915645468270  0.2984318383349672  0.3739188314763769
  0.0801873707699455  0.3011085961809375  0.3458723411063550
  0.1592887707859455  0.6007370057296961  0.4757419669849684
  0.0659761521784078  0.5542680878208019  0.4226003144793136
  0.0736543903881379  0.6204541741474718  0.5517620492403621
  0.9425884922025027  0.5885757718916593  0.5443308970514730
  0.9285096128248493  0.5421607924045776  0.4649275861745976
  0.0573707056926518  0.7015794409033012  0.5579042695049142
  0.9191833425160374  0.7214119759450696  0.5526409748002676
  0.8512233332976900  0.6514577949729917  0.5435692072396890
  0.1408873139689723  0.7413784842885116  0.4945907184306408
  0.0326286033333294  0.7889820446954463  0.4412291258056617
  0.8884645071082649  0.7777585311211291  0.4826046927817115
  0.1651154677771039  0.6760523825585671  0.4352807026966578
  0.1066540105686880  0.6778381465485057  0.3587458735773851
  0.0137381076418587  0.7417146238592072  0.3603599955889000
  0.0366419969955730  0.6047062000436717  0.3474905825102137
  0.9001346962440180  0.6239559507852417  0.3449941839040139
  0.8876347284881667  0.7067412279910861  0.3530789907637059
  0.7921253712989847  0.7275345825578711  0.4217364858556138
  0.7681053656309592  0.6509138639696876  0.4673594949892628
  0.8227952362705450  0.5843183323972240  0.4134340530162450
 
  0.00000000E+00  0.00000000E+00  0.00000000E+00
  0.00000000E+00  0.00000000E+00  0.00000000E+00
  0.00000000E+00  0.00000000E+00  0.00000000E+00
  0.00000000E+00  0.00000000E+00  0.00000000E+00
  0.00000000E+00  0.00000000E+00  0.00000000E+00
  0.00000000E+00  0.00000000E+00  0.00000000E+00
  0.00000000E+00  0.00000000E+00  0.00000000E+00
  0.00000000E+00  0.00000000E+00  0.00000000E+00
  0.00000000E+00  0.00000000E+00  0.00000000E+00
  0.00000000E+00  0.00000000E+00  0.00000000E+00
  0.00000000E+00  0.00000000E+00  0.00000000E+00
  0.00000000E+00  0.00000000E+00  0.00000000E+00
  0.00000000E+00  0.00000000E+00  0.00000000E+00
  0.00000000E+00  0.00000000E+00  0.00000000E+00
  0.00000000E+00  0.00000000E+00  0.00000000E+00
  0.00000000E+00  0.00000000E+00  0.00000000E+00
  0.00000000E+00  0.00000000E+00  0.00000000E+00
  0.00000000E+00  0.00000000E+00  0.00000000E+00
  0.00000000E+00  0.00000000E+00  0.00000000E+00
  0.00000000E+00  0.00000000E+00  0.00000000E+00
  0.00000000E+00  0.00000000E+00  0.00000000E+00
  0.00000000E+00  0.00000000E+00  0.00000000E+00
  0.00000000E+00  0.00000000E+00  0.00000000E+00
  0.00000000E+00  0.00000000E+00  0.00000000E+00
  0.00000000E+00  0.00000000E+00  0.00000000E+00
  0.00000000E+00  0.00000000E+00  0.00000000E+00
  0.00000000E+00  0.00000000E+00  0.00000000E+00
  0.00000000E+00  0.00000000E+00  0.00000000E+00
  0.00000000E+00  0.00000000E+00  0.00000000E+00
  0.00000000E+00  0.00000000E+00  0.00000000E+00
  0.00000000E+00  0.00000000E+00  0.00000000E+00
  0.00000000E+00  0.00000000E+00  0.00000000E+00
  0.00000000E+00  0.00000000E+00  0.00000000E+00
  0.00000000E+00  0.00000000E+00  0.00000000E+00
  0.00000000E+00  0.00000000E+00  0.00000000E+00
  0.00000000E+00  0.00000000E+00  0.00000000E+00
  0.00000000E+00  0.00000000E+00  0.00000000E+00
  0.00000000E+00  0.00000000E+00  0.00000000E+00
  0.00000000E+00  0.00000000E+00  0.00000000E+00
  0.00000000E+00  0.00000000E+00  0.00000000E+00
  0.00000000E+00  0.00000000E+00  0.00000000E+00
  0.00000000E+00  0.00000000E+00  0.00000000E+00
  0.00000000E+00  0.00000000E+00  0.00000000E+00
  0.00000000E+00  0.00000000E+00  0.00000000E+00
  0.00000000E+00  0.00000000E+00  0.00000000E+00
  0.00000000E+00  0.00000000E+00  0.00000000E+00
  0.00000000E+00  0.00000000E+00  0.00000000E+00
  0.00000000E+00  0.00000000E+00  0.00000000E+00
  0.00000000E+00  0.00000000E+00  0.00000000E+00
  0.00000000E+00  0.00000000E+00  0.00000000E+00
  0.00000000E+00  0.00000000E+00  0.00000000E+00
  0.00000000E+00  0.00000000E+00  0.00000000E+00
  0.00000000E+00  0.00000000E+00  0.00000000E+00
  0.00000000E+00  0.00000000E+00  0.00000000E+00
  0.00000000E+00  0.00000000E+00  0.00000000E+00
  0.00000000E+00  0.00000000E+00  0.00000000E+00
  0.00000000E+00  0.00000000E+00  0.00000000E+00
  0.00000000E+00  0.00000000E+00  0.00000000E+00
  0.00000000E+00  0.00000000E+00  0.00000000E+00
  0.00000000E+00  0.00000000E+00  0.00000000E+00
  0.00000000E+00  0.00000000E+00  0.00000000E+00
  0.00000000E+00  0.00000000E+00  0.00000000E+00
  0.00000000E+00  0.00000000E+00  0.00000000E+00
  0.00000000E+00  0.00000000E+00  0.00000000E+00
  0.00000000E+00  0.00000000E+00  0.00000000E+00
  0.00000000E+00  0.00000000E+00  0.00000000E+00
  0.00000000E+00  0.00000000E+00  0.00000000E+00
  0.00000000E+00  0.00000000E+00  0.00000000E+00
  0.00000000E+00  0.00000000E+00  0.00000000E+00
  0.00000000E+00  0.00000000E+00  0.00000000E+00
  0.00000000E+00  0.00000000E+00  0.00000000E+00
  0.00000000E+00  0.00000000E+00  0.00000000E+00
  0.00000000E+00  0.00000000E+00  0.00000000E+00
  0.00000000E+00  0.00000000E+00  0.00000000E+00
  0.00000000E+00  0.00000000E+00  0.00000000E+00
  0.00000000E+00  0.00000000E+00  0.00000000E+00
  0.00000000E+00  0.00000000E+00  0.00000000E+00
  0.00000000E+00  0.00000000E+00  0.00000000E+00
  0.00000000E+00  0.00000000E+00  0.00000000E+00
  0.00000000E+00  0.00000000E+00  0.00000000E+00
  0.00000000E+00  0.00000000E+00  0.00000000E+00
  0.00000000E+00  0.00000000E+00  0.00000000E+00
  0.00000000E+00  0.00000000E+00  0.00000000E+00
  0.00000000E+00  0.00000000E+00  0.00000000E+00
  0.00000000E+00  0.00000000E+00  0.00000000E+00
  0.00000000E+00  0.00000000E+00  0.00000000E+00
  0.00000000E+00  0.00000000E+00  0.00000000E+00
  0.00000000E+00  0.00000000E+00  0.00000000E+00
  0.00000000E+00  0.00000000E+00  0.00000000E+00
  0.00000000E+00  0.00000000E+00  0.00000000E+00
  0.00000000E+00  0.00000000E+00  0.00000000E+00
  0.00000000E+00  0.00000000E+00  0.00000000E+00
  0.00000000E+00  0.00000000E+00  0.00000000E+00
  0.00000000E+00  0.00000000E+00  0.00000000E+00
  0.00000000E+00  0.00000000E+00  0.00000000E+00
  0.00000000E+00  0.00000000E+00  0.00000000E+00
  0.00000000E+00  0.00000000E+00  0.00000000E+00
  0.00000000E+00  0.00000000E+00  0.00000000E+00
  0.00000000E+00  0.00000000E+00  0.00000000E+00
  0.00000000E+00  0.00000000E+00  0.00000000E+00
  0.00000000E+00  0.00000000E+00  0.00000000E+00
  0.00000000E+00  0.00000000E+00  0.00000000E+00
  0.00000000E+00  0.00000000E+00  0.00000000E+00
  0.00000000E+00  0.00000000E+00  0.00000000E+00
  0.00000000E+00  0.00000000E+00  0.00000000E+00
  0.00000000E+00  0.00000000E+00  0.00000000E+00
  0.00000000E+00  0.00000000E+00  0.00000000E+00
  0.00000000E+00  0.00000000E+00  0.00000000E+00
  0.00000000E+00  0.00000000E+00  0.00000000E+00
  0.00000000E+00  0.00000000E+00  0.00000000E+00
  0.00000000E+00  0.00000000E+00  0.00000000E+00
  0.00000000E+00  0.00000000E+00  0.00000000E+00
  0.00000000E+00  0.00000000E+00  0.00000000E+00
  0.00000000E+00  0.00000000E+00  0.00000000E+00
  0.00000000E+00  0.00000000E+00  0.00000000E+00
  0.00000000E+00  0.00000000E+00  0.00000000E+00
  0.00000000E+00  0.00000000E+00  0.00000000E+00
  0.00000000E+00  0.00000000E+00  0.00000000E+00
  0.00000000E+00  0.00000000E+00  0.00000000E+00
  0.00000000E+00  0.00000000E+00  0.00000000E+00
  0.00000000E+00  0.00000000E+00  0.00000000E+00
  0.00000000E+00  0.00000000E+00  0.00000000E+00
  0.00000000E+00  0.00000000E+00  0.00000000E+00
  0.00000000E+00  0.00000000E+00  0.00000000E+00
  0.00000000E+00  0.00000000E+00  0.00000000E+00
  0.00000000E+00  0.00000000E+00  0.00000000E+00
  0.00000000E+00  0.00000000E+00  0.00000000E+00
  0.00000000E+00  0.00000000E+00  0.00000000E+00
