C 
 1.0000000000000000
    12.4461769020867745    0.0000000000000000    0.0000000000000000
     0.0000000000000000   12.4461769020867727    0.0000000000000000
     0.0000000000000000    0.0000000000000000   16.0000000000000000
 C  
 128
Direct
  0.6492332970689449  0.3821003902277775  0.5183439346780395
  0.5904294537541974  0.3836325728301871  0.5953442977368990
  0.5848210897640518  0.3391932116238718  0.4520869985628052
  0.4770502144030023  0.3606578998987102  0.5728478231449918
  0.4735667965079645  0.3336667964254657  0.4854002977427659
  0.5808554733636114  0.4124241485791562  0.3831714722253763
  0.4718352826387645  0.4363417016622695  0.3610631896997148
  0.4045785477171084  0.3928535146734156  0.4297174619275194
  0.6275873676683936  0.5147368877405271  0.4139315340784956
  0.6694104999003575  0.4961658474076205  0.4966068350168734
  0.6337114154545429  0.5615108404778821  0.5655187240439751
  0.5500356428699249  0.5987091276926305  0.4000950938077988
  0.5143678067745958  0.6640533551700273  0.4689689444859166
  0.5561743319649186  0.6454731353667169  0.5516609770620065
  0.4537860563753982  0.5499690684317199  0.3603591879366070
  0.4834324193796946  0.5246330590069970  0.6472412513469505
  0.5909031818241099  0.4889681007449424  0.6312746098641996
  0.4638370850039977  0.6265430617268993  0.6084467522543389
  0.3705162991086463  0.6218398268117993  0.5562273033748862
  0.3955287663964051  0.6568790438559945  0.4732364624913352
  0.3648473984527075  0.5774274742873429  0.4129304110576159
  0.4116086140378210  0.4468961845956536  0.6046108388384025
  0.3426909081447359  0.5061838880057528  0.5489429956431277
  0.3391920514261056  0.4791408627566379  0.4614900776125225
  0.0749858772464583  0.3440506056667432  0.3644442907744585
  0.1089075306160781  0.4434913697657726  0.4010913896601800
  0.1645074516923264  0.2733306945799766  0.3526617300541919
  0.2213304330857242  0.4261090121699436  0.4289001284576345
  0.2552525516509353  0.3222137446510847  0.3994504616329348
  0.1447101135625175  0.1716743236204846  0.3915663333696607
  0.2297465902954601  0.1447009807783030  0.4482316871514198
  0.2951739389727749  0.2435700004505747  0.4577032173453849
  0.0473699478574158  0.1863108935157806  0.4438995675023211
  0.0047356767926683  0.2917461081394049  0.4272946603390080
 -0.0114985401512877  0.3664080839128118  0.4949053745520210
  0.0737813059463829  0.1554357691651322  0.5281527779665006
  0.0575284664339764  0.2300485059094117  0.5957444866162989
  0.0149096099559063  0.3355075292892087  0.5791429009464709
  0.1880359161101878  0.1209173304536562  0.5295657277317058
  0.1185858644286531  0.4847030863239828  0.5445019510171575
  0.0483446968842472  0.4664408804116780  0.4750304639639869
  0.0916556496285674  0.4156578579329075  0.6130457289899722
  0.1837344654624277  0.3560698065865192  0.6400830044510871
  0.1613221594068618  0.2432278406038302  0.6401416774630778
  0.2393801230688469  0.1858569879873632  0.5916896149996902
  0.2272458449408121  0.4513423775569703  0.5166159525852335
  0.2670534503135222  0.3726924945909619  0.5749080800646658
  0.3010159006779151  0.2688021824797251  0.5454300329079317
  0.8029735251253803  0.9062843565240666  0.5616660112556675
  0.8683349392975437  0.9132034289731320  0.4866090909855487
  0.8145700503870302  0.7996877519369967  0.5946832385296599
  0.8870245848856969  0.7412959563059663  0.5398259164004930
  0.9257177796745270  0.8120575470189559  0.4733051574643113
  0.7095280319052689  0.7470140390030298  0.5965448589158909
  0.7188654933031623  0.6589415749114954  0.5364603846549183
  0.8276781063622867  0.6540030207793274  0.5037253258867999
  0.6371113566095213  0.8234220521773450  0.5567830236946651
  0.5905722489878042  0.7794109970095342  0.4806248411355982
  0.6479359633763034  0.6782643412789160  0.4673442317253013
  0.6901047469335678  0.9257843758104150  0.5411876621340656
  0.6885884271936584  0.9374627234610199  0.4502227523727959
  0.6292380462699648  0.8501789121760275  0.4141036278271008
  0.7973897904360027  0.9325375153758181  0.4175055602503054
  0.8067258537411598  0.8444748928814133  0.3574170493675103
  0.7016976101555890  0.7917793752447519  0.3592645032270362
  0.7132957644836555  0.6851784232434287  0.3922882551382526
  0.8261796807263956  0.6656811677453272  0.4127592080814689
  0.8791645711594477  0.7680544033832502  0.3971485670754074
  0.1045398346413599  0.7335078181890998  0.5955598793758933
  0.0179228178433207  0.7714118001099209  0.5422831178078737
  0.1978498992727049  0.7971448687570444  0.5774427279061682
  0.1683879264954353  0.8740214132970342  0.5130402197265173
  0.0544742351109128  0.8627560224548321  0.4922558612886763
  0.2840450678235845  0.7272646002550908  0.5473031416219927
  0.3005707194903897  0.7598685008423406  0.4604234599229403
  0.2320990220686274  0.8509140233126031  0.4404723196986017
  0.2349896280381867  0.6212637072657272  0.5416667157274094
  0.2343764401477176  0.5817952399902765  0.4559935033005967
  0.2709532610786294  0.6731281400560191  0.4059834993824463
  0.1275564500296736  0.6205660878578665  0.5777014690798419
  0.0567768287026646  0.5936217356246638  0.5077887361355835
  0.1204703439541023  0.5705027702309592  0.4352092169724137
 -0.0116868369849196  0.6846555931129389  0.4878571459875033
  0.0048296615179111  0.7172531050050338  0.4009782962499550
  0.0910242266725079  0.6473912161534822  0.3708187457283473
  0.1843411701645046  0.7110330565820947  0.3527052133168257
  0.1613106067779801  0.8239853243704297  0.3705600068657927
  0.0538629210350182  0.8232720259909521  0.4065862093384454
  0.3527318593400061  1.0999218143125715  0.6067230110490345
  0.3241239930156288  1.1204518941680472  0.5201359060849718
  0.4678398348524942  1.0997886288961305  0.6121689797423364
  0.5097439952876834  1.1202112122314249  0.5288972464827950
  0.4211738095707477  1.1380827096321020  0.4704103724325239
  0.5044701297238259  0.9948686357545761  0.6419335627873530
  0.5639484967587689  0.9494797310017613  0.5714404048563644
  0.5693576014708990  1.0270021802217097  0.5036415478893832
  0.4070930909594810  0.9302968354707780  0.6470535890900503
  0.4113810426569348  0.8387956610440825  0.5904375378392936
  0.5084386096878551  0.8564214921403610  0.5407387314136646
  0.3114349916784497  0.9951217249805979  0.6328043742011419
  0.2632042016057978  0.9498641392149234  0.5572297831433827
  0.3228011779138895  0.8566444576161329  0.5319611566646983
  0.2686065880954535  1.0273893384629524  0.4894526446182173
  0.3280738826093536  0.9819996483202459  0.4189582513068777
  0.3647206778874417  0.8770788628560242  0.4487019041147255
  0.4798356075211189  0.8769493595171503  0.4541521326892583
  0.5211288275318001  0.9817596535420764  0.4280595033141857
  0.4254531486934772  1.0465719886992597  0.4138021118830204
  0.8924537331519324  0.1152078615156389  0.6105525550308416
  0.9418682782742785  0.1298510238335882  0.5290645264167834
  0.7989608406369478  0.0492533873878820  0.5993346950557662
  0.7910925906802957  0.0235193207640940  0.5109553193872317
  0.8824437774647829  0.0693220554721702  0.4657694812779869
  0.7036112860702868  0.1086575817358692  0.6262103726271513
  0.6412628161671811  0.1242722063626874  0.5496807469355813
  0.6932892276290630  0.0700310915119129  0.4801626711312655
  0.7435111471109995  0.2153595096204289  0.6470517262546304
  0.6964131422476599  0.2972668864602654  0.5933774707968720
  0.6369750419174227  0.2367329088123213  0.5301076967878211
  0.8604147625342158  0.2192378707170183  0.6450253966184409
  0.8855511852250215  0.2965596200183022  0.5790066164820196
  0.7877571674155386  0.3430917222322365  0.5482039620587417
  0.9375809548580890  0.2423162662031612  0.5095107605060132
  0.8752411339252355  0.2579380089252239  0.4329815373165070
  0.7798813648259929  0.3173371788134431  0.4598343065430370
  0.6863843085094845  0.2513750306297241  0.4486195266617418
  0.7184340233641776  0.1473407573163363  0.4141358620868550
  0.8353458452975252  0.1512407044162081  0.4121043821461117
