Generated by VASPKIT code               
   1.00000000000000     
    15.0239868623484512   -0.2048739498943567    0.0000000000000000
    -7.6802560495466947   12.8838561478370028    0.0000000000000000
     0.0000000000000012    0.0000000000000022   19.7181561917648409
  C             
   104
Direct
  0.5064741510305979  0.7367426353834132  0.4515023308494326
  0.4773719289237099  0.6396444249667452  0.4826919195678209
  0.4365688582617698  0.7186095431956273  0.3969504685114926
  0.3734436057256238  0.5583110319592876  0.4518120594385560
  0.3503922240502024  0.6106074975581191  0.3997880841905518
  0.3885870598396322  0.7809184783807183  0.4036721657768015
  0.2776967413700902  0.7200666126350317  0.3951369434930266
  0.2524081433198740  0.6095375341793515  0.3987313276350792
  0.4121433630697185  0.8234238074262176  0.4716591945653270
  0.4840884637980479  0.7972023631968853  0.5024084076098585
  0.4570510185893654  0.7422493169198542  0.5643845470765145
  0.3148891200400926  0.7978741006607661  0.5034290957546522
  0.2859609731561490  0.7396520527797452  0.5641462847091390
  0.3565467187549313  0.7105138857223868  0.5936926496599549
  0.2288025840355674  0.7355925069315259  0.4518956054385601
  0.3584854919464757  0.5582504108248545  0.5709863721948624
  0.4592956506766319  0.6433062100950466  0.5531038899564183
  0.2997172233465077  0.5981773746900201  0.6014648192822398
  0.1991489075233615  0.5592178795867577  0.5687631153120781
  0.1812810219194192  0.6415206404143060  0.5533342618709874
  0.1584213292466906  0.6380658242731073  0.4829613972044930
  0.3017930951936700  0.5111580134672393  0.5058956841711203
  0.2050310539451941  0.5123539735075788  0.5057443744318381
  0.1786607736053237  0.5581827720927169  0.4511308172228294
  0.6891956552225849  0.4769836223962730  0.5350976212985952
  0.8977243209930317  0.9968438949202750  0.4572502680971687
  0.9977894915983246  0.9008491250086881  0.4599211729219706
  0.1079488841624820  0.1097112069475926  0.4597798304694734
  0.6470878938063945  0.4719601944683936  0.4593671428564388
  0.8504383229706911  0.9764159985816220  0.5331826473042693
  0.0186594123272054  0.8795898311853365  0.5366320846174980
  0.1307224949272527  0.1544646172141517  0.5354245897236696
  0.7974971750135144  0.4799124199651735  0.5306333107199286
  0.0041347407048236  0.1039356749909505  0.4576718184860976
  0.8927607224426317  0.8933486078239457  0.4595780389910204
  0.1007845831632538  0.0045179082202825  0.4598951894786971
  0.7977554178291099  0.4483522494027816  0.4589945410454575
  0.0234087998156924  0.1503263578283177  0.5336212850398858
  0.8476802810896366  0.8705561174202722  0.5352651989779602
  0.1222853872694458  0.9836743729913540  0.5365719198729040
  0.7134196751110470  0.4408248504148910  0.4204897429566709
  0.9261546120505957  0.0738307347137986  0.5741184694524492
  0.9243735994167990  0.8566989153160938  0.5777949020527164
  0.1453643618279581  0.0782932461161653  0.5775620713556383
  0.7805613739278620  0.3848635264399274  0.5693317700887850
  0.9839893772841907  0.1753542233520402  0.4160182193986374
  0.8182215191764266  0.7924469523615036  0.4221436940551023
  0.1932411874494301  0.0219453517461039  0.4197477752385989
  0.7969522030273133  0.3125810758934519  0.5244602650848077
  0.9937215478972615  0.2589446750528643  0.4560665810981604
  0.7331353918541635  0.7166424322615832  0.4629169504146407
  0.2612078792695784  0.0082569847797162  0.4625932207855779
  0.8014118603750532  0.3562722906882135  0.4540141778108827
  0.0105299933185606  0.2441746659960089  0.5252056060046966
  0.7533991819317554  0.7569833120749252  0.5302171651168427
  0.2267894543729017  0.9924054997967358  0.5314869400654237
  0.6721571430643760  0.3284621629238432  0.5882790213991475
  0.8809229508055747  0.1202977366410177  0.3899803392585216
  0.8751347474501464  0.7488794252109968  0.3970517846558772
  0.2523156435910505  0.1278545983963076  0.3969248998403716
  0.6150180043841158  0.2199735531467434  0.5688866039348253
  0.8272989499263628  0.1732184871028718  0.4126411739782123
  0.8250409643983397  0.6419650386061734  0.4215134754562665
  0.3591195676009211  0.1781915032208732  0.4214186031915671
  0.6868463004593297  0.2026162262751189  0.5241812387330471
  0.8988646678145812  0.2632906823730524  0.4508326644458184
  0.7237087190646736  0.6072438603289839  0.4599953739190342
  0.3617173390532704  0.1044489728023607  0.4619742972245675
  0.6187596862131945  0.3829045877208573  0.5746152276636891
  0.8263003972160063  0.0167270893909460  0.4154783967706534
  0.9810124122169525  0.8083202486146036  0.4197670881171288
  0.2085546632286530  0.1844758532633057  0.4222290654637996
  0.5247284513184514  0.3133898449614340  0.5349054049207340
  0.7422576454725172  0.0060792363288454  0.4552575030763826
  0.9945143031070238  0.7403969139257296  0.4628835841428312
  0.2844777853606588  0.2697942214328888  0.4629620362780487
  0.5208134278570574  0.2045535062946096  0.5303105899277256
  0.7374045420841195  0.1008812660167004  0.4503604063782209
  0.8985560479052278  0.6396285689367076  0.4622795040853609
  0.3939989367603011  0.2795549317560292  0.4599267470399291
  0.5306884319921591  0.3560756982327913  0.4593247449133012
  0.7564160995208677  0.9887273647853122  0.5244052675553654
  0.0103529312214134  0.7750240835451174  0.5317274929584409
  0.2443070846214362  0.2494182758036152  0.5303052624230296
  0.5607560839224320  0.2889939848833482  0.4203300505008912
  0.7660700475048456  0.0720667786505867  0.5641567672078769
  0.9304594089370407  0.6998067857026699  0.5741019482398521
  0.3117055295343646  0.2353221955793297  0.5733201486923933
  0.5521454428626386  0.2040697939952112  0.4586025861889905
  0.7449079159351319  0.1434807179411464  0.5216374752614872
  0.8586540915488546  0.6019938380137506  0.5329781940554053
  0.4051376926685482  0.2524164589092155  0.5348881372739268
  0.6437395515252378  0.1996010452811990  0.4537933313628053
  0.8555600047466541  0.2543929998096310  0.5219838429777879
  0.7508949586294512  0.5963857849085062  0.5349741429770282
  0.3991590234836085  0.1442561058607391  0.5327047242293622
  0.7140524368647186  0.2865042225845985  0.4135223632867673
  0.9266651978892549  0.2335112331477150  0.5647139808295031
  0.7678956580330851  0.6900256296882006  0.5733030343775032
  0.3018718408414239  0.0723886742713896  0.5739096169457346
  0.6606494947327944  0.3410931404697932  0.3914245408580352
  0.8714831387372975  0.1277018320002101  0.5886772741824401
  0.8735315851026972  0.7476929831875601  0.5964955459022404
  0.2540987497954760  0.1294300298606872  0.5962434472283502
 
  0.00000000E+00  0.00000000E+00  0.00000000E+00
  0.00000000E+00  0.00000000E+00  0.00000000E+00
  0.00000000E+00  0.00000000E+00  0.00000000E+00
  0.00000000E+00  0.00000000E+00  0.00000000E+00
  0.00000000E+00  0.00000000E+00  0.00000000E+00
  0.00000000E+00  0.00000000E+00  0.00000000E+00
  0.00000000E+00  0.00000000E+00  0.00000000E+00
  0.00000000E+00  0.00000000E+00  0.00000000E+00
  0.00000000E+00  0.00000000E+00  0.00000000E+00
  0.00000000E+00  0.00000000E+00  0.00000000E+00
  0.00000000E+00  0.00000000E+00  0.00000000E+00
  0.00000000E+00  0.00000000E+00  0.00000000E+00
  0.00000000E+00  0.00000000E+00  0.00000000E+00
  0.00000000E+00  0.00000000E+00  0.00000000E+00
  0.00000000E+00  0.00000000E+00  0.00000000E+00
  0.00000000E+00  0.00000000E+00  0.00000000E+00
  0.00000000E+00  0.00000000E+00  0.00000000E+00
  0.00000000E+00  0.00000000E+00  0.00000000E+00
  0.00000000E+00  0.00000000E+00  0.00000000E+00
  0.00000000E+00  0.00000000E+00  0.00000000E+00
  0.00000000E+00  0.00000000E+00  0.00000000E+00
  0.00000000E+00  0.00000000E+00  0.00000000E+00
  0.00000000E+00  0.00000000E+00  0.00000000E+00
  0.00000000E+00  0.00000000E+00  0.00000000E+00
  0.00000000E+00  0.00000000E+00  0.00000000E+00
  0.00000000E+00  0.00000000E+00  0.00000000E+00
  0.00000000E+00  0.00000000E+00  0.00000000E+00
  0.00000000E+00  0.00000000E+00  0.00000000E+00
  0.00000000E+00  0.00000000E+00  0.00000000E+00
  0.00000000E+00  0.00000000E+00  0.00000000E+00
  0.00000000E+00  0.00000000E+00  0.00000000E+00
  0.00000000E+00  0.00000000E+00  0.00000000E+00
  0.00000000E+00  0.00000000E+00  0.00000000E+00
  0.00000000E+00  0.00000000E+00  0.00000000E+00
  0.00000000E+00  0.00000000E+00  0.00000000E+00
  0.00000000E+00  0.00000000E+00  0.00000000E+00
  0.00000000E+00  0.00000000E+00  0.00000000E+00
  0.00000000E+00  0.00000000E+00  0.00000000E+00
  0.00000000E+00  0.00000000E+00  0.00000000E+00
  0.00000000E+00  0.00000000E+00  0.00000000E+00
  0.00000000E+00  0.00000000E+00  0.00000000E+00
  0.00000000E+00  0.00000000E+00  0.00000000E+00
  0.00000000E+00  0.00000000E+00  0.00000000E+00
  0.00000000E+00  0.00000000E+00  0.00000000E+00
  0.00000000E+00  0.00000000E+00  0.00000000E+00
  0.00000000E+00  0.00000000E+00  0.00000000E+00
  0.00000000E+00  0.00000000E+00  0.00000000E+00
  0.00000000E+00  0.00000000E+00  0.00000000E+00
  0.00000000E+00  0.00000000E+00  0.00000000E+00
  0.00000000E+00  0.00000000E+00  0.00000000E+00
  0.00000000E+00  0.00000000E+00  0.00000000E+00
  0.00000000E+00  0.00000000E+00  0.00000000E+00
  0.00000000E+00  0.00000000E+00  0.00000000E+00
  0.00000000E+00  0.00000000E+00  0.00000000E+00
  0.00000000E+00  0.00000000E+00  0.00000000E+00
  0.00000000E+00  0.00000000E+00  0.00000000E+00
  0.00000000E+00  0.00000000E+00  0.00000000E+00
  0.00000000E+00  0.00000000E+00  0.00000000E+00
  0.00000000E+00  0.00000000E+00  0.00000000E+00
  0.00000000E+00  0.00000000E+00  0.00000000E+00
  0.00000000E+00  0.00000000E+00  0.00000000E+00
  0.00000000E+00  0.00000000E+00  0.00000000E+00
  0.00000000E+00  0.00000000E+00  0.00000000E+00
  0.00000000E+00  0.00000000E+00  0.00000000E+00
  0.00000000E+00  0.00000000E+00  0.00000000E+00
  0.00000000E+00  0.00000000E+00  0.00000000E+00
  0.00000000E+00  0.00000000E+00  0.00000000E+00
  0.00000000E+00  0.00000000E+00  0.00000000E+00
  0.00000000E+00  0.00000000E+00  0.00000000E+00
  0.00000000E+00  0.00000000E+00  0.00000000E+00
  0.00000000E+00  0.00000000E+00  0.00000000E+00
  0.00000000E+00  0.00000000E+00  0.00000000E+00
  0.00000000E+00  0.00000000E+00  0.00000000E+00
  0.00000000E+00  0.00000000E+00  0.00000000E+00
  0.00000000E+00  0.00000000E+00  0.00000000E+00
  0.00000000E+00  0.00000000E+00  0.00000000E+00
  0.00000000E+00  0.00000000E+00  0.00000000E+00
  0.00000000E+00  0.00000000E+00  0.00000000E+00
  0.00000000E+00  0.00000000E+00  0.00000000E+00
  0.00000000E+00  0.00000000E+00  0.00000000E+00
  0.00000000E+00  0.00000000E+00  0.00000000E+00
  0.00000000E+00  0.00000000E+00  0.00000000E+00
  0.00000000E+00  0.00000000E+00  0.00000000E+00
  0.00000000E+00  0.00000000E+00  0.00000000E+00
  0.00000000E+00  0.00000000E+00  0.00000000E+00
  0.00000000E+00  0.00000000E+00  0.00000000E+00
  0.00000000E+00  0.00000000E+00  0.00000000E+00
  0.00000000E+00  0.00000000E+00  0.00000000E+00
  0.00000000E+00  0.00000000E+00  0.00000000E+00
  0.00000000E+00  0.00000000E+00  0.00000000E+00
  0.00000000E+00  0.00000000E+00  0.00000000E+00
  0.00000000E+00  0.00000000E+00  0.00000000E+00
  0.00000000E+00  0.00000000E+00  0.00000000E+00
  0.00000000E+00  0.00000000E+00  0.00000000E+00
  0.00000000E+00  0.00000000E+00  0.00000000E+00
  0.00000000E+00  0.00000000E+00  0.00000000E+00
  0.00000000E+00  0.00000000E+00  0.00000000E+00
  0.00000000E+00  0.00000000E+00  0.00000000E+00
  0.00000000E+00  0.00000000E+00  0.00000000E+00
  0.00000000E+00  0.00000000E+00  0.00000000E+00
  0.00000000E+00  0.00000000E+00  0.00000000E+00
  0.00000000E+00  0.00000000E+00  0.00000000E+00
  0.00000000E+00  0.00000000E+00  0.00000000E+00
  0.00000000E+00  0.00000000E+00  0.00000000E+00
