Generated by VASPKIT code               
   1.00000000000000     
    20.1623646845630269    1.0333519325864184    0.0000000000000000
    -9.2212004098796125   14.5947336034030659    0.0000000000000000
     0.0000000000000015    0.0000000000000021   19.7144307193548727
   C 
   108
Direct
  0.2583292742197685  0.6656366258262523  0.4011342280469847
  0.7416694526142322  0.3343643014406794  0.4011335759203618
  0.1925720314096253  0.6020162314971529  0.4440570880006831
  0.8074274073480936  0.3979841450003789  0.4440566001765234
  0.3075195595216655  0.6273581262436139  0.3865584880089301
  0.6924793376692406  0.3726421111644243  0.3865583131227766
  0.2226183057615003  0.5424169210490248  0.4709166589868730
  0.7773812980911714  0.4575830474895284  0.4709165733883367
  0.2819268361010998  0.5479505729704854  0.4313083306755701
  0.7180724639532912  0.4520489332238071  0.4313084617917795
  0.3846303933682762  0.6869370362156104  0.3909790651465457
  0.6153690759461981  0.3130618710936304  0.3909795901890192
  0.4186028381627764  0.6413527628420113  0.4330846641681276
  0.5813972374198855  0.3586458145274207  0.4330852885853105
  0.3492106225959901  0.5588443696154783  0.4685336054765941
  0.6507889619968950  0.4411547912548173  0.4685342088383706
  0.3886826597263919  0.7690128416792135  0.4293442455591219
  0.6113176885939922  0.2309871834240695  0.4293451842085361
  0.3053810651889677  0.7403068358126603  0.4396165964821890
  0.6946192268105875  0.2596943112285501  0.4396167520948211
  0.2729474185196992  0.7384553527980842  0.5056476940239776
  0.7270531938320346  0.2615454848971268  0.5056478049145952
  0.4277322158648005  0.7648462735935269  0.4984231010382771
  0.5722679130304158  0.2351534386974521  0.4984239819650185
  0.3934982294024394  0.7705606370642712  0.5697740619404357
  0.6065021566802145  0.2294397555533365  0.5697750383545994
  0.3101339380948147  0.7422533176312598  0.5662213395536639
  0.6898668317539745  0.2577480391714602  0.5662221939540686
  0.4483579885607085  0.6955564683523150  0.4970398898205630
  0.5516422018811440  0.3044430123045672  0.4970409984868738
  0.1945008114378339  0.6035885466618041  0.5727750812051866
  0.8054996132641534  0.3964123820579886  0.5727751881425647
  0.1977211686192959  0.6572810653234740  0.5082342139209146
  0.8022792755923334  0.3427199624421533  0.5082339376031868
  0.2654554557747275  0.6694772211632340  0.6117072763065465
  0.7345451856812488  0.3305237705300428  0.6117076818983023
  0.3152434169767773  0.6349102744683464  0.6246235379401313
  0.6847581109328900  0.3650914439060529  0.6246257205214079
  0.3939580279936123  0.6920216120235168  0.6099504760125356
  0.6060429145964079  0.3079791664133182  0.6099517208390992
  0.4224007060231827  0.6394929683003312  0.5622840812243339
  0.5775991156679652  0.3605065223136492  0.5622848453033740
  0.2204176970152432  0.5412720604100656  0.5444667103952270
  0.7795819356545977  0.4587281675375365  0.5444664926907024
  0.2849471766526079  0.5536309276830806  0.5817055056638694
  0.7150529492048605  0.4463692052289190  0.5817062504091695
  0.3454479119771037  0.5740155235569517  0.5407826770135387
  0.6545519490289777  0.4259840485561099  0.5407834300234100
  0.3961164845762326  0.9192210850594051  0.5330503545966110
  0.0726065199357819  0.4629688631178439  0.5443213149890980
  0.5385541428837044  0.6247363151091321  0.5197643448075340
  0.4248120851433441  0.0106228564088013  0.5556799987940977
  0.9953878561397289  0.4035255192887206  0.5670585795474636
  0.5836866514420151  0.5843313443483353  0.5420473393356247
  0.3962917393295484  0.9196395876063477  0.4629743116696901
  0.0718108716724259  0.4627342688818956  0.4743995518107269
  0.5382818693056919  0.6231258443796150  0.4497398633350542
  0.4252352310591974  0.0110008817808378  0.4401459272010726
  0.9951683341444451  0.4033199851845808  0.4512173986624290
  0.5840342195261385  0.5847182356280811  0.4257005109128897
  0.4382351389047017  0.0667345926372818  0.4978439283315126
  0.9489374285914849  0.3616038662489203  0.5091204406197249
  0.6157529097654120  0.5673916120902405  0.4838345520335920
  0.4408250653521009  0.8779777734503966  0.4338366845184680
  0.1030907493478637  0.5549489843097604  0.4456419336262911
  0.4601213264373314  0.5779402163535039  0.4217365157080906
  0.5069673178349845  0.9629922486286020  0.4016929767980244
  0.0301704400657883  0.5452790744134290  0.4130912672763429
  0.4624390730875305  0.4947503686466561  0.3873783156365320
  0.4930340390773083  0.0370078128924121  0.4016930174142388
  0.9698299250329754  0.4547215411768946  0.4130913984114954
  0.5375586948382036  0.5052463577115773  0.3873790057634494
  0.4799334661132306  0.8650242488055966  0.4976407065970605
  0.1126046844835287  0.6158540044938192  0.5089371656278630
  0.4055973983586227  0.5260094838698777  0.4810229255728089
  0.5617656524928236  0.9332653218658962  0.4978440081045932
  0.0510626574944837  0.6383966244834980  0.5091201623291610
  0.3842457780357194  0.4326069311116711  0.4838361169615908
  0.5747656232637439  0.9889994673959492  0.4401466635697986
  0.0048318277387267  0.5966809434886855  0.4512170490393501
  0.4159634285295297  0.4152788026188929  0.4257018061456961
  0.4421950483003627  0.8787673554888400  0.5621248056767385
  0.1038564993648592  0.5561430015066335  0.5726922267410473
  0.4595250917564968  0.5770147347820611  0.5493285697594814
  0.5074309465788076  0.9633440601135561  0.5938638791365989
  0.0302366107614844  0.5455033891344883  0.6048772999609398
  0.4621131937910192  0.4944922418642790  0.5797712926074183
  0.5751882902236432  0.9893765030992867  0.5556805321494664
  0.0046127000417755  0.5964759436225080  0.5670585886648141
  0.4163134632657162  0.4156684176490657  0.5420485176337237
  0.4925691488704729  0.0366551213556505  0.5938640187467783
  0.9697640833172514  0.4544984070609956  0.6048772461079110
  0.5378873393633796  0.5055091037976780  0.5797712504328558
  0.5578059846954133  0.1212324201383481  0.5621248915823855
  0.8961439771842024  0.4438582496609769  0.5726923367833265
  0.5404750217255554  0.4229853194996096  0.5493292162283154
  0.6038838352110645  0.0807786380471498  0.5330514472211973
  0.9273939184414957  0.5370325304915653  0.5443213246878500
  0.4614458260502090  0.3752638900699381  0.5197657228179082
  0.6037086139575933  0.0803602963432652  0.4629747192488765
  0.9281892821080291  0.5372666560369197  0.4743994979756039
  0.4617158390752891  0.3768715866787744  0.4497411571139196
  0.5591753637135426  0.1220225371668278  0.4338370788562216
  0.8969093596755542  0.4450517980590405  0.4456419183334788
  0.5398767970907699  0.4220564909221522  0.4217370666837752
  0.5200668949912952  0.1349752388974039  0.4976416142450546
  0.8873955675662657  0.3841468951720799  0.5089373812923412
  0.5944014266603972  0.4739886276149292  0.4810232330671980
 
  0.00000000E+00  0.00000000E+00  0.00000000E+00
  0.00000000E+00  0.00000000E+00  0.00000000E+00
  0.00000000E+00  0.00000000E+00  0.00000000E+00
  0.00000000E+00  0.00000000E+00  0.00000000E+00
  0.00000000E+00  0.00000000E+00  0.00000000E+00
  0.00000000E+00  0.00000000E+00  0.00000000E+00
  0.00000000E+00  0.00000000E+00  0.00000000E+00
  0.00000000E+00  0.00000000E+00  0.00000000E+00
  0.00000000E+00  0.00000000E+00  0.00000000E+00
  0.00000000E+00  0.00000000E+00  0.00000000E+00
  0.00000000E+00  0.00000000E+00  0.00000000E+00
  0.00000000E+00  0.00000000E+00  0.00000000E+00
  0.00000000E+00  0.00000000E+00  0.00000000E+00
  0.00000000E+00  0.00000000E+00  0.00000000E+00
  0.00000000E+00  0.00000000E+00  0.00000000E+00
  0.00000000E+00  0.00000000E+00  0.00000000E+00
  0.00000000E+00  0.00000000E+00  0.00000000E+00
  0.00000000E+00  0.00000000E+00  0.00000000E+00
  0.00000000E+00  0.00000000E+00  0.00000000E+00
  0.00000000E+00  0.00000000E+00  0.00000000E+00
  0.00000000E+00  0.00000000E+00  0.00000000E+00
  0.00000000E+00  0.00000000E+00  0.00000000E+00
  0.00000000E+00  0.00000000E+00  0.00000000E+00
  0.00000000E+00  0.00000000E+00  0.00000000E+00
  0.00000000E+00  0.00000000E+00  0.00000000E+00
  0.00000000E+00  0.00000000E+00  0.00000000E+00
  0.00000000E+00  0.00000000E+00  0.00000000E+00
  0.00000000E+00  0.00000000E+00  0.00000000E+00
  0.00000000E+00  0.00000000E+00  0.00000000E+00
  0.00000000E+00  0.00000000E+00  0.00000000E+00
  0.00000000E+00  0.00000000E+00  0.00000000E+00
  0.00000000E+00  0.00000000E+00  0.00000000E+00
  0.00000000E+00  0.00000000E+00  0.00000000E+00
  0.00000000E+00  0.00000000E+00  0.00000000E+00
  0.00000000E+00  0.00000000E+00  0.00000000E+00
  0.00000000E+00  0.00000000E+00  0.00000000E+00
  0.00000000E+00  0.00000000E+00  0.00000000E+00
  0.00000000E+00  0.00000000E+00  0.00000000E+00
  0.00000000E+00  0.00000000E+00  0.00000000E+00
  0.00000000E+00  0.00000000E+00  0.00000000E+00
  0.00000000E+00  0.00000000E+00  0.00000000E+00
  0.00000000E+00  0.00000000E+00  0.00000000E+00
  0.00000000E+00  0.00000000E+00  0.00000000E+00
  0.00000000E+00  0.00000000E+00  0.00000000E+00
  0.00000000E+00  0.00000000E+00  0.00000000E+00
  0.00000000E+00  0.00000000E+00  0.00000000E+00
  0.00000000E+00  0.00000000E+00  0.00000000E+00
  0.00000000E+00  0.00000000E+00  0.00000000E+00
  0.00000000E+00  0.00000000E+00  0.00000000E+00
  0.00000000E+00  0.00000000E+00  0.00000000E+00
  0.00000000E+00  0.00000000E+00  0.00000000E+00
  0.00000000E+00  0.00000000E+00  0.00000000E+00
  0.00000000E+00  0.00000000E+00  0.00000000E+00
  0.00000000E+00  0.00000000E+00  0.00000000E+00
  0.00000000E+00  0.00000000E+00  0.00000000E+00
  0.00000000E+00  0.00000000E+00  0.00000000E+00
  0.00000000E+00  0.00000000E+00  0.00000000E+00
  0.00000000E+00  0.00000000E+00  0.00000000E+00
  0.00000000E+00  0.00000000E+00  0.00000000E+00
  0.00000000E+00  0.00000000E+00  0.00000000E+00
  0.00000000E+00  0.00000000E+00  0.00000000E+00
  0.00000000E+00  0.00000000E+00  0.00000000E+00
  0.00000000E+00  0.00000000E+00  0.00000000E+00
  0.00000000E+00  0.00000000E+00  0.00000000E+00
  0.00000000E+00  0.00000000E+00  0.00000000E+00
  0.00000000E+00  0.00000000E+00  0.00000000E+00
  0.00000000E+00  0.00000000E+00  0.00000000E+00
  0.00000000E+00  0.00000000E+00  0.00000000E+00
  0.00000000E+00  0.00000000E+00  0.00000000E+00
  0.00000000E+00  0.00000000E+00  0.00000000E+00
  0.00000000E+00  0.00000000E+00  0.00000000E+00
  0.00000000E+00  0.00000000E+00  0.00000000E+00
  0.00000000E+00  0.00000000E+00  0.00000000E+00
  0.00000000E+00  0.00000000E+00  0.00000000E+00
  0.00000000E+00  0.00000000E+00  0.00000000E+00
  0.00000000E+00  0.00000000E+00  0.00000000E+00
  0.00000000E+00  0.00000000E+00  0.00000000E+00
  0.00000000E+00  0.00000000E+00  0.00000000E+00
  0.00000000E+00  0.00000000E+00  0.00000000E+00
  0.00000000E+00  0.00000000E+00  0.00000000E+00
  0.00000000E+00  0.00000000E+00  0.00000000E+00
  0.00000000E+00  0.00000000E+00  0.00000000E+00
  0.00000000E+00  0.00000000E+00  0.00000000E+00
  0.00000000E+00  0.00000000E+00  0.00000000E+00
  0.00000000E+00  0.00000000E+00  0.00000000E+00
  0.00000000E+00  0.00000000E+00  0.00000000E+00
  0.00000000E+00  0.00000000E+00  0.00000000E+00
  0.00000000E+00  0.00000000E+00  0.00000000E+00
  0.00000000E+00  0.00000000E+00  0.00000000E+00
  0.00000000E+00  0.00000000E+00  0.00000000E+00
  0.00000000E+00  0.00000000E+00  0.00000000E+00
  0.00000000E+00  0.00000000E+00  0.00000000E+00
  0.00000000E+00  0.00000000E+00  0.00000000E+00
  0.00000000E+00  0.00000000E+00  0.00000000E+00
  0.00000000E+00  0.00000000E+00  0.00000000E+00
  0.00000000E+00  0.00000000E+00  0.00000000E+00
  0.00000000E+00  0.00000000E+00  0.00000000E+00
  0.00000000E+00  0.00000000E+00  0.00000000E+00
  0.00000000E+00  0.00000000E+00  0.00000000E+00
  0.00000000E+00  0.00000000E+00  0.00000000E+00
  0.00000000E+00  0.00000000E+00  0.00000000E+00
  0.00000000E+00  0.00000000E+00  0.00000000E+00
  0.00000000E+00  0.00000000E+00  0.00000000E+00
  0.00000000E+00  0.00000000E+00  0.00000000E+00
  0.00000000E+00  0.00000000E+00  0.00000000E+00
  0.00000000E+00  0.00000000E+00  0.00000000E+00
  0.00000000E+00  0.00000000E+00  0.00000000E+00
  0.00000000E+00  0.00000000E+00  0.00000000E+00
