C                                       
   1.00000000000000     
    15.4259011890616407    0.2014879294152497    0.0000000000000000
     7.1991204919025540    7.4879223953117195    0.0000000000000000
     0.0000000000000000    0.0000000000000000   16.0000000000000000
  C             
    84
Direct
  0.3901699311582779  0.7310523862814540  0.6101455040726245
  0.4956120633349876  0.5636959037771826  0.6415879065469443
  0.4323413257096532  0.7932993881747621  0.5531477913083442
  0.6031084317096570  0.4858291047310984  0.5991045047239159
  0.5775536604234898  0.6184177676404533  0.5399214384947996
  0.3715665940540938  0.8224413231797458  0.4684405229880195
  0.4676122360412586  0.7050101996764245  0.4042983170015136
  0.5953273152364801  0.5836727823077730  0.4378425124181183
  0.3057666273163847  0.7654617202564646  0.4746784690343069
  0.3078743318349231  0.7082410418663220  0.5696225539672841
  0.3880087391859229  0.5123841746566308  0.5870245964192541
  0.3656210676006191  0.6193848171276385  0.4116948226046154
  0.4228245410944646  0.4447998745415033  0.4342895325113535
  0.4212656651019751  0.3839486615464702  0.5206180231426315
  0.4513495197224281  0.6053343981458505  0.3647391943434812
  0.5984790818800068  0.2660246027676335  0.6062851152384240
  0.4897575393133884  0.4317609905385238  0.6369137814999394
  0.5622336518851828  0.2082044001978090  0.5393298237766416
  0.6283369738618413  0.1800027513638373  0.4581007762898576
  0.5381331438272587  0.3176476640217473  0.3965579351775039
  0.5645141089416044  0.4141355143970880  0.3608914433542589
  0.6828290821110191  0.2907477744475758  0.5785008609076741
  0.6879394019267454  0.2471918808083503  0.4784660247434365
  0.6433442990234191  0.3955891853493948  0.4158333875063389
  0.1301236281102818  0.7237523981800644  0.5150996498949656
  0.9974066736340391  0.8429036327320811  0.5424453150480317
  0.1652649581273104  0.8264314506707628  0.5509738142130690
  0.0491596867589073  0.9886813221514100  0.5921091058496725
  0.9562492818508753  0.9846103460421167  0.5924422967792300
  0.1696159081471702  0.9099163139481385  0.4711033386652306
  0.0807226881428183  0.1183246674602555  0.4823736582581977
  0.0054851323206727  0.1456888124748225  0.5581181318801828
  0.1221554092558819  0.8903588133022005  0.3983333856456967
  0.0263223216611019  0.0463776330898959  0.3556220819392783
  0.9779213396602606  0.2172926007275508  0.4075122256672806
  0.1030633074305494  0.7789208887458763  0.4217563128762615
  0.9854878855211627  0.8677927563910519  0.3956320068277325
  0.9374492380169200  0.0331787416172060  0.3557237797326619
  0.9090117180301535  0.8962028498044258  0.4697271577261317
  0.8205043857540967  0.1056078823039171  0.4812480722775934
  0.8552361868195290  0.1612780174125862  0.4167017655880311
  0.8783619295387247  0.2546604162146408  0.4518742075514396
  0.8697241926252512  0.2800870146204059  0.5448306524994966
  0.8311350830399502  0.1627455707969383  0.5669777550760606
  0.4244719700222180  0.0722224071208002  0.4311106905756147
  0.4283986162075610  0.0554068605211170  0.5300846794102410
  0.3576052072760242  0.2727094197039286  0.4261552539901451
  0.3379599582675915  0.3587214706386329  0.5141876283310012
  0.3596755747948035  0.2284953509366700  0.5713003344738155
  0.2429645603077334  0.3669413103161814  0.3955831806133498
  0.1547930427139617  0.4914047693684622  0.4576507434625723
  0.1954720490427315  0.5283447719548509  0.5288065635626249
  0.2199738655390963  0.2538025720877444  0.3759155829766594
  0.1024275109066569  0.3323313374713706  0.4215931289800033
  0.0910084294173860  0.4535561221996970  0.4795661990797360
  0.3218217580022975  0.0878776186117354  0.4041927425258596
  0.2936905923335609  0.0215403059163013  0.4692920378849341
  0.1501315736421764  0.1731760488739891  0.4852600191630253
  0.3621382842756770  0.9979609630696733  0.5517425691839822
  0.2556730720777071  0.1548013653106536  0.6052678539118134
  0.1460790564224367  0.2470675491314935  0.5688820343855415
  0.0647672991660993  0.4499873058207925  0.5683383988786932
  0.1544799634753669  0.4710496982664318  0.6013048082543275
  0.2618230785687390  0.2883175514916283  0.6180449004866653
  0.5748883429882456  0.8896743445020372  0.4350453216383730
  0.5649397099720016  0.9380157746720129  0.5301438013544761
  0.6632623872692979  0.6511980044697333  0.4356198302895585
  0.6761110891560445  0.6199405114699512  0.5422419906413969
  0.6395858781816736  0.7765769207936668  0.5805913160822873
  0.7797924287128174  0.5709038814709503  0.3900628821969998
  0.9082739972809638  0.4130916713208195  0.3854892767355366
  0.8051315784294097  0.4649412721150216  0.5733018326289933
  0.7744897326604796  0.7156409619376470  0.3883812117946180
  0.8873177899450616  0.6613427161278886  0.4056454623687619
  0.9716886530268389  0.4700609595087952  0.3939096880313695
  0.6689184641591712  0.8873079691427919  0.4057930952914505
  0.6991314008942802  0.9753931328132018  0.4551592785512549
  0.8488640043793795  0.8190999102862198  0.4686217221728196
  0.6285743467201157  0.0079555852345755  0.5400382161359829
  0.7371177689603844  0.8653131783786842  0.5940403761154270
  0.8516702659543985  0.7557907404296796  0.5569698063492293
  0.9315921303904977  0.5680966197953349  0.5829142168266913
  0.8483082014720381  0.5462295922247841  0.6032322489129821
  0.7348538602220204  0.7361323961122515  0.6177477212549850
 
  0.00000000E+00  0.00000000E+00  0.00000000E+00
  0.00000000E+00  0.00000000E+00  0.00000000E+00
  0.00000000E+00  0.00000000E+00  0.00000000E+00
  0.00000000E+00  0.00000000E+00  0.00000000E+00
  0.00000000E+00  0.00000000E+00  0.00000000E+00
  0.00000000E+00  0.00000000E+00  0.00000000E+00
  0.00000000E+00  0.00000000E+00  0.00000000E+00
  0.00000000E+00  0.00000000E+00  0.00000000E+00
  0.00000000E+00  0.00000000E+00  0.00000000E+00
  0.00000000E+00  0.00000000E+00  0.00000000E+00
  0.00000000E+00  0.00000000E+00  0.00000000E+00
  0.00000000E+00  0.00000000E+00  0.00000000E+00
  0.00000000E+00  0.00000000E+00  0.00000000E+00
  0.00000000E+00  0.00000000E+00  0.00000000E+00
  0.00000000E+00  0.00000000E+00  0.00000000E+00
  0.00000000E+00  0.00000000E+00  0.00000000E+00
  0.00000000E+00  0.00000000E+00  0.00000000E+00
  0.00000000E+00  0.00000000E+00  0.00000000E+00
  0.00000000E+00  0.00000000E+00  0.00000000E+00
  0.00000000E+00  0.00000000E+00  0.00000000E+00
  0.00000000E+00  0.00000000E+00  0.00000000E+00
  0.00000000E+00  0.00000000E+00  0.00000000E+00
  0.00000000E+00  0.00000000E+00  0.00000000E+00
  0.00000000E+00  0.00000000E+00  0.00000000E+00
  0.00000000E+00  0.00000000E+00  0.00000000E+00
  0.00000000E+00  0.00000000E+00  0.00000000E+00
  0.00000000E+00  0.00000000E+00  0.00000000E+00
  0.00000000E+00  0.00000000E+00  0.00000000E+00
  0.00000000E+00  0.00000000E+00  0.00000000E+00
  0.00000000E+00  0.00000000E+00  0.00000000E+00
  0.00000000E+00  0.00000000E+00  0.00000000E+00
  0.00000000E+00  0.00000000E+00  0.00000000E+00
  0.00000000E+00  0.00000000E+00  0.00000000E+00
  0.00000000E+00  0.00000000E+00  0.00000000E+00
  0.00000000E+00  0.00000000E+00  0.00000000E+00
  0.00000000E+00  0.00000000E+00  0.00000000E+00
  0.00000000E+00  0.00000000E+00  0.00000000E+00
  0.00000000E+00  0.00000000E+00  0.00000000E+00
  0.00000000E+00  0.00000000E+00  0.00000000E+00
  0.00000000E+00  0.00000000E+00  0.00000000E+00
  0.00000000E+00  0.00000000E+00  0.00000000E+00
  0.00000000E+00  0.00000000E+00  0.00000000E+00
  0.00000000E+00  0.00000000E+00  0.00000000E+00
  0.00000000E+00  0.00000000E+00  0.00000000E+00
  0.00000000E+00  0.00000000E+00  0.00000000E+00
  0.00000000E+00  0.00000000E+00  0.00000000E+00
  0.00000000E+00  0.00000000E+00  0.00000000E+00
  0.00000000E+00  0.00000000E+00  0.00000000E+00
  0.00000000E+00  0.00000000E+00  0.00000000E+00
  0.00000000E+00  0.00000000E+00  0.00000000E+00
  0.00000000E+00  0.00000000E+00  0.00000000E+00
  0.00000000E+00  0.00000000E+00  0.00000000E+00
  0.00000000E+00  0.00000000E+00  0.00000000E+00
  0.00000000E+00  0.00000000E+00  0.00000000E+00
  0.00000000E+00  0.00000000E+00  0.00000000E+00
  0.00000000E+00  0.00000000E+00  0.00000000E+00
  0.00000000E+00  0.00000000E+00  0.00000000E+00
  0.00000000E+00  0.00000000E+00  0.00000000E+00
  0.00000000E+00  0.00000000E+00  0.00000000E+00
  0.00000000E+00  0.00000000E+00  0.00000000E+00
  0.00000000E+00  0.00000000E+00  0.00000000E+00
  0.00000000E+00  0.00000000E+00  0.00000000E+00
  0.00000000E+00  0.00000000E+00  0.00000000E+00
  0.00000000E+00  0.00000000E+00  0.00000000E+00
  0.00000000E+00  0.00000000E+00  0.00000000E+00
  0.00000000E+00  0.00000000E+00  0.00000000E+00
  0.00000000E+00  0.00000000E+00  0.00000000E+00
  0.00000000E+00  0.00000000E+00  0.00000000E+00
  0.00000000E+00  0.00000000E+00  0.00000000E+00
  0.00000000E+00  0.00000000E+00  0.00000000E+00
  0.00000000E+00  0.00000000E+00  0.00000000E+00
  0.00000000E+00  0.00000000E+00  0.00000000E+00
  0.00000000E+00  0.00000000E+00  0.00000000E+00
  0.00000000E+00  0.00000000E+00  0.00000000E+00
  0.00000000E+00  0.00000000E+00  0.00000000E+00
  0.00000000E+00  0.00000000E+00  0.00000000E+00
  0.00000000E+00  0.00000000E+00  0.00000000E+00
  0.00000000E+00  0.00000000E+00  0.00000000E+00
  0.00000000E+00  0.00000000E+00  0.00000000E+00
  0.00000000E+00  0.00000000E+00  0.00000000E+00
  0.00000000E+00  0.00000000E+00  0.00000000E+00
  0.00000000E+00  0.00000000E+00  0.00000000E+00
  0.00000000E+00  0.00000000E+00  0.00000000E+00
  0.00000000E+00  0.00000000E+00  0.00000000E+00
