C 
 1.0000000000000000
    10.1372730725456854    0.0000000000000000    0.0000000000000000
     0.0000000000000000   10.1372730725456854    0.0000000000000000
     0.0000000000000000    0.0000000000000000   16.0000000000000000
 C  
  88
Direct
  0.6005572962757308 -0.0761645578036868  0.6258795131266154
  0.5132492535274024  0.0295387351174922  0.6477374663925275
  0.5287338315592178 -0.1846743378817766  0.5909903185888854
  0.3840838655894956 -0.0036887556737110  0.6094800900683197
  0.3935368267836996 -0.1343463558698114  0.5747451421250943
  0.5813270538879307 -0.2201998371204267  0.5110719949815178
  0.4799043363230205 -0.2199866203187816  0.4486413947724220
  0.3636890026057555 -0.1561348328203938  0.4878426432544947
  0.6737087670206000 -0.1129002910786949  0.4875285912255409
  0.6854600901291263 -0.0248215974395924  0.5577618987384881
  0.6574096408918497  0.1135709508478877  0.5477772764724471
  0.6339243705440739 -0.0626366661671051  0.4072291895799075
  0.6059194660427125  0.0757034274905223  0.3972345203794496
  0.6176429269131999  0.1637987157798663  0.4674765255358103
  0.5161607793847034 -0.1380544601517038  0.3794469018061633
  0.4491668551877028  0.2075509735599283  0.5624023431462302
  0.5546716813793778  0.1504557477958003  0.6096955913375937
  0.4895285659776160  0.2326022653057130  0.4780464260615510
  0.4004396750167760  0.1722854966276673  0.4200503782570140
  0.4703922693845681  0.0885200389147842  0.3632347928045835
  0.4158829849766594 -0.0419526027252988  0.3632458589702931
  0.3448828729244542  0.1052146605447733  0.5572997122666797
  0.3151577544781216  0.0835098808784631  0.4703737467569432
  0.3245698331962066 -0.0471899778119180  0.4356592149572457
  0.1648759053713124  0.4048546215401063  0.6476216849455660
  0.0970249335056020  0.2808293890508424  0.6477752964742605
  0.2923745360995653  0.3922239719448227  0.6098723574590066
  0.1747410734411038  0.1923315693381911  0.5926786527067119
  0.2938918395400218  0.2603357140150193  0.5694434939790700
  0.3079074532746660  0.4859094185314050  0.5436621872013362
  0.3448252889786096  0.4213080222264849  0.4674750600229973
  0.3261414915429133  0.2781358673050813  0.4825208002550320
  0.1750283395420473  0.5424777271762179  0.5285150202296195
  0.0875659423269584  0.4928929542202615  0.5921123536925550
 -0.0315291622324934  0.4246641811671780  0.5688429514899729
  0.1434375002296318  0.5239014091234959  0.4415759718117359
  0.0243752624304471  0.4557358367147785  0.4183076151898811
 -0.0630928056579755  0.4061165994841744  0.4819077957979671
  0.2563369378014699  0.4555861382452464  0.4011774067777316
 -0.0451305720575497  0.1989165875317198  0.5436334592818477
 -0.0301638205961180  0.2931003898245611  0.6096849923264863
 -0.0817433306667017  0.2628078691981455  0.4671806414223705
  0.0072399621202378  0.2280780239780522  0.4012463486485309
  0.0612985669477432  0.3439649994043611  0.3632352088878781
  0.2026284970313673  0.3394685890186420  0.3632833128493174
  0.0877724675648432  0.1422111585773034  0.5289923189351523
  0.1199004520067676  0.1601031951089385  0.4420609326041931
  0.2391049990872758  0.2280762399233543  0.4188417510767918
  0.0248417531304566 -0.1169442350159362  0.6277314725058755
  0.1214248575356912 -0.2172286473038724  0.6061466456214628
 -0.1005585073273178 -0.1594184613726665  0.5959418408161298
 -0.0807724357537851 -0.2857249818399110  0.5548576234714893
  0.0567956496018982 -0.3272137547295356  0.5633985436557679
 -0.1495989410808773 -0.0622968099869718  0.5358826121586748
 -0.1501910924426853 -0.1319896869135062  0.4558408882851473
 -0.1115668470631990 -0.2687214482093327  0.4679745908791748
 -0.0431160468762610  0.0334132587308778  0.5282515894514711
  0.0090869175506453  0.0374360348367443  0.4435031154784654
 -0.0555711377606081 -0.0725186833042044  0.4007628209570668
  0.0606896063081961  0.0089137320470622  0.5892134378752226
  0.1774249373852749 -0.0210239009850084  0.5389291928110060
  0.1466596753897904 -0.0040197476513931  0.4520382947723307
  0.2160385743049650 -0.1577306054670972  0.5510772610298292
  0.2154591538734252 -0.2274195892415496  0.4710377598652731
  0.1664181637349429 -0.1303277287001216  0.4109628207611896
  0.0410067256568130 -0.1728029133376153  0.3791754454353258
  0.0051704105055107 -0.2986796551878934  0.4176952275334643
  0.1090026613518556 -0.3231714057033543  0.4786506747132848
  0.7942264222908573  0.3758780328234340  0.5698658536886638
  0.8333030477732162  0.5110837034332281  0.5870816936933451
  0.7801351656191969  0.3627079075043976  0.4809956987157749
  0.8105508679302545  0.4898810437800949  0.4437730899236567
  0.8497969342624405  0.5835846334196769  0.5087185550465796
  0.6443697455320522  0.3250263367256879  0.4612503861889642
  0.5909805523494804  0.4380425977342648  0.4155874477234041
  0.6932511396972352  0.5365955257144583  0.4032007442732420
  0.5762614867157188  0.3274001874384663  0.5413918631209654
  0.4713117262060657  0.4254669592143497  0.5422637364769531
  0.4877953234254686  0.4979260615746233  0.4638960241641491
  0.6680364504260593  0.3471037811947211  0.6102829585542290
  0.6278391235727250  0.4724201825163370  0.6477779590201075
  0.5105299406384715  0.5191567309896229  0.6072187187887591
  0.7301111347073779  0.5709389581744237  0.6353971336726222
  0.6767224128473781  0.6839576851819806  0.5897427716660699
  0.5409567302966427  0.6463084373072686  0.5699839025672626
  0.5268686300213092  0.6331309641785073  0.4811082757561654
  0.6530728573728737  0.6619220450866328  0.4406928208984711
  0.7448355639056675  0.6816404658243808  0.5095980822312944
