Generated by VASPKIT code               
   1.00000000000000     
    12.0326222022903906   -0.1525129016055669    0.0000000000000000
    -6.1503203695338149   10.2381769021179636    0.0000000000000000
     0.0000000000000013    0.0000000000000023   19.7196187987630012
  C             
    84
Direct
  0.0019191035015964  0.8569471689372633  0.5206164294016716
  0.8818086227830327  0.7827574357120658  0.4838046184774086
  0.1085459986305369  0.8892868601394764  0.4730852292788379
  0.9244210636130328  0.8735987317284296  0.4201690957023810
  0.0640165903109737  0.9435642345988648  0.4169454897530687
  0.2154537953849087  0.0132105410568318  0.5175349512324700
  0.2482296266820078  0.1320573114035303  0.4680501223036752
  0.1400603607960769  0.0789523247736137  0.4118188576088856
  0.1330480285552640  0.0310129239040597  0.5723543478883285
  0.0064668251409861  0.9147495663276757  0.5804431416614189
  0.8793117858670016  0.8976695538222857  0.5946270265321600
  0.1453975966138859  0.1545916222992212  0.5689839862710335
  0.0292509431099769  0.1582550844697959  0.5734073529980324
  0.9095822549894493  0.0318220841746338  0.5826430561939512
  0.2111434558443755  0.2162652558214943  0.5040258131765664
  0.7781053504102643  0.9110468154933375  0.4816092200974923
  0.7827106318871105  0.8080661932462860  0.5257592503599995
  0.8590190466989239  0.0280587893481081  0.5209617694981252
  0.8900304524256322  0.1383805259680181  0.4795775030559106
  0.0216520640164099  0.2421054270908032  0.5107265064690266
  0.1262390753543980  0.2508863353283267  0.4656427297630785
  0.8645059481627551  0.9455594603395419  0.4203910896474756
  0.9342235452527393  0.0856483424921117  0.4151621281098540
  0.0714889471007320  0.1497801775369911  0.4123720765305372
  0.6684632882209979  0.9415536995934720  0.4802164460273119
  0.0667537381652071  0.7394839266216208  0.4617609867685987
  0.2642497611830195  0.3552017741452083  0.4826943301562720
  0.5798504962396385  0.8698511281159064  0.5386022377088797
  0.1495083633554290  0.7255619229665338  0.5177047403897284
  0.3135983188236809  0.4275287806477134  0.5488837009573290
  0.7369834392160663  0.0964006583077891  0.4990539562062584
  0.9157589152259965  0.6694766068313066  0.4842998705304727
  0.3956030629621126  0.2083134747617259  0.4732978536377692
  0.6704474135509296  0.0835088166814016  0.5719331769044850
  0.9189142672315894  0.6104370588041941  0.5510515464060285
  0.4298469765832876  0.2940636942999921  0.5454894279551625
  0.5890663597646868  0.9515281893458495  0.5926702856990401
  0.0458127950857390  0.6446389363720436  0.5728064897292885
  0.3937540377010103  0.3833778574378490  0.5790412779811386
  0.6780180974298161  0.1661747930372034  0.4589628300515130
  0.8263988102875196  0.5463870142695854  0.4416696889953562
  0.4938035890688062  0.3235089447204118  0.4329790864897666
  0.5753733994012685  0.1658290753512342  0.5042377736385790
  0.7623034895931654  0.4136375088199683  0.4836891692715697
  0.6227440120806006  0.3840195743996208  0.4744762799759571
  0.5786206501618087  0.1288549789789412  0.5693564031742486
  0.8288954985510696  0.4733310619525861  0.5522361077420805
  0.5645086246174705  0.3651669181746280  0.5440463460261766
  0.5750303831212383  0.0481031146120559  0.4156948626569501
  0.9211427628288843  0.5331761067479956  0.3977632883708917
  0.4757193745740793  0.4260121738925014  0.4127042688826733
  0.4416262083054041  0.0166260382219569  0.4280320476540755
  0.9104833113589025  0.4054725857223999  0.4114994731533808
  0.5978338769975340  0.5537911084213240  0.4209893123177810
  0.4372045063060621  0.1062266827571244  0.4797530058116978
  0.8027545239734137  0.3186101665876125  0.4613886947716698
  0.6914928780923115  0.5309060360449310  0.4558982305799041
  0.5738094085322194  0.9288348315500807  0.4256917518677718
  0.0516879057640193  0.6366855356754437  0.4080537077801060
  0.3717522531944908  0.4428981335224105  0.4351616797502957
  0.4439250596256307  0.8290553060358047  0.4463613072512839
  0.1196014084042913  0.5713946377099249  0.4303001692787749
  0.4350522596617126  0.5712384060349475  0.4649828040471501
  0.3617930246219386  0.8819092480668652  0.4465105523421388
  0.0319140756968411  0.4284342752760311  0.4315287559020272
  0.5743848363422804  0.6404500558913399  0.4562409993940645
  0.4489218269313324  0.7921742386749525  0.5157405950163449
  0.1658618495477985  0.6110828325442103  0.4954312082799172
  0.4033212576318546  0.5679373671017036  0.5357966220348547
  0.3726704594157709  0.8212700243183236  0.5587450742778450
  0.1192182963469091  0.5023980569500778  0.5424796178749053
  0.5245351987978191  0.6162579836547359  0.5726829171463189
  0.2902828347984451  0.8537608835405435  0.5167442429092137
  0.0291449026700428  0.3720299734134532  0.5043201330098522
  0.6475928643991006  0.6819427552076056  0.5255521767335776
  0.3371651993914793  0.0026474824105936  0.5355048468911545
  0.8958668789060904  0.3413458095214437  0.5220156641531861
  0.6825067035929694  0.5799214194433396  0.5263925993106504
  0.4443958638829734  0.0325038588452011  0.5921416866771959
  0.9002518870096573  0.4169187354630076  0.5755891366309543
  0.6199250990652070  0.4891118817026012  0.5768103983402041
  0.4540464870518103  0.9214107261765758  0.6050481444890037
  0.0376670251864297  0.5231184620070422  0.5874962932261270
  0.5135087903400957  0.5022339056042747  0.6006458493238738
 
  0.00000000E+00  0.00000000E+00  0.00000000E+00
  0.00000000E+00  0.00000000E+00  0.00000000E+00
  0.00000000E+00  0.00000000E+00  0.00000000E+00
  0.00000000E+00  0.00000000E+00  0.00000000E+00
  0.00000000E+00  0.00000000E+00  0.00000000E+00
  0.00000000E+00  0.00000000E+00  0.00000000E+00
  0.00000000E+00  0.00000000E+00  0.00000000E+00
  0.00000000E+00  0.00000000E+00  0.00000000E+00
  0.00000000E+00  0.00000000E+00  0.00000000E+00
  0.00000000E+00  0.00000000E+00  0.00000000E+00
  0.00000000E+00  0.00000000E+00  0.00000000E+00
  0.00000000E+00  0.00000000E+00  0.00000000E+00
  0.00000000E+00  0.00000000E+00  0.00000000E+00
  0.00000000E+00  0.00000000E+00  0.00000000E+00
  0.00000000E+00  0.00000000E+00  0.00000000E+00
  0.00000000E+00  0.00000000E+00  0.00000000E+00
  0.00000000E+00  0.00000000E+00  0.00000000E+00
  0.00000000E+00  0.00000000E+00  0.00000000E+00
  0.00000000E+00  0.00000000E+00  0.00000000E+00
  0.00000000E+00  0.00000000E+00  0.00000000E+00
  0.00000000E+00  0.00000000E+00  0.00000000E+00
  0.00000000E+00  0.00000000E+00  0.00000000E+00
  0.00000000E+00  0.00000000E+00  0.00000000E+00
  0.00000000E+00  0.00000000E+00  0.00000000E+00
  0.00000000E+00  0.00000000E+00  0.00000000E+00
  0.00000000E+00  0.00000000E+00  0.00000000E+00
  0.00000000E+00  0.00000000E+00  0.00000000E+00
  0.00000000E+00  0.00000000E+00  0.00000000E+00
  0.00000000E+00  0.00000000E+00  0.00000000E+00
  0.00000000E+00  0.00000000E+00  0.00000000E+00
  0.00000000E+00  0.00000000E+00  0.00000000E+00
  0.00000000E+00  0.00000000E+00  0.00000000E+00
  0.00000000E+00  0.00000000E+00  0.00000000E+00
  0.00000000E+00  0.00000000E+00  0.00000000E+00
  0.00000000E+00  0.00000000E+00  0.00000000E+00
  0.00000000E+00  0.00000000E+00  0.00000000E+00
  0.00000000E+00  0.00000000E+00  0.00000000E+00
  0.00000000E+00  0.00000000E+00  0.00000000E+00
  0.00000000E+00  0.00000000E+00  0.00000000E+00
  0.00000000E+00  0.00000000E+00  0.00000000E+00
  0.00000000E+00  0.00000000E+00  0.00000000E+00
  0.00000000E+00  0.00000000E+00  0.00000000E+00
  0.00000000E+00  0.00000000E+00  0.00000000E+00
  0.00000000E+00  0.00000000E+00  0.00000000E+00
  0.00000000E+00  0.00000000E+00  0.00000000E+00
  0.00000000E+00  0.00000000E+00  0.00000000E+00
  0.00000000E+00  0.00000000E+00  0.00000000E+00
  0.00000000E+00  0.00000000E+00  0.00000000E+00
  0.00000000E+00  0.00000000E+00  0.00000000E+00
  0.00000000E+00  0.00000000E+00  0.00000000E+00
  0.00000000E+00  0.00000000E+00  0.00000000E+00
  0.00000000E+00  0.00000000E+00  0.00000000E+00
  0.00000000E+00  0.00000000E+00  0.00000000E+00
  0.00000000E+00  0.00000000E+00  0.00000000E+00
  0.00000000E+00  0.00000000E+00  0.00000000E+00
  0.00000000E+00  0.00000000E+00  0.00000000E+00
  0.00000000E+00  0.00000000E+00  0.00000000E+00
  0.00000000E+00  0.00000000E+00  0.00000000E+00
  0.00000000E+00  0.00000000E+00  0.00000000E+00
  0.00000000E+00  0.00000000E+00  0.00000000E+00
  0.00000000E+00  0.00000000E+00  0.00000000E+00
  0.00000000E+00  0.00000000E+00  0.00000000E+00
  0.00000000E+00  0.00000000E+00  0.00000000E+00
  0.00000000E+00  0.00000000E+00  0.00000000E+00
  0.00000000E+00  0.00000000E+00  0.00000000E+00
  0.00000000E+00  0.00000000E+00  0.00000000E+00
  0.00000000E+00  0.00000000E+00  0.00000000E+00
  0.00000000E+00  0.00000000E+00  0.00000000E+00
  0.00000000E+00  0.00000000E+00  0.00000000E+00
  0.00000000E+00  0.00000000E+00  0.00000000E+00
  0.00000000E+00  0.00000000E+00  0.00000000E+00
  0.00000000E+00  0.00000000E+00  0.00000000E+00
  0.00000000E+00  0.00000000E+00  0.00000000E+00
  0.00000000E+00  0.00000000E+00  0.00000000E+00
  0.00000000E+00  0.00000000E+00  0.00000000E+00
  0.00000000E+00  0.00000000E+00  0.00000000E+00
  0.00000000E+00  0.00000000E+00  0.00000000E+00
  0.00000000E+00  0.00000000E+00  0.00000000E+00
  0.00000000E+00  0.00000000E+00  0.00000000E+00
  0.00000000E+00  0.00000000E+00  0.00000000E+00
  0.00000000E+00  0.00000000E+00  0.00000000E+00
  0.00000000E+00  0.00000000E+00  0.00000000E+00
  0.00000000E+00  0.00000000E+00  0.00000000E+00
  0.00000000E+00  0.00000000E+00  0.00000000E+00
