Generated by VASPKIT code               
   1.00000000000000     
    18.7035825521001833   -0.2518926820669279    0.0000000000000000
    -9.5572804864081071   17.5051233092389467    0.0000000000000000
     0.0000000000000012    0.0000000000000022   19.7157987698083694
  C             
   168
Direct
  0.5470721731167392  0.8008606837897833  0.4839059237806684
  0.4532120661508814  0.1995584082093578  0.4843817561925661
  0.5661670523471015  0.7434070375852526  0.4448070495733796
  0.4340750365711200  0.2567302447190572  0.4448256282290194
  0.4875999083611864  0.7510928151950581  0.5374123410806142
  0.5129364807603094  0.2498202734355930  0.5375596217855902
  0.5012756652611691  0.6630079603858547  0.4679544631996734
  0.4991700173512524  0.3372923543976526  0.4673218306714291
  0.4606054019759146  0.6700546001904981  0.5268627573679663
  0.5400175622571102  0.3307486412385439  0.5263311503980898
  0.4185922499612102  0.7616751102827037  0.5399518801737476
  0.5819608121358534  0.2392231549974035  0.5402534287183861
  0.3485961147459069  0.6860613264915724  0.5397750930286060
  0.6520677996666390  0.3147539950284602  0.5395237315434669
  0.3729389445095816  0.6295892834362573  0.5290620114049736
  0.6277053278524590  0.3710998283703633  0.5281959678294067
  0.4164441440841982  0.7960070335375955  0.4732106757145111
  0.5837967323743956  0.2043105561389587  0.4738436534401136
  0.4891867749821377  0.8150271254060422  0.4381862445564697
  0.5109404104892097  0.1849932623840968  0.4388485264463662
  0.4889849497872443  0.7841864076369209  0.3729326126030101
  0.5109672981849109  0.2151839773187110  0.3733761151986259
  0.3299254762461142  0.7521900579419071  0.4411217552332336
  0.6702371542790764  0.2475347848763993  0.4415712443442826
  0.3347750283665491  0.7164988006359786  0.3719272874211993
  0.6652991236835174  0.2826092329043623  0.3718937753915763
  0.4082942830524100  0.7323963668521873  0.3399554532317814
  0.5915768537644285  0.2665185681873888  0.3400322995656491
  0.2960847865713339  0.6784422076612574  0.4853593528911695
  0.7043959168267122  0.3218219423354069  0.4850463030465602
  0.4810991624285030  0.6692833198104923  0.3520380217680308
  0.5188728992693525  0.3297537201847463  0.3515259057305098
  0.5370398454709081  0.7461554192933695  0.3734402613764042
  0.4628243084293518  0.2531955655155799  0.3734549552482039
  0.4104056883538607  0.6612169237316238  0.3187936500566933
  0.5893878229188839  0.3374011677431902  0.3181714286954901
  0.3431057673001932  0.6021488000521454  0.3567436542582472
  0.6568624041356981  0.3967775721617514  0.3557266256992182
  0.2922495273287516  0.6327187227055823  0.3815375123456328
  0.7078163594053086  0.3664286561934246  0.3808431653380343
  0.2710225661817752  0.6110731328764437  0.4491090334763897
  0.7293748760185493  0.3888244878980520  0.4482790645401036
  0.4560042479030396  0.6172783884939793  0.4124574384844265
  0.5442592504197061  0.3823719193728565  0.4114617315432676
  0.3673217183312438  0.5736552566885347  0.4133131488704438
  0.6329585555371700  0.4258919992502795  0.4120078645447379
  0.3160134556392515  0.5687612193597570  0.4771992968052853
  0.6844437352512955  0.4314359649347633  0.4758858179776788
  0.0792193983428721  0.7688337149176862  0.4374373327403157
  0.0989750785777886  0.3066063259057774  0.4746881316713139
  0.8469762290422432  0.9541283638848709  0.4549148640898771
  0.9218233283268334  0.2315070103458536  0.4375299206308482
  0.9012056106105101  0.6942632918172001  0.4740102394415157
  0.1533702174321479  0.0462550862650590  0.4547523347459645
  0.0956438473761443  0.8378530414019731  0.4711293210703421
  0.0451012398613760  0.3395899944481713  0.5009328054563729
  0.8690148107602866  0.8977730422153120  0.4747729467448746
  0.9046433739467269  0.1626018160314577  0.4710332322981257
  0.9551927110904060  0.6611841983150877  0.4999624652339660
  0.1312424639671573  0.1025961781398487  0.4743911741063610
  0.1519406083302751  0.7810368636303616  0.4038665017703335
  0.1757766188380284  0.3689926002983765  0.4531709956727023
  0.7603299178633269  0.9103676113288569  0.4334772262251834
  0.8479034048233534  0.2184354131423289  0.4044894462663626
  0.8244233615190167  0.6319122333598078  0.4522885956011882
  0.2401027519355189  0.0899856230515994  0.4335685133713170
  0.2140374602143539  0.8606896706984742  0.4148894413670552
  0.1798618776908447  0.4413334155408352  0.4655299400931999
  0.7344474084537803  0.8292478176646907  0.4351159036423596
  0.7858208798969223  0.1386119268223220  0.4145991790657215
  0.8204325569977224  0.5595180607970202  0.4641309110505247
  0.2659687504690868  0.1710803987018447  0.4351467878133082
  0.1776287040928222  0.8968637999423842  0.4538705397709198
  0.1071746319434176  0.4245493214821190  0.5015106879756257
  0.8002277736129267  0.8225192009428708  0.4619866681971542
  0.8222637048374040  0.1033875055251807  0.4536307537651319
  0.8931944751064527  0.5760605913667229  0.4999089916867371
  0.2000798104342354  0.1778330530863448  0.4617099427326303
  0.1787061996646047  0.7324794349632212  0.4345139074284596
  0.2430181870534681  0.3662409893917875  0.4879579269461840
  0.7080706637015318  0.9259095928513330  0.4722263054280270
  0.8204948529691111  0.2661736783869494  0.4353468605712772
  0.7570873492692852  0.6342345341808131  0.4874096249841186
  0.2922259431153665  0.0744463887982703  0.4725310393791907
  0.2699944190827713  0.7818958446438735  0.4580440516254604
  0.2865141475618699  0.4338672254800391  0.5243707829187262
  0.6383753086635334  0.8521540282959149  0.5021546139052394
  0.7294208065776269  0.2170060462038562  0.4589762504271078
  0.7136736730111478  0.5663275331170322  0.5234187178643915
  0.3618430238990683  0.1482534298491215  0.5025742539284842
  0.2823902164440196  0.8642524768403244  0.4490633710897988
  0.2572366756957878  0.4919295269414737  0.5077822168468118
  0.6553208840850463  0.7858661446257469  0.4739000354454680
  0.7165307234872822  0.1343287379273953  0.4498921606163038
  0.7430710087181019  0.5084232419369366  0.5062970498887120
  0.3449674491940091  0.2144828422024171  0.4740621029135892
  0.1219142100542035  0.6861738794909833  0.4863262262587171
  0.2087120237170665  0.2941360681515963  0.5332285999380600
  0.7597658408462450  0.9870120000884405  0.5260398080629516
  0.8767394994958283  0.3119769557202970  0.4873598730501047
  0.7912652303594683  0.7060027856106134  0.5331784206601002
  0.2402353781972024  0.0133438942519198  0.5262479056238296
  0.1691614627146917  0.7164945541870600  0.5483344500753697
  0.2262338583799260  0.3326677888726630  0.6038007139850009
  0.7332744597056206  0.9368091873381256  0.5893472035361824
  0.8302391899654097  0.2831826065898403  0.5496918640266718
  0.7737498859701006  0.6668118461940764  0.6034663798840961
  0.2664895861205664  0.0635300777031648  0.5895494299632044
  0.2538470924770365  0.7728829302185523  0.5346848187095258
  0.2727866108122319  0.4124149753868667  0.5972587030089780
  0.6678555849104607  0.8633554439028153  0.5744890375463751
  0.7454733032305596  0.2261679761559688  0.5356596648141646
  0.7272089854206475  0.5871552290991959  0.5965190627165338
  0.3320423416341995  0.1369975815612966  0.5748374553020827
  0.0497921009309455  0.7039316983154353  0.4873226815250969
  0.1165728129173232  0.2691064233101462  0.5271066086345195
  0.8446192433843771  0.9903544331212584  0.5163336878440048
  0.9504577907304755  0.2960707662382304  0.4884959000439684
  0.8834096775006515  0.7311399195858496  0.5268975427339067
  0.1554644747591878  0.0100371373613448  0.5162513553851715
  0.0587826462277886  0.7429469365008249  0.5621771180638931
  0.0820537006759527  0.2727080959794993  0.5902983296661619
  0.8721333126866144  0.9666096067584177  0.5734693316366047
  0.9411114657010287  0.2578656348423550  0.5625298035082806
  0.9178023491924588  0.7268660194457666  0.5898444010925638
  0.1276822329953118  0.0337372101172453  0.5732350889814256
  0.1351955424369841  0.7495020260908634  0.5930403177699884
  0.1488060408933053  0.3168709879152569  0.6345041694716461
  0.7999238741336594  0.9292310880235131  0.6183980909925111
  0.8646417454038293  0.2511863523030571  0.5945209349156921
  0.8512751886437155  0.6824509215606624  0.6340408804040535
  0.1997312706489726  0.0711048758542394  0.6183169357422615
  0.0854006315124691  0.8270207604698802  0.5439733483084992
  0.0323825826288446  0.3127137810869892  0.5789102887502600
  0.8879851111546087  0.9060017594043177  0.5479942009694140
  0.9132315426314106  0.1734669230683234  0.5437074071466329
  0.9677050578043046  0.6871566003028114  0.5778836479263468
  0.1119215371868428  0.0943188915051103  0.5475678994024864
  0.1643661343079304  0.8749064594902719  0.5712586161654115
  0.0853835130181582  0.3907173336679757  0.6153472881735337
  0.8264775800641179  0.8370850409267282  0.5777006060563896
  0.8344914739016164  0.1252986117357650  0.5711507145305151
  0.9149818053826803  0.6088532952362591  0.6140628944895791
  0.1733855831978869  0.1632147482813366  0.5773642309203620
  0.1947652017997223  0.8288225375124507  0.6011638262250057
  0.1503784615823699  0.3879966384506246  0.6511499583353370
  0.7752426044440610  0.8492146085333945  0.6235992881474642
  0.8043667224506816  0.1710810187038707  0.6015431242836786
  0.8498736025204654  0.6112501077103230  0.6500319003711728
  0.2244155700370585  0.1511321439635225  0.6234624970619098
  0.2684126778019230  0.8437635760766583  0.5646601001035458
  0.2296047912711117  0.4493644466968501  0.6272664109250674
  0.6931983758680930  0.8080195034674925  0.5922005956089532
  0.7302874103730815  0.1557419476335664  0.5656875484604030
  0.7706726399352314  0.5501072049964597  0.6259528754719544
  0.3066124899246769  0.1923308277036751  0.5922966717835958
  0.2881883930881680  0.9018419632530472  0.5146865483885297
  0.2149766015004093  0.4901404800206996  0.5762220399618617
  0.6890046226877788  0.7638990510649138  0.5361324225839831
  0.7107430111149751  0.0978869464584173  0.5141037294884719
  0.7853036766945058  0.5097331900708203  0.5745825436821060
  0.3110546504612808  0.2364623135955595  0.5361526039038023
  0.2259006425789781  0.9322929300059302  0.5191760299047711
  0.1238383981934796  0.4534323446606200  0.5686917004487952
  0.7749660010602913  0.7724415678411179  0.5254485422194515
  0.7735735170622342  0.0679476828105453  0.5187781989956526
  0.8764425300500405  0.5467137236009971  0.5669305425791735
  0.2250865662073106  0.2278359806010902  0.5251815356813864
 
  0.00000000E+00  0.00000000E+00  0.00000000E+00
  0.00000000E+00  0.00000000E+00  0.00000000E+00
  0.00000000E+00  0.00000000E+00  0.00000000E+00
  0.00000000E+00  0.00000000E+00  0.00000000E+00
  0.00000000E+00  0.00000000E+00  0.00000000E+00
  0.00000000E+00  0.00000000E+00  0.00000000E+00
  0.00000000E+00  0.00000000E+00  0.00000000E+00
  0.00000000E+00  0.00000000E+00  0.00000000E+00
  0.00000000E+00  0.00000000E+00  0.00000000E+00
  0.00000000E+00  0.00000000E+00  0.00000000E+00
  0.00000000E+00  0.00000000E+00  0.00000000E+00
  0.00000000E+00  0.00000000E+00  0.00000000E+00
  0.00000000E+00  0.00000000E+00  0.00000000E+00
  0.00000000E+00  0.00000000E+00  0.00000000E+00
  0.00000000E+00  0.00000000E+00  0.00000000E+00
  0.00000000E+00  0.00000000E+00  0.00000000E+00
  0.00000000E+00  0.00000000E+00  0.00000000E+00
  0.00000000E+00  0.00000000E+00  0.00000000E+00
  0.00000000E+00  0.00000000E+00  0.00000000E+00
  0.00000000E+00  0.00000000E+00  0.00000000E+00
  0.00000000E+00  0.00000000E+00  0.00000000E+00
  0.00000000E+00  0.00000000E+00  0.00000000E+00
  0.00000000E+00  0.00000000E+00  0.00000000E+00
  0.00000000E+00  0.00000000E+00  0.00000000E+00
  0.00000000E+00  0.00000000E+00  0.00000000E+00
  0.00000000E+00  0.00000000E+00  0.00000000E+00
  0.00000000E+00  0.00000000E+00  0.00000000E+00
  0.00000000E+00  0.00000000E+00  0.00000000E+00
  0.00000000E+00  0.00000000E+00  0.00000000E+00
  0.00000000E+00  0.00000000E+00  0.00000000E+00
  0.00000000E+00  0.00000000E+00  0.00000000E+00
  0.00000000E+00  0.00000000E+00  0.00000000E+00
  0.00000000E+00  0.00000000E+00  0.00000000E+00
  0.00000000E+00  0.00000000E+00  0.00000000E+00
  0.00000000E+00  0.00000000E+00  0.00000000E+00
  0.00000000E+00  0.00000000E+00  0.00000000E+00
  0.00000000E+00  0.00000000E+00  0.00000000E+00
  0.00000000E+00  0.00000000E+00  0.00000000E+00
  0.00000000E+00  0.00000000E+00  0.00000000E+00
  0.00000000E+00  0.00000000E+00  0.00000000E+00
  0.00000000E+00  0.00000000E+00  0.00000000E+00
  0.00000000E+00  0.00000000E+00  0.00000000E+00
  0.00000000E+00  0.00000000E+00  0.00000000E+00
  0.00000000E+00  0.00000000E+00  0.00000000E+00
  0.00000000E+00  0.00000000E+00  0.00000000E+00
  0.00000000E+00  0.00000000E+00  0.00000000E+00
  0.00000000E+00  0.00000000E+00  0.00000000E+00
  0.00000000E+00  0.00000000E+00  0.00000000E+00
  0.00000000E+00  0.00000000E+00  0.00000000E+00
  0.00000000E+00  0.00000000E+00  0.00000000E+00
  0.00000000E+00  0.00000000E+00  0.00000000E+00
  0.00000000E+00  0.00000000E+00  0.00000000E+00
  0.00000000E+00  0.00000000E+00  0.00000000E+00
  0.00000000E+00  0.00000000E+00  0.00000000E+00
  0.00000000E+00  0.00000000E+00  0.00000000E+00
  0.00000000E+00  0.00000000E+00  0.00000000E+00
  0.00000000E+00  0.00000000E+00  0.00000000E+00
  0.00000000E+00  0.00000000E+00  0.00000000E+00
  0.00000000E+00  0.00000000E+00  0.00000000E+00
  0.00000000E+00  0.00000000E+00  0.00000000E+00
  0.00000000E+00  0.00000000E+00  0.00000000E+00
  0.00000000E+00  0.00000000E+00  0.00000000E+00
  0.00000000E+00  0.00000000E+00  0.00000000E+00
  0.00000000E+00  0.00000000E+00  0.00000000E+00
  0.00000000E+00  0.00000000E+00  0.00000000E+00
  0.00000000E+00  0.00000000E+00  0.00000000E+00
  0.00000000E+00  0.00000000E+00  0.00000000E+00
  0.00000000E+00  0.00000000E+00  0.00000000E+00
  0.00000000E+00  0.00000000E+00  0.00000000E+00
  0.00000000E+00  0.00000000E+00  0.00000000E+00
  0.00000000E+00  0.00000000E+00  0.00000000E+00
  0.00000000E+00  0.00000000E+00  0.00000000E+00
  0.00000000E+00  0.00000000E+00  0.00000000E+00
  0.00000000E+00  0.00000000E+00  0.00000000E+00
  0.00000000E+00  0.00000000E+00  0.00000000E+00
  0.00000000E+00  0.00000000E+00  0.00000000E+00
  0.00000000E+00  0.00000000E+00  0.00000000E+00
  0.00000000E+00  0.00000000E+00  0.00000000E+00
  0.00000000E+00  0.00000000E+00  0.00000000E+00
  0.00000000E+00  0.00000000E+00  0.00000000E+00
  0.00000000E+00  0.00000000E+00  0.00000000E+00
  0.00000000E+00  0.00000000E+00  0.00000000E+00
  0.00000000E+00  0.00000000E+00  0.00000000E+00
  0.00000000E+00  0.00000000E+00  0.00000000E+00
  0.00000000E+00  0.00000000E+00  0.00000000E+00
  0.00000000E+00  0.00000000E+00  0.00000000E+00
  0.00000000E+00  0.00000000E+00  0.00000000E+00
  0.00000000E+00  0.00000000E+00  0.00000000E+00
  0.00000000E+00  0.00000000E+00  0.00000000E+00
  0.00000000E+00  0.00000000E+00  0.00000000E+00
  0.00000000E+00  0.00000000E+00  0.00000000E+00
  0.00000000E+00  0.00000000E+00  0.00000000E+00
  0.00000000E+00  0.00000000E+00  0.00000000E+00
  0.00000000E+00  0.00000000E+00  0.00000000E+00
  0.00000000E+00  0.00000000E+00  0.00000000E+00
  0.00000000E+00  0.00000000E+00  0.00000000E+00
  0.00000000E+00  0.00000000E+00  0.00000000E+00
  0.00000000E+00  0.00000000E+00  0.00000000E+00
  0.00000000E+00  0.00000000E+00  0.00000000E+00
  0.00000000E+00  0.00000000E+00  0.00000000E+00
  0.00000000E+00  0.00000000E+00  0.00000000E+00
  0.00000000E+00  0.00000000E+00  0.00000000E+00
  0.00000000E+00  0.00000000E+00  0.00000000E+00
  0.00000000E+00  0.00000000E+00  0.00000000E+00
  0.00000000E+00  0.00000000E+00  0.00000000E+00
  0.00000000E+00  0.00000000E+00  0.00000000E+00
  0.00000000E+00  0.00000000E+00  0.00000000E+00
  0.00000000E+00  0.00000000E+00  0.00000000E+00
  0.00000000E+00  0.00000000E+00  0.00000000E+00
  0.00000000E+00  0.00000000E+00  0.00000000E+00
  0.00000000E+00  0.00000000E+00  0.00000000E+00
  0.00000000E+00  0.00000000E+00  0.00000000E+00
  0.00000000E+00  0.00000000E+00  0.00000000E+00
  0.00000000E+00  0.00000000E+00  0.00000000E+00
  0.00000000E+00  0.00000000E+00  0.00000000E+00
  0.00000000E+00  0.00000000E+00  0.00000000E+00
  0.00000000E+00  0.00000000E+00  0.00000000E+00
  0.00000000E+00  0.00000000E+00  0.00000000E+00
  0.00000000E+00  0.00000000E+00  0.00000000E+00
  0.00000000E+00  0.00000000E+00  0.00000000E+00
  0.00000000E+00  0.00000000E+00  0.00000000E+00
  0.00000000E+00  0.00000000E+00  0.00000000E+00
  0.00000000E+00  0.00000000E+00  0.00000000E+00
  0.00000000E+00  0.00000000E+00  0.00000000E+00
  0.00000000E+00  0.00000000E+00  0.00000000E+00
  0.00000000E+00  0.00000000E+00  0.00000000E+00
  0.00000000E+00  0.00000000E+00  0.00000000E+00
  0.00000000E+00  0.00000000E+00  0.00000000E+00
  0.00000000E+00  0.00000000E+00  0.00000000E+00
  0.00000000E+00  0.00000000E+00  0.00000000E+00
  0.00000000E+00  0.00000000E+00  0.00000000E+00
  0.00000000E+00  0.00000000E+00  0.00000000E+00
  0.00000000E+00  0.00000000E+00  0.00000000E+00
  0.00000000E+00  0.00000000E+00  0.00000000E+00
  0.00000000E+00  0.00000000E+00  0.00000000E+00
  0.00000000E+00  0.00000000E+00  0.00000000E+00
  0.00000000E+00  0.00000000E+00  0.00000000E+00
  0.00000000E+00  0.00000000E+00  0.00000000E+00
  0.00000000E+00  0.00000000E+00  0.00000000E+00
  0.00000000E+00  0.00000000E+00  0.00000000E+00
  0.00000000E+00  0.00000000E+00  0.00000000E+00
  0.00000000E+00  0.00000000E+00  0.00000000E+00
  0.00000000E+00  0.00000000E+00  0.00000000E+00
  0.00000000E+00  0.00000000E+00  0.00000000E+00
  0.00000000E+00  0.00000000E+00  0.00000000E+00
  0.00000000E+00  0.00000000E+00  0.00000000E+00
  0.00000000E+00  0.00000000E+00  0.00000000E+00
  0.00000000E+00  0.00000000E+00  0.00000000E+00
  0.00000000E+00  0.00000000E+00  0.00000000E+00
  0.00000000E+00  0.00000000E+00  0.00000000E+00
  0.00000000E+00  0.00000000E+00  0.00000000E+00
  0.00000000E+00  0.00000000E+00  0.00000000E+00
  0.00000000E+00  0.00000000E+00  0.00000000E+00
  0.00000000E+00  0.00000000E+00  0.00000000E+00
  0.00000000E+00  0.00000000E+00  0.00000000E+00
  0.00000000E+00  0.00000000E+00  0.00000000E+00
  0.00000000E+00  0.00000000E+00  0.00000000E+00
  0.00000000E+00  0.00000000E+00  0.00000000E+00
  0.00000000E+00  0.00000000E+00  0.00000000E+00
  0.00000000E+00  0.00000000E+00  0.00000000E+00
  0.00000000E+00  0.00000000E+00  0.00000000E+00
  0.00000000E+00  0.00000000E+00  0.00000000E+00
  0.00000000E+00  0.00000000E+00  0.00000000E+00
  0.00000000E+00  0.00000000E+00  0.00000000E+00
  0.00000000E+00  0.00000000E+00  0.00000000E+00
  0.00000000E+00  0.00000000E+00  0.00000000E+00
  0.00000000E+00  0.00000000E+00  0.00000000E+00
  0.00000000E+00  0.00000000E+00  0.00000000E+00
