Generated by VASPKIT code               
   1.00000000000000     
    11.6130574738788681   -0.3435484150339530    0.0000000000000000
    -6.0877519510723639   10.4956755728233855    0.0000000000000000
     0.0000000000000012    0.0000000000000023   19.7125322388415398
   C 
    84
Direct
  0.2744569029568353  0.8296033153811280  0.4642858587655994
  0.3521935643470613  0.8695944533692881  0.5340879894876878
  0.3800033582146440  0.8376010024214935  0.4164869246855289
  0.4932571216649322  0.8893124258214016  0.5307536122043786
  0.5197721434443920  0.8767358125467197  0.4516180077381904
  0.3311641493758302  0.7227150492942158  0.3798702114243753
  0.4299145451384376  0.6836864301191312  0.3715200200704984
  0.5126114941041209  0.7593471019353473  0.4306519770559518
  0.2113303374536741  0.6197714917514787  0.4145146795405097
  0.1530730477645506  0.6719775674615107  0.4665682341815298
  0.1826987948467007  0.6390659104457725  0.5355585328381167
  0.2427991705586692  0.5250578519754612  0.4275462628425615
  0.2081933094663952  0.4483707202366460  0.4913372995429839
  0.1680515797081625  0.5107569972172072  0.5524106628925054
  0.3713539228902718  0.5565620709223182  0.3976585620826896
  0.3591442872145834  0.7135443544559337  0.6073825657194334
  0.2714686145586001  0.7457354025444900  0.5734637055721166
  0.2982062800858145  0.5720330293590123  0.5997249224620873
  0.3977799515572826  0.5597366398741670  0.5727263261365749
  0.3545561086727176  0.4660782773366137  0.5156042114967576
  0.4524672792430806  0.5492585870708382  0.4586687568178860
  0.4881122721440576  0.7886128357825228  0.5801336392058687
  0.5229578468032869  0.6933538463374376  0.5539860093226707
  0.4850920961744905  0.6784762923342385  0.4815990452072754
  0.9444621740507060  0.2586171315463019  0.5925491148566877
  0.8590900220575932  0.7528176615463664  0.5913955380457381
  0.3091180427066647  0.0520130237374374  0.5856463177314382
  0.7993421116013195  0.2035175219300314  0.5988693639278608
  0.9306211282799879  0.6822550775023046  0.5851245198585744
  0.3891849779788146  0.1932857379264590  0.5942327403707637
  0.0128348218103156  0.3776306541416972  0.5471976309856217
  0.7195818935261755  0.6584910657189269  0.5853141367097265
  0.3653697496717498  0.0032701684133372  0.5335111563113557
  0.8792149412639318  0.3793099887098066  0.5180588204716159
  0.7060284730407815  0.5382310205819394  0.5707926726814279
  0.4986150414836104  0.1395211937468943  0.5080533875436402
  0.7560976898478273  0.2623188133947849  0.5554884578349970
  0.8338650121777889  0.5484673223427521  0.5727053871758940
  0.4905556549984738  0.2423904147636691  0.5477153755195090
  0.0598663851400971  0.3242130065644560  0.4864071253773403
  0.6534826089593224  0.6987258767466074  0.5351768193737172
  0.2639652443587508  0.9516788185379141  0.4703282091235366
  0.9570797953447254  0.2914527132518998  0.4300076030175006
  0.6019295318340667  0.5826767199051375  0.4749205081921559
  0.3247518710851267  0.0556644174492007  0.4178917298104352
  0.8573374049282450  0.3128182406357922  0.4509543258124751
  0.6288401498321363  0.4778055707740592  0.5061619234594303
  0.4528122883169345  0.1602205261319369  0.4397102174411458
  0.0259765013194695  0.1832538659935494  0.5015124478606197
  0.7818425235430269  0.8329620187963442  0.4989688873695641
  0.1409401745819707  0.9586799945581888  0.4962600282268994
  0.9107824619724596  0.0841189096483745  0.4557229023594189
  0.8064504754385382  0.7732495338326260  0.4363751434117304
  0.1313212545627849  0.0540100181724696  0.4505502075792975
  0.8804489053372535  0.1527802081690766  0.4118767981872651
  0.7119079406819964  0.6445762884838473  0.4234554823334378
  0.2414305442183675  0.1061479993545120  0.4049528840893117
  0.9524461775448358  0.1552846119393294  0.5676187793467875
  0.9006773339729079  0.8479544752214068  0.5417139016898815
  0.1860038144878899  0.0277354612040810  0.5634610185962927
  0.8204145340948799  0.0363566988928028  0.5625594705406698
  0.0088749273032889  0.8416387167945558  0.5005475210352728
  0.1851086188287354  0.1442635833916199  0.5619304222648651
  0.7885306577469464  0.9664922195791448  0.4928270347266874
  0.9382602096927997  0.7882419399099305  0.4346310474109600
  0.1408388946917967  0.1628316126901552  0.4938060357500405
  0.7260732238257077  0.0643693107577334  0.5832644565354101
  0.0098422867458012  0.7284954978286109  0.5287370988500726
  0.3072617417266272  0.2506323625152973  0.5827688993142743
  0.6227098027306823  0.0268242686894453  0.5297001120735416
  0.0026580337665578  0.6370089988673087  0.4748481776300224
  0.3648162786161535  0.3489076149158947  0.5243186143198812
  0.6669077731435422  0.9869869305492500  0.4633430482305130
  0.9308851703896650  0.6712895565391435  0.4209065083085548
  0.2726690551497768  0.2714566524648490  0.4685127276131738
  0.7367541454541850  0.1011887735317814  0.4184406135097447
  0.7875950878016837  0.5784138277002313  0.4176415799028206
  0.3272011066177853  0.2477499173932927  0.4135899560019638
  0.7224346762038465  0.1992808307669094  0.4436945004435486
  0.7486365797163828  0.4851214995353672  0.4665917667193966
  0.4590887965492811  0.2787003826922003  0.4362971196950909
  0.6386294199514353  0.1591554438781984  0.5094196680317893
  0.8699576397638182  0.4995603218968228  0.5094195176822112
  0.4989100391434533  0.3499075008515078  0.5047019838933338
 
  0.00000000E+00  0.00000000E+00  0.00000000E+00
  0.00000000E+00  0.00000000E+00  0.00000000E+00
  0.00000000E+00  0.00000000E+00  0.00000000E+00
  0.00000000E+00  0.00000000E+00  0.00000000E+00
  0.00000000E+00  0.00000000E+00  0.00000000E+00
  0.00000000E+00  0.00000000E+00  0.00000000E+00
  0.00000000E+00  0.00000000E+00  0.00000000E+00
  0.00000000E+00  0.00000000E+00  0.00000000E+00
  0.00000000E+00  0.00000000E+00  0.00000000E+00
  0.00000000E+00  0.00000000E+00  0.00000000E+00
  0.00000000E+00  0.00000000E+00  0.00000000E+00
  0.00000000E+00  0.00000000E+00  0.00000000E+00
  0.00000000E+00  0.00000000E+00  0.00000000E+00
  0.00000000E+00  0.00000000E+00  0.00000000E+00
  0.00000000E+00  0.00000000E+00  0.00000000E+00
  0.00000000E+00  0.00000000E+00  0.00000000E+00
  0.00000000E+00  0.00000000E+00  0.00000000E+00
  0.00000000E+00  0.00000000E+00  0.00000000E+00
  0.00000000E+00  0.00000000E+00  0.00000000E+00
  0.00000000E+00  0.00000000E+00  0.00000000E+00
  0.00000000E+00  0.00000000E+00  0.00000000E+00
  0.00000000E+00  0.00000000E+00  0.00000000E+00
  0.00000000E+00  0.00000000E+00  0.00000000E+00
  0.00000000E+00  0.00000000E+00  0.00000000E+00
  0.00000000E+00  0.00000000E+00  0.00000000E+00
  0.00000000E+00  0.00000000E+00  0.00000000E+00
  0.00000000E+00  0.00000000E+00  0.00000000E+00
  0.00000000E+00  0.00000000E+00  0.00000000E+00
  0.00000000E+00  0.00000000E+00  0.00000000E+00
  0.00000000E+00  0.00000000E+00  0.00000000E+00
  0.00000000E+00  0.00000000E+00  0.00000000E+00
  0.00000000E+00  0.00000000E+00  0.00000000E+00
  0.00000000E+00  0.00000000E+00  0.00000000E+00
  0.00000000E+00  0.00000000E+00  0.00000000E+00
  0.00000000E+00  0.00000000E+00  0.00000000E+00
  0.00000000E+00  0.00000000E+00  0.00000000E+00
  0.00000000E+00  0.00000000E+00  0.00000000E+00
  0.00000000E+00  0.00000000E+00  0.00000000E+00
  0.00000000E+00  0.00000000E+00  0.00000000E+00
  0.00000000E+00  0.00000000E+00  0.00000000E+00
  0.00000000E+00  0.00000000E+00  0.00000000E+00
  0.00000000E+00  0.00000000E+00  0.00000000E+00
  0.00000000E+00  0.00000000E+00  0.00000000E+00
  0.00000000E+00  0.00000000E+00  0.00000000E+00
  0.00000000E+00  0.00000000E+00  0.00000000E+00
  0.00000000E+00  0.00000000E+00  0.00000000E+00
  0.00000000E+00  0.00000000E+00  0.00000000E+00
  0.00000000E+00  0.00000000E+00  0.00000000E+00
  0.00000000E+00  0.00000000E+00  0.00000000E+00
  0.00000000E+00  0.00000000E+00  0.00000000E+00
  0.00000000E+00  0.00000000E+00  0.00000000E+00
  0.00000000E+00  0.00000000E+00  0.00000000E+00
  0.00000000E+00  0.00000000E+00  0.00000000E+00
  0.00000000E+00  0.00000000E+00  0.00000000E+00
  0.00000000E+00  0.00000000E+00  0.00000000E+00
  0.00000000E+00  0.00000000E+00  0.00000000E+00
  0.00000000E+00  0.00000000E+00  0.00000000E+00
  0.00000000E+00  0.00000000E+00  0.00000000E+00
  0.00000000E+00  0.00000000E+00  0.00000000E+00
  0.00000000E+00  0.00000000E+00  0.00000000E+00
  0.00000000E+00  0.00000000E+00  0.00000000E+00
  0.00000000E+00  0.00000000E+00  0.00000000E+00
  0.00000000E+00  0.00000000E+00  0.00000000E+00
  0.00000000E+00  0.00000000E+00  0.00000000E+00
  0.00000000E+00  0.00000000E+00  0.00000000E+00
  0.00000000E+00  0.00000000E+00  0.00000000E+00
  0.00000000E+00  0.00000000E+00  0.00000000E+00
  0.00000000E+00  0.00000000E+00  0.00000000E+00
  0.00000000E+00  0.00000000E+00  0.00000000E+00
  0.00000000E+00  0.00000000E+00  0.00000000E+00
  0.00000000E+00  0.00000000E+00  0.00000000E+00
  0.00000000E+00  0.00000000E+00  0.00000000E+00
  0.00000000E+00  0.00000000E+00  0.00000000E+00
  0.00000000E+00  0.00000000E+00  0.00000000E+00
  0.00000000E+00  0.00000000E+00  0.00000000E+00
  0.00000000E+00  0.00000000E+00  0.00000000E+00
  0.00000000E+00  0.00000000E+00  0.00000000E+00
  0.00000000E+00  0.00000000E+00  0.00000000E+00
  0.00000000E+00  0.00000000E+00  0.00000000E+00
  0.00000000E+00  0.00000000E+00  0.00000000E+00
  0.00000000E+00  0.00000000E+00  0.00000000E+00
  0.00000000E+00  0.00000000E+00  0.00000000E+00
  0.00000000E+00  0.00000000E+00  0.00000000E+00
  0.00000000E+00  0.00000000E+00  0.00000000E+00
