C                                       
   1.00000000000000     
    12.6311467035072145    0.3401464025324906    0.0000000000000000
     0.3294599657777482   12.2371571846780220    0.0000000000000000
     0.0000000000000000    0.0000000000000000   16.0000000000000000
  C             
   104
Direct
  0.6341604835751897  0.4266659277360702  0.5482259798413950
  0.6108048974051073  0.3474943805722408  0.4821882957133151
  0.6807577258263580  0.5268254397374993  0.5121662832361975
  0.5543888842168397  0.4379273040632046  0.4269177696913574
  0.5935523142582804  0.5412133022546652  0.4458313253394503
  0.6376801958658788  0.6178213407945239  0.5858695277260161
  0.5518899724721050  0.6873500235636467  0.5402689780421955
  0.5234019453746435  0.6294544295949422  0.4609141783128786
  0.5672784753050573  0.5441225707130327  0.6422143308161997
  0.5716719469066657  0.4308681512146492  0.6173390000563848
  0.4866207217330936  0.3577666132873198  0.6007668685661125
  0.4617868940275741  0.5831242788938409  0.6464069549472469
  0.3698727511860283  0.5135395128212028  0.6358009591557422
  0.3797569567241428  0.4031227776871000  0.6087780575426610
  0.4526545390691684  0.6786189832148719  0.5921689235803029
  0.4150956813520670  0.3488360422601760  0.4792721344755699
  0.5089755262835279  0.2871236898549923  0.5214201078089189
  0.3103091135550667  0.3772497094534278  0.5233021325607596
  0.2757477460383310  0.4991669024556779  0.5016432465902401
  0.2979962208119512  0.5762536681884791  0.5762996944394290
  0.3707165482906029  0.6572398980561747  0.5394031041060072
  0.4419640686644897  0.4327187406483105  0.4269409158467849
  0.3658387065516904  0.5235595268293409  0.4383235223193794
  0.4118751018615019  0.6199471814644945  0.4588307323630218
  0.8668401533927208  0.3486259786709132  0.5779901911541646
  0.8701913729792516  0.4530201273163290  0.5407649844200522
  0.9751752345960837  0.2983182752909336  0.5782680917895405
  0.0442263157832499  0.3690156952881676  0.5391172800586013
  0.9818267694361514  0.4662806413770649  0.5133719849636076
  0.9779458163182289  0.1942876352882811  0.5447327388914187
  0.0510662057544266  0.1961335619152978  0.4699898888702986
  0.1059469889045778  0.3199246787094792  0.4682629306252628
  0.8654399923010059  0.1718737328401596  0.5210572943246360
  0.8693808701742580  0.1937913009323916  0.4282672937609363
  0.9716600035933572  0.2073582271154554  0.4004770215670441
  0.7961858649766321  0.2756165596692135  0.5434721482697250
  0.7248880632926648  0.3106328145250482  0.4718509464055559
  0.7934003056662282  0.2770022169267075  0.4023170508460342
  0.7884536888813629  0.4815303953073067  0.4799793217480709
  0.8536209237034524  0.4602874089536276  0.4009527820902266
  0.8553757114996908  0.3576463558233488  0.3635039589556439
  0.9683709919732248  0.3118211870289642  0.3602809074730596
  0.0410944868101743  0.3829965054166400  0.3907735058383871
  0.9674874474415612  0.4852995889311189  0.4126287397190913
  0.0743412811457560  0.7965033945131452  0.6171503651863124
  0.0905209854581106  0.6782392392120633  0.6201425473280527
  0.9692105263652540  0.8256991005142235  0.5795145033074822
  0.9178749876722725  0.7175148136776285  0.5514336607322845
  0.0051161343400385  0.6383370672522596  0.5797051651181476
  0.9887481388747352  0.8926394915268400  0.4984639856548645
  0.9744955938600876  0.8093972094617612  0.4284405900995381
  0.9085879634517567  0.7139606842210000  0.4519655863877509
  0.1071840048443892  0.9089209848841099  0.4935847126157798
  0.1533118956938015  0.8493493048527936  0.4110005933798249
  0.0593234773545256  0.7884808502965280  0.3775234096762324
  0.1504939420346829  0.8389531232622119  0.5652787890378964
  0.2166115678199241  0.7513486416634801  0.5329628909331922
  0.2132293107264685  0.7493747554149174  0.4458625251461101
  0.1923299777509286  0.6436359504840062  0.5728824486264480
  0.1625892903861971  0.5714913919711108  0.4951996698902120
  0.1707181167183686  0.6481174919949554  0.4215089059997488
  0.0765159769515588  0.6685264473617987  0.3793736236638550
  0.9896682754464194  0.6097671524478386  0.4239576401001628
  0.0396046233187188  0.5687943031684670  0.5096194812650535
  0.8137174680494689  0.0675925973238193  0.5365581202812587
  0.7535006396625689  0.0381986344398022  0.6145532067501919
  0.7198269016416872  0.0700149034155552  0.4751400169266127
  0.6092729160308803  0.0822868917374447  0.5136035464294475
  0.6422698929317031  0.0471656255027584  0.6006678110066686
  0.7334515203672651  0.9799467154368362  0.4207533963739649
  0.6437203004761688  0.9125667793369971  0.4221326982801293
  0.5647601584545350  0.9795032749989310  0.4691103073935802
  0.8157436612510888  0.9082804541805956  0.4475006192551413
  0.7873957543345267  0.7886985904236968  0.4610456241126555
  0.6656240230222712  0.8083826250306063  0.4506411233067192
  0.8768882553596152  0.9556761745862395  0.5145087476967145
  0.8575030709061698  0.8792358692443472  0.5915854452758205
  0.8044558404060222  0.7738658512619154  0.5589094365339001
  0.7811055227478693  0.9323766806291379  0.6486287329992444
  0.6876513028584287  0.8694637673236526  0.6492549240326739
  0.6946448180630168  0.7661263026988164  0.5982639242407374
  0.6022851533987303  0.7920356151682231  0.5297769232954355
  0.5402101305847061  0.9073528389154754  0.5491409218602987
  0.6063844973538407  0.9435408242397004  0.6184118247544821
  0.2629853004078493  0.0036280367210822  0.5366522745918663
  0.3054983866572819  0.1065886641401371  0.5570484919858214
  0.3469798573038854  0.9311763354141052  0.5106762620744933
  0.4366243973563382  0.9677886352579181  0.5519110437849232
  0.4220592072068979  0.0879512413626489  0.5617974570725914
  0.3383369506128349  0.9194422703347492  0.4214931031678600
  0.4074239540618722  0.9765887999342441  0.3697428614192208
  0.4924945925364214  0.0259975340616687  0.4083376929554371
  0.2236030866786745  0.9502847874576940  0.3960859730540320
  0.2366161588979064  0.0516885011745128  0.3429492121292997
  0.3440345664605013  0.0670126389646798  0.3324655845473188
  0.1721893936943932  0.0060619222055895  0.4799090384410277
  0.1471377774923632  0.1255355391226451  0.4662486107654061
  0.1978688564665038  0.1473460032611102  0.3845164157210905
  0.2334266528587028  0.1818014209132518  0.5196469066835963
  0.2321889337128004  0.2926222024894409  0.4824712716490224
  0.2743890070036019  0.2277972839905852  0.4011305547478305
  0.3733138956448982  0.1710807770866435  0.3733133050742534
  0.4639370322381128  0.1386347047119033  0.4214404597440307
  0.5053862387811454  0.1611616411966943  0.5101946822989971
 
  0.00000000E+00  0.00000000E+00  0.00000000E+00
  0.00000000E+00  0.00000000E+00  0.00000000E+00
  0.00000000E+00  0.00000000E+00  0.00000000E+00
  0.00000000E+00  0.00000000E+00  0.00000000E+00
  0.00000000E+00  0.00000000E+00  0.00000000E+00
  0.00000000E+00  0.00000000E+00  0.00000000E+00
  0.00000000E+00  0.00000000E+00  0.00000000E+00
  0.00000000E+00  0.00000000E+00  0.00000000E+00
  0.00000000E+00  0.00000000E+00  0.00000000E+00
  0.00000000E+00  0.00000000E+00  0.00000000E+00
  0.00000000E+00  0.00000000E+00  0.00000000E+00
  0.00000000E+00  0.00000000E+00  0.00000000E+00
  0.00000000E+00  0.00000000E+00  0.00000000E+00
  0.00000000E+00  0.00000000E+00  0.00000000E+00
  0.00000000E+00  0.00000000E+00  0.00000000E+00
  0.00000000E+00  0.00000000E+00  0.00000000E+00
  0.00000000E+00  0.00000000E+00  0.00000000E+00
  0.00000000E+00  0.00000000E+00  0.00000000E+00
  0.00000000E+00  0.00000000E+00  0.00000000E+00
  0.00000000E+00  0.00000000E+00  0.00000000E+00
  0.00000000E+00  0.00000000E+00  0.00000000E+00
  0.00000000E+00  0.00000000E+00  0.00000000E+00
  0.00000000E+00  0.00000000E+00  0.00000000E+00
  0.00000000E+00  0.00000000E+00  0.00000000E+00
  0.00000000E+00  0.00000000E+00  0.00000000E+00
  0.00000000E+00  0.00000000E+00  0.00000000E+00
  0.00000000E+00  0.00000000E+00  0.00000000E+00
  0.00000000E+00  0.00000000E+00  0.00000000E+00
  0.00000000E+00  0.00000000E+00  0.00000000E+00
  0.00000000E+00  0.00000000E+00  0.00000000E+00
  0.00000000E+00  0.00000000E+00  0.00000000E+00
  0.00000000E+00  0.00000000E+00  0.00000000E+00
  0.00000000E+00  0.00000000E+00  0.00000000E+00
  0.00000000E+00  0.00000000E+00  0.00000000E+00
  0.00000000E+00  0.00000000E+00  0.00000000E+00
  0.00000000E+00  0.00000000E+00  0.00000000E+00
  0.00000000E+00  0.00000000E+00  0.00000000E+00
  0.00000000E+00  0.00000000E+00  0.00000000E+00
  0.00000000E+00  0.00000000E+00  0.00000000E+00
  0.00000000E+00  0.00000000E+00  0.00000000E+00
  0.00000000E+00  0.00000000E+00  0.00000000E+00
  0.00000000E+00  0.00000000E+00  0.00000000E+00
  0.00000000E+00  0.00000000E+00  0.00000000E+00
  0.00000000E+00  0.00000000E+00  0.00000000E+00
  0.00000000E+00  0.00000000E+00  0.00000000E+00
  0.00000000E+00  0.00000000E+00  0.00000000E+00
  0.00000000E+00  0.00000000E+00  0.00000000E+00
  0.00000000E+00  0.00000000E+00  0.00000000E+00
  0.00000000E+00  0.00000000E+00  0.00000000E+00
  0.00000000E+00  0.00000000E+00  0.00000000E+00
  0.00000000E+00  0.00000000E+00  0.00000000E+00
  0.00000000E+00  0.00000000E+00  0.00000000E+00
  0.00000000E+00  0.00000000E+00  0.00000000E+00
  0.00000000E+00  0.00000000E+00  0.00000000E+00
  0.00000000E+00  0.00000000E+00  0.00000000E+00
  0.00000000E+00  0.00000000E+00  0.00000000E+00
  0.00000000E+00  0.00000000E+00  0.00000000E+00
  0.00000000E+00  0.00000000E+00  0.00000000E+00
  0.00000000E+00  0.00000000E+00  0.00000000E+00
  0.00000000E+00  0.00000000E+00  0.00000000E+00
  0.00000000E+00  0.00000000E+00  0.00000000E+00
  0.00000000E+00  0.00000000E+00  0.00000000E+00
  0.00000000E+00  0.00000000E+00  0.00000000E+00
  0.00000000E+00  0.00000000E+00  0.00000000E+00
  0.00000000E+00  0.00000000E+00  0.00000000E+00
  0.00000000E+00  0.00000000E+00  0.00000000E+00
  0.00000000E+00  0.00000000E+00  0.00000000E+00
  0.00000000E+00  0.00000000E+00  0.00000000E+00
  0.00000000E+00  0.00000000E+00  0.00000000E+00
  0.00000000E+00  0.00000000E+00  0.00000000E+00
  0.00000000E+00  0.00000000E+00  0.00000000E+00
  0.00000000E+00  0.00000000E+00  0.00000000E+00
  0.00000000E+00  0.00000000E+00  0.00000000E+00
  0.00000000E+00  0.00000000E+00  0.00000000E+00
  0.00000000E+00  0.00000000E+00  0.00000000E+00
  0.00000000E+00  0.00000000E+00  0.00000000E+00
  0.00000000E+00  0.00000000E+00  0.00000000E+00
  0.00000000E+00  0.00000000E+00  0.00000000E+00
  0.00000000E+00  0.00000000E+00  0.00000000E+00
  0.00000000E+00  0.00000000E+00  0.00000000E+00
  0.00000000E+00  0.00000000E+00  0.00000000E+00
  0.00000000E+00  0.00000000E+00  0.00000000E+00
  0.00000000E+00  0.00000000E+00  0.00000000E+00
  0.00000000E+00  0.00000000E+00  0.00000000E+00
  0.00000000E+00  0.00000000E+00  0.00000000E+00
  0.00000000E+00  0.00000000E+00  0.00000000E+00
  0.00000000E+00  0.00000000E+00  0.00000000E+00
  0.00000000E+00  0.00000000E+00  0.00000000E+00
  0.00000000E+00  0.00000000E+00  0.00000000E+00
  0.00000000E+00  0.00000000E+00  0.00000000E+00
  0.00000000E+00  0.00000000E+00  0.00000000E+00
  0.00000000E+00  0.00000000E+00  0.00000000E+00
  0.00000000E+00  0.00000000E+00  0.00000000E+00
  0.00000000E+00  0.00000000E+00  0.00000000E+00
  0.00000000E+00  0.00000000E+00  0.00000000E+00
  0.00000000E+00  0.00000000E+00  0.00000000E+00
  0.00000000E+00  0.00000000E+00  0.00000000E+00
  0.00000000E+00  0.00000000E+00  0.00000000E+00
  0.00000000E+00  0.00000000E+00  0.00000000E+00
  0.00000000E+00  0.00000000E+00  0.00000000E+00
  0.00000000E+00  0.00000000E+00  0.00000000E+00
  0.00000000E+00  0.00000000E+00  0.00000000E+00
  0.00000000E+00  0.00000000E+00  0.00000000E+00
  0.00000000E+00  0.00000000E+00  0.00000000E+00
