Generated by VASPKIT code               
   1.00000000000000     
     8.1802413285531443   -0.0316969076457607    0.0000000000000000
    -0.0329631205155441    8.2458218782817596    0.0000000000000000
     0.0000000000000013    0.0000000000000013   19.7155468870677844
  C             
    44
Direct
  0.3702732589301732  0.5430077312117266  0.5930340107905249
  0.5325188549219998  0.6099068015912156  0.5929703602423387
  0.2560940288736976  0.6335239784043136  0.5472878571644502
  0.5472664734645639  0.7163301079165265  0.5389147499985766
  0.3833159004557576  0.7557750985437026  0.5095474658189826
  0.2142698492866367  0.5068403544598854  0.4971915847473787
  0.2491645943270777  0.5573433827536762  0.4328107668045441
  0.3692856313062687  0.6912297551345297  0.4362490962128195
  0.2809040104330119  0.3414345116483059  0.5125812766001073
  0.3967917583200160  0.3840030665317294  0.5667445350072001
  0.5594825410425696  0.3333973466864200  0.5634843208247136
  0.3296765916928264  0.2728008177759390  0.4397950276652740
  0.5165913966986513  0.2500187237715973  0.4394131043835077
  0.6291265044279664  0.2471945779916769  0.5021637401188944
  0.3103634370566084  0.4221885873250781  0.3933385349531937
  0.7581110200977165  0.5173303200097750  0.5311689935415106
  0.6503466949317365  0.4774041890918448  0.5819996441644011
  0.7771901203110139  0.3796385016764486  0.4826665512141930
  0.7149343782800952  0.4520013291080147  0.4199963756072210
  0.5831464652545492  0.3575244044976963  0.3921412096084864
  0.4585797913303004  0.4707841710466117  0.3679895644070477
  0.7047641810414403  0.6790182915799526  0.4991355158261901
  0.6604639811030670  0.6132866450364624  0.4289146715801032
  0.5031755286691426  0.6309369419876669  0.3987948868070000
  0.2070649217763453  0.9650377672676486  0.4534947249879072
  0.2636791100626374  0.9002780590328930  0.5205415693425819
  0.1841605412549419  0.1447822967213016  0.4515792675817172
  0.1809127579186531  0.1953758384604252  0.5302892420944156
  0.2297992306661228  0.0438793792104206  0.5682693023725006
  0.0023929925292101  0.1681599007523249  0.4339730737007438
  0.9020796328235935  0.2466663144229073  0.4901043465147684
  0.0125437244697390  0.2347104385391460  0.5500293849527355
  0.9337366551860201  0.0111728896529117  0.4265591691018570
  0.7941734398711805  0.9733403345816372  0.4654335852445369
  0.7592365483164585  0.1145371303571010  0.5108701194759894
  0.0578490508422427  0.8888131033194849  0.4378444137864833
  0.0058211138188673  0.7729281472708235  0.4850547465981276
  0.8295916031477335  0.8139703180904538  0.5039758206597037
  0.1255255780344297  0.7691396565712340  0.5443981220122477
  0.0236196523453984  0.8513379808181394  0.5969008730845581
  0.8613000262173720  0.8809563900155847  0.5742355760380046
  0.8147087084333549  0.0459911813729798  0.5788969869353855
  0.9617292167701467  0.1281620561687996  0.5994665725039230
  0.0942385032586640  0.0078411815929820  0.6089792480421647
 
  0.00000000E+00  0.00000000E+00  0.00000000E+00
  0.00000000E+00  0.00000000E+00  0.00000000E+00
  0.00000000E+00  0.00000000E+00  0.00000000E+00
  0.00000000E+00  0.00000000E+00  0.00000000E+00
  0.00000000E+00  0.00000000E+00  0.00000000E+00
  0.00000000E+00  0.00000000E+00  0.00000000E+00
  0.00000000E+00  0.00000000E+00  0.00000000E+00
  0.00000000E+00  0.00000000E+00  0.00000000E+00
  0.00000000E+00  0.00000000E+00  0.00000000E+00
  0.00000000E+00  0.00000000E+00  0.00000000E+00
  0.00000000E+00  0.00000000E+00  0.00000000E+00
  0.00000000E+00  0.00000000E+00  0.00000000E+00
  0.00000000E+00  0.00000000E+00  0.00000000E+00
  0.00000000E+00  0.00000000E+00  0.00000000E+00
  0.00000000E+00  0.00000000E+00  0.00000000E+00
  0.00000000E+00  0.00000000E+00  0.00000000E+00
  0.00000000E+00  0.00000000E+00  0.00000000E+00
  0.00000000E+00  0.00000000E+00  0.00000000E+00
  0.00000000E+00  0.00000000E+00  0.00000000E+00
  0.00000000E+00  0.00000000E+00  0.00000000E+00
  0.00000000E+00  0.00000000E+00  0.00000000E+00
  0.00000000E+00  0.00000000E+00  0.00000000E+00
  0.00000000E+00  0.00000000E+00  0.00000000E+00
  0.00000000E+00  0.00000000E+00  0.00000000E+00
  0.00000000E+00  0.00000000E+00  0.00000000E+00
  0.00000000E+00  0.00000000E+00  0.00000000E+00
  0.00000000E+00  0.00000000E+00  0.00000000E+00
  0.00000000E+00  0.00000000E+00  0.00000000E+00
  0.00000000E+00  0.00000000E+00  0.00000000E+00
  0.00000000E+00  0.00000000E+00  0.00000000E+00
  0.00000000E+00  0.00000000E+00  0.00000000E+00
  0.00000000E+00  0.00000000E+00  0.00000000E+00
  0.00000000E+00  0.00000000E+00  0.00000000E+00
  0.00000000E+00  0.00000000E+00  0.00000000E+00
  0.00000000E+00  0.00000000E+00  0.00000000E+00
  0.00000000E+00  0.00000000E+00  0.00000000E+00
  0.00000000E+00  0.00000000E+00  0.00000000E+00
  0.00000000E+00  0.00000000E+00  0.00000000E+00
  0.00000000E+00  0.00000000E+00  0.00000000E+00
  0.00000000E+00  0.00000000E+00  0.00000000E+00
  0.00000000E+00  0.00000000E+00  0.00000000E+00
  0.00000000E+00  0.00000000E+00  0.00000000E+00
  0.00000000E+00  0.00000000E+00  0.00000000E+00
  0.00000000E+00  0.00000000E+00  0.00000000E+00
