Generated by VASPKIT code               
   1.00000000000000     
    10.3564504374419588    0.1216723903947625    0.0000000000000000
    -5.0727515191347390    8.6204078213720603    0.0000000000000000
     0.0000000000000013    0.0000000000000021   19.7116201071645669
  C             
    68
Direct
  0.1589581849563052  0.8998249479622945  0.5736132191878642
  0.6674751724969161  0.1422108197443664  0.5547480560977589
  0.0330781104697719  0.9019876718246941  0.6118598784248135
  0.5562133686400230  0.1663617162363431  0.5888971315160840
  0.0748098570489493  0.8099355422536701  0.5104961406374070
  0.6221088494386724  0.1144651079880264  0.4872796572496777
  0.8985685281782587  0.8312274148531921  0.5709178986076040
  0.4280780131623469  0.1495899116245842  0.5406019957132454
  0.9275952570837772  0.7844189799778498  0.5094618616953867
  0.4706148979403488  0.0914503587777836  0.4729784786791255
  0.1497369285730729  0.8876803137255931  0.4434146279178454
  0.6939757589671061  0.1317978595877435  0.4241252072192877
  0.0220201114694169  0.8587208817451266  0.3978296164874690
  0.6372162271269431  0.2070050639882383  0.3805649241364460
  0.8674454420379147  0.7677153335442413  0.4378398002554615
  0.5062477606176244  0.1922859771515491  0.4086603037814817
  0.2145941262868739  0.0523761540469184  0.4693228477589615
  0.8525608895234099  0.2336704451742025  0.4405561692931416
  0.2552340540347792  0.0709141749821172  0.5453391784457332
  0.8229519855468972  0.2519072915987662  0.5793637078501275
  0.1732633340524305  0.1556430859581364  0.5761576246880470
  0.7985136708356336  0.3763100126477559  0.5984938766802526
  0.1653164878386515  0.1297709370547887  0.4307588439122675
  0.8473626686660888  0.3919835906635770  0.4327735367930326
  0.1327264594265548  0.2530690672511768  0.4569022030260095
  0.8350108578066444  0.4991234175223782  0.4788677633750102
  0.1366965243311702  0.2641507434711297  0.5390511148649292
  0.8118976206155959  0.4958922721469837  0.5505654704575075
  0.0449230994095067  0.0054964914761300  0.3881502256783747
  0.7463583368802151  0.3711725736205846  0.3776908198535834
  0.9206329206062259  0.0605231426482154  0.5995992819900300
  0.5797682196979597  0.4044207954930077  0.5909676413687286
  0.0559522248284792  0.0550311894221974  0.6171886841634888
  0.6381681708760365  0.3107702767920843  0.6179577195779428
  0.9403129367120572  0.1993378602270570  0.5611990779801878
  0.6925156698232297  0.5338563252802320  0.5598542924877777
  0.8660468480893787  0.1306210177870018  0.4953544288552328
  0.6315255019503794  0.5601424937400608  0.4939274194881814
  0.9640735053299052  0.1758668035710748  0.4341620340528623
  0.7552885638046225  0.5867003819366593  0.4406082278794310
  0.9182226748359335  0.0210587845983360  0.4037265724948577
  0.6749490377758179  0.4611815109170746  0.3871004432231806
  0.8282676388988626  0.9235084041478534  0.5675133356744650
  0.4740898248010473  0.3155238711331420  0.5372767213695300
  0.7574202759897131  0.9333956339677656  0.5016349273219824
  0.5130907121323504  0.3969717867504313  0.4780318135990707
  0.8204400630594884  0.8934043683089719  0.4398772205302175
  0.5320751036368123  0.3478863972020316  0.4136833872713175
  0.4084521844841523  0.5584689010993661  0.5581952680688886
  0.2466877013247798  0.4408688756509169  0.5375554209613347
  0.3986118597785966  0.6719508075580436  0.5949343994661767
  0.2456259712794399  0.6470681982905195  0.6056384329116683
  0.1671694601228795  0.5238652997150202  0.5610069695210105
  0.4877696840357574  0.8169217547095057  0.5621097485581760
  0.3932492905581323  0.8705234030872726  0.5459433622038090
  0.2405806573229288  0.7895336519612726  0.5746905290034281
  0.5832742548968584  0.8201679536875557  0.5027043389775452
  0.4960038683333416  0.8448119864882034  0.4458511438963067
  0.4005894585020623  0.9131078279693803  0.4717547853918597
  0.5253250973093009  0.6314426396447844  0.4980051107684019
  0.4075749951734345  0.5754572138200111  0.4406365119195345
  0.3983949746470712  0.7008715103657661  0.4140906013471046
  0.2449004090437784  0.4451125606590149  0.4575911476925845
  0.1645016549404648  0.5343148574587789  0.4430848319013449
  0.2471368359398240  0.6739128755928043  0.4078182150992382
  0.2422401720465774  0.8047555427915021  0.4459834939839139
  0.1496099811908097  0.7165099133004351  0.5095349849362338
  0.1045770127596096  0.5553070236267206  0.5042094935049677
 
  0.00000000E+00  0.00000000E+00  0.00000000E+00
  0.00000000E+00  0.00000000E+00  0.00000000E+00
  0.00000000E+00  0.00000000E+00  0.00000000E+00
  0.00000000E+00  0.00000000E+00  0.00000000E+00
  0.00000000E+00  0.00000000E+00  0.00000000E+00
  0.00000000E+00  0.00000000E+00  0.00000000E+00
  0.00000000E+00  0.00000000E+00  0.00000000E+00
  0.00000000E+00  0.00000000E+00  0.00000000E+00
  0.00000000E+00  0.00000000E+00  0.00000000E+00
  0.00000000E+00  0.00000000E+00  0.00000000E+00
  0.00000000E+00  0.00000000E+00  0.00000000E+00
  0.00000000E+00  0.00000000E+00  0.00000000E+00
  0.00000000E+00  0.00000000E+00  0.00000000E+00
  0.00000000E+00  0.00000000E+00  0.00000000E+00
  0.00000000E+00  0.00000000E+00  0.00000000E+00
  0.00000000E+00  0.00000000E+00  0.00000000E+00
  0.00000000E+00  0.00000000E+00  0.00000000E+00
  0.00000000E+00  0.00000000E+00  0.00000000E+00
  0.00000000E+00  0.00000000E+00  0.00000000E+00
  0.00000000E+00  0.00000000E+00  0.00000000E+00
  0.00000000E+00  0.00000000E+00  0.00000000E+00
  0.00000000E+00  0.00000000E+00  0.00000000E+00
  0.00000000E+00  0.00000000E+00  0.00000000E+00
  0.00000000E+00  0.00000000E+00  0.00000000E+00
  0.00000000E+00  0.00000000E+00  0.00000000E+00
  0.00000000E+00  0.00000000E+00  0.00000000E+00
  0.00000000E+00  0.00000000E+00  0.00000000E+00
  0.00000000E+00  0.00000000E+00  0.00000000E+00
  0.00000000E+00  0.00000000E+00  0.00000000E+00
  0.00000000E+00  0.00000000E+00  0.00000000E+00
  0.00000000E+00  0.00000000E+00  0.00000000E+00
  0.00000000E+00  0.00000000E+00  0.00000000E+00
  0.00000000E+00  0.00000000E+00  0.00000000E+00
  0.00000000E+00  0.00000000E+00  0.00000000E+00
  0.00000000E+00  0.00000000E+00  0.00000000E+00
  0.00000000E+00  0.00000000E+00  0.00000000E+00
  0.00000000E+00  0.00000000E+00  0.00000000E+00
  0.00000000E+00  0.00000000E+00  0.00000000E+00
  0.00000000E+00  0.00000000E+00  0.00000000E+00
  0.00000000E+00  0.00000000E+00  0.00000000E+00
  0.00000000E+00  0.00000000E+00  0.00000000E+00
  0.00000000E+00  0.00000000E+00  0.00000000E+00
  0.00000000E+00  0.00000000E+00  0.00000000E+00
  0.00000000E+00  0.00000000E+00  0.00000000E+00
  0.00000000E+00  0.00000000E+00  0.00000000E+00
  0.00000000E+00  0.00000000E+00  0.00000000E+00
  0.00000000E+00  0.00000000E+00  0.00000000E+00
  0.00000000E+00  0.00000000E+00  0.00000000E+00
  0.00000000E+00  0.00000000E+00  0.00000000E+00
  0.00000000E+00  0.00000000E+00  0.00000000E+00
  0.00000000E+00  0.00000000E+00  0.00000000E+00
  0.00000000E+00  0.00000000E+00  0.00000000E+00
  0.00000000E+00  0.00000000E+00  0.00000000E+00
  0.00000000E+00  0.00000000E+00  0.00000000E+00
  0.00000000E+00  0.00000000E+00  0.00000000E+00
  0.00000000E+00  0.00000000E+00  0.00000000E+00
  0.00000000E+00  0.00000000E+00  0.00000000E+00
  0.00000000E+00  0.00000000E+00  0.00000000E+00
  0.00000000E+00  0.00000000E+00  0.00000000E+00
  0.00000000E+00  0.00000000E+00  0.00000000E+00
  0.00000000E+00  0.00000000E+00  0.00000000E+00
  0.00000000E+00  0.00000000E+00  0.00000000E+00
  0.00000000E+00  0.00000000E+00  0.00000000E+00
  0.00000000E+00  0.00000000E+00  0.00000000E+00
  0.00000000E+00  0.00000000E+00  0.00000000E+00
  0.00000000E+00  0.00000000E+00  0.00000000E+00
  0.00000000E+00  0.00000000E+00  0.00000000E+00
  0.00000000E+00  0.00000000E+00  0.00000000E+00
