Generated by VASPKIT code               
   1.00000000000000     
    11.7317708616222465   -0.3320204253237443    0.0000000000000000
    -6.1310116005489341   10.6566144044164073    0.0000000000000000
     0.0000000000000012    0.0000000000000022   19.7197406747097865
  C             
    84
Direct
  0.1919985940821458  0.1892463113880007  0.5966940933823439
  0.1267588066268658  0.2281685663217249  0.5398718885919763
  0.0744049924952394  0.0911513410490353  0.6390621950012327
  0.9790195956836292  0.1364992281180576  0.5457433350935332
  0.9547367770279372  0.0580782537413455  0.6059928726457104
  0.0684997316856946  0.9676761305583181  0.6459385879562219
  0.9409365444990206  0.8585646872841391  0.6353480474761705
  0.8720841706845369  0.9178079576372458  0.6035686841269364
  0.1545186033018378  0.9762681671745941  0.5904891386756790
  0.2185378571541505  0.0974898678673831  0.5582286993487108
  0.2039157561958602  0.1056246605331363  0.4877329446683282
  0.0771545874775990  0.8699046303402398  0.5486633792065445
  0.0641283384081887  0.8808662818482522  0.4810144752374466
  0.1299417665940299  0.9985076859111979  0.4466604556015603
  0.9447402804353651  0.7660955973070354  0.5784595598657623
  0.0389598723366484  0.1256579560899977  0.4300260875705127
  0.1704308377449407  0.2049566665711545  0.4693516117277257
  0.0282058861607930  0.0108135470752816  0.4105979116935299
  0.9022083830826403  0.8941510234458937  0.4288796869264227
  0.9203837023254788  0.7895260593769239  0.4602654341056929
  0.8364114851668817  0.7506361432529722  0.5263448765554531
  0.9328135862538858  0.0786937328800398  0.4824821112773663
  0.8538111496654867  0.9391668415160264  0.4801638338624853
  0.8241615215194669  0.8648414223916714  0.5403891220164722
  0.6141249007842157  0.1143260911333711  0.5293186432980466
  0.8715784654049917  0.5233589930140035  0.5590388769257497
  0.5613900770695853  0.4195568189476267  0.5791555418198399
  0.6372565330512767  0.0118576578058875  0.5299681563319825
  0.9612202148530005  0.6543308026557214  0.5729317524194117
  0.4310602402544256  0.3194337745606378  0.5601806742197606
  0.4723019598502634  0.0535099463362604  0.5318544022373782
  0.9466489275776931  0.4631905885871653  0.5673724266765846
  0.5477186144756065  0.5033296895876882  0.6215543462376488
  0.4091380789720407  0.9150189593218002  0.5384056276402180
  0.0906958629654469  0.5590727768321853  0.5683173460923834
  0.4047329523010362  0.4583971448205347  0.6317648027269582
  0.5124275087155173  0.8900139423615020  0.5366591522128600
  0.0926801652167809  0.6697145828883883  0.5538429600712982
  0.3210655188654710  0.3297751418549836  0.5960681124624209
  0.4290333381481867  0.0794688937011720  0.4700721158717815
  0.9137287073871350  0.3645394216272203  0.5228602294656777
  0.6122136958587979  0.6232128608075655  0.5860276467585473
  0.3369205231501702  0.9584539743155149  0.4384864357597072
  0.0415113092175561  0.4022406369523898  0.4899482930267136
  0.5139500895865817  0.6511015057765315  0.5729341006668631
  0.3070616821694398  0.8452829381179734  0.4825893275644587
  0.1669861012197550  0.5231170164223853  0.5221280590624021
  0.3866888329389955  0.5507063834894537  0.5997494264365316
  0.5406778517703785  0.1618741935692607  0.4267080911421201
  0.7959620457737341  0.3383066206271073  0.4750663408324265
  0.6936990069454730  0.6314166550373526  0.5232080660647095
  0.5223496646526059  0.0818224894310536  0.3705741650471913
  0.8863222084413603  0.3896401436936471  0.4122718961966639
  0.6044769032129212  0.6432542608310780  0.4678341076565058
  0.3955802307140491  0.9559754781497197  0.3771993166679801
  0.0250420860579597  0.4183687959476641  0.4218501341406646
  0.5046911036038852  0.6776929180553410  0.4990568977169090
  0.6758887742256262  0.2005164079881729  0.4655923402279847
  0.7726239573131192  0.4667923621853122  0.4985392832019567
  0.6530050061550804  0.4804399021750894  0.5157856420021030
  0.7126945351710866  0.1139400058504941  0.4244136506492052
  0.8390188447391438  0.5494756759074283  0.4329334364316727
  0.5440171378769043  0.4300571988855055  0.4624068112558372
  0.6270971078735386  0.0546260474832527  0.3688358563840711
  0.9001994988862870  0.5015881365466792  0.3896712538568154
  0.5244932948263780  0.5250622548323176  0.4352680981043853
  0.6956831120388145  0.0106119438810823  0.4666637803469373
  0.9300806013046637  0.6844381392523345  0.4345168103758723
  0.4221648564610435  0.3332947124339012  0.4891520904976489
  0.6091296014554980  0.8893223650228885  0.4348939777796660
  0.0610836536502312  0.7019159731221846  0.4257400939762694
  0.3021935591767529  0.3421246795613391  0.4699412158369295
  0.5622310609072110  0.9135151962235951  0.3749596903351345
  0.0430604628899843  0.6002700165874801  0.3841331690006827
  0.3782702142140504  0.4753617146955592  0.4383295376101557
  0.4207372454499244  0.8531803892700229  0.3794259648245161
  0.1192750484132859  0.5501516501367879  0.4051922485468606
  0.3746418504360832  0.5567848477670966  0.4831693502652434
  0.3632078936547046  0.7676384763651819  0.4446759289210131
  0.2161008128463442  0.6334161254548207  0.4605197428817423
  0.2807127862670881  0.5001625862893825  0.5426124758990000
  0.4979932496363637  0.7952558101996565  0.4815425179835873
  0.1649286368911839  0.7247668105318703  0.4851797029806454
  0.2497689694249144  0.3635357144106959  0.5393023553141238
 
  0.00000000E+00  0.00000000E+00  0.00000000E+00
  0.00000000E+00  0.00000000E+00  0.00000000E+00
  0.00000000E+00  0.00000000E+00  0.00000000E+00
  0.00000000E+00  0.00000000E+00  0.00000000E+00
  0.00000000E+00  0.00000000E+00  0.00000000E+00
  0.00000000E+00  0.00000000E+00  0.00000000E+00
  0.00000000E+00  0.00000000E+00  0.00000000E+00
  0.00000000E+00  0.00000000E+00  0.00000000E+00
  0.00000000E+00  0.00000000E+00  0.00000000E+00
  0.00000000E+00  0.00000000E+00  0.00000000E+00
  0.00000000E+00  0.00000000E+00  0.00000000E+00
  0.00000000E+00  0.00000000E+00  0.00000000E+00
  0.00000000E+00  0.00000000E+00  0.00000000E+00
  0.00000000E+00  0.00000000E+00  0.00000000E+00
  0.00000000E+00  0.00000000E+00  0.00000000E+00
  0.00000000E+00  0.00000000E+00  0.00000000E+00
  0.00000000E+00  0.00000000E+00  0.00000000E+00
  0.00000000E+00  0.00000000E+00  0.00000000E+00
  0.00000000E+00  0.00000000E+00  0.00000000E+00
  0.00000000E+00  0.00000000E+00  0.00000000E+00
  0.00000000E+00  0.00000000E+00  0.00000000E+00
  0.00000000E+00  0.00000000E+00  0.00000000E+00
  0.00000000E+00  0.00000000E+00  0.00000000E+00
  0.00000000E+00  0.00000000E+00  0.00000000E+00
  0.00000000E+00  0.00000000E+00  0.00000000E+00
  0.00000000E+00  0.00000000E+00  0.00000000E+00
  0.00000000E+00  0.00000000E+00  0.00000000E+00
  0.00000000E+00  0.00000000E+00  0.00000000E+00
  0.00000000E+00  0.00000000E+00  0.00000000E+00
  0.00000000E+00  0.00000000E+00  0.00000000E+00
  0.00000000E+00  0.00000000E+00  0.00000000E+00
  0.00000000E+00  0.00000000E+00  0.00000000E+00
  0.00000000E+00  0.00000000E+00  0.00000000E+00
  0.00000000E+00  0.00000000E+00  0.00000000E+00
  0.00000000E+00  0.00000000E+00  0.00000000E+00
  0.00000000E+00  0.00000000E+00  0.00000000E+00
  0.00000000E+00  0.00000000E+00  0.00000000E+00
  0.00000000E+00  0.00000000E+00  0.00000000E+00
  0.00000000E+00  0.00000000E+00  0.00000000E+00
  0.00000000E+00  0.00000000E+00  0.00000000E+00
  0.00000000E+00  0.00000000E+00  0.00000000E+00
  0.00000000E+00  0.00000000E+00  0.00000000E+00
  0.00000000E+00  0.00000000E+00  0.00000000E+00
  0.00000000E+00  0.00000000E+00  0.00000000E+00
  0.00000000E+00  0.00000000E+00  0.00000000E+00
  0.00000000E+00  0.00000000E+00  0.00000000E+00
  0.00000000E+00  0.00000000E+00  0.00000000E+00
  0.00000000E+00  0.00000000E+00  0.00000000E+00
  0.00000000E+00  0.00000000E+00  0.00000000E+00
  0.00000000E+00  0.00000000E+00  0.00000000E+00
  0.00000000E+00  0.00000000E+00  0.00000000E+00
  0.00000000E+00  0.00000000E+00  0.00000000E+00
  0.00000000E+00  0.00000000E+00  0.00000000E+00
  0.00000000E+00  0.00000000E+00  0.00000000E+00
  0.00000000E+00  0.00000000E+00  0.00000000E+00
  0.00000000E+00  0.00000000E+00  0.00000000E+00
  0.00000000E+00  0.00000000E+00  0.00000000E+00
  0.00000000E+00  0.00000000E+00  0.00000000E+00
  0.00000000E+00  0.00000000E+00  0.00000000E+00
  0.00000000E+00  0.00000000E+00  0.00000000E+00
  0.00000000E+00  0.00000000E+00  0.00000000E+00
  0.00000000E+00  0.00000000E+00  0.00000000E+00
  0.00000000E+00  0.00000000E+00  0.00000000E+00
  0.00000000E+00  0.00000000E+00  0.00000000E+00
  0.00000000E+00  0.00000000E+00  0.00000000E+00
  0.00000000E+00  0.00000000E+00  0.00000000E+00
  0.00000000E+00  0.00000000E+00  0.00000000E+00
  0.00000000E+00  0.00000000E+00  0.00000000E+00
  0.00000000E+00  0.00000000E+00  0.00000000E+00
  0.00000000E+00  0.00000000E+00  0.00000000E+00
  0.00000000E+00  0.00000000E+00  0.00000000E+00
  0.00000000E+00  0.00000000E+00  0.00000000E+00
  0.00000000E+00  0.00000000E+00  0.00000000E+00
  0.00000000E+00  0.00000000E+00  0.00000000E+00
  0.00000000E+00  0.00000000E+00  0.00000000E+00
  0.00000000E+00  0.00000000E+00  0.00000000E+00
  0.00000000E+00  0.00000000E+00  0.00000000E+00
  0.00000000E+00  0.00000000E+00  0.00000000E+00
  0.00000000E+00  0.00000000E+00  0.00000000E+00
  0.00000000E+00  0.00000000E+00  0.00000000E+00
  0.00000000E+00  0.00000000E+00  0.00000000E+00
  0.00000000E+00  0.00000000E+00  0.00000000E+00
  0.00000000E+00  0.00000000E+00  0.00000000E+00
  0.00000000E+00  0.00000000E+00  0.00000000E+00
