C 
 1.0000000000000000
    12.7898127862764834    0.0000000000000000    0.0000000000000000
    -6.3949063931382497   11.0763027825624700    0.0000000000000000
     0.0000000000000000    0.0000000000000000   16.0000000000000000
 C  
 104
Direct
  0.4940634584335126  0.6708134624158137  0.5618413787989359
  0.4402132673959035  0.7137258335624540  0.6211429204555811
  0.4098854777899871  0.6018780781419391  0.4973574479464176
  0.3248842824360859  0.6910423379521879  0.5830912573449923
  0.3064124824618001  0.6229182156223323  0.5074880155908115
  0.4597030504251292  0.6485931080783105  0.4166684999994527
  0.3806928129337435  0.6753833108259223  0.3694794559466262
  0.2885006115231494  0.6676129395006166  0.4293391612197456
  0.5707319888209041  0.7662484197302425  0.4317245090519686
  0.5917322126049066  0.7798132292474735  0.5205219451265208
  0.6028181441975037  0.8843151129264728  0.5628000446693513
  0.5608332898059005  0.8572149618304199  0.3851194109727355
  0.5719477622686543  0.9616954057667404  0.4273686502357054
  0.5929263098161617  0.9752598499733911  0.5161803187876230
  0.4434583638372425  0.7975312432314708  0.3401848302532307
  0.4412906952386709  0.8982621351302146  0.6169437298177819
  0.5122324922463934  0.8418188137870962  0.6312074265852035
  0.4960121372094481  0.9907813778661455  0.5547033736021119
  0.4121996493004514  0.9718263559193796  0.4890757070161907
  0.4617230908644135  0.9685494316404638  0.4095064922364575
  0.3818385269584533  0.8599955938499156  0.3652357355733394
  0.3255420700367105  0.8039179145793377  0.5805431923130460
  0.3077619612214935  0.8487191906765342  0.5023997914231562
  0.2892407496587697  0.7805391447450307  0.4267999881623431
  0.8058289772841882  0.5198464217949516  0.5532684648025210
  0.8925485212119127  0.4782161163440978  0.5479732185656644
  0.7098619781958071  0.4385549328561077  0.6073492774739051
  0.7377902745796427  0.3470966428857882  0.6351653014683021
  0.8546901318389644  0.3727003489841934  0.6016626726722993
  0.5959886494490115  0.3821242119268953  0.5610404936026584
  0.5602810766397829  0.2542900303802682  0.5569655079577959
  0.6450201295644099  0.2328203658522005  0.6039285712949759
  0.6301923246437358  0.4256156879817020  0.4757095843811470
  0.6013850974971866  0.3268273529377747  0.4179601964357414
  0.5635016735141378  0.2213259429170089  0.4716516182106134
  0.7569413774058751  0.5184679094907639  0.4703660429313195
  0.8110281282882762  0.4667158135412153  0.4156913331792979
  0.7182721271954655  0.3524354254035968  0.3844395259229219
  0.8957616625268605  0.4452710507038578  0.4626541195352532
  0.8600632269607612  0.3174436698856493  0.4585733987983733
  0.7461883284940291  0.2609824367534267  0.4122707259521152
  0.6502155918429466  0.1796912924859342  0.4663573039248921
  0.6991192249896125  0.1810682395562193  0.5492637420970516
  0.8258791952524409  0.2739201099067271  0.5439037525296261
  0.1037794536297592  0.6923808579306939  0.4681661512016470
 -0.0175538075037038  0.6055246764337213  0.4956274127533692
  0.1677900484945177  0.7654346354318755  0.5389260871566928
  0.0856371154491015  0.7233378750788770  0.6097358481434869
 -0.0299742303448905  0.6194985094243430  0.5852140938930908
  0.2061573871243026  0.8917513878749945  0.5210482616380608
  0.1378641583865864  0.9220326787272513  0.5799468501946365
  0.0670880079823312  0.8204564706940719  0.6351827246704677
  0.1534450890124338  0.8889160379914519  0.4397961126934158
  0.0676830217163447  0.9320747868213194  0.4450506283292867
  0.0552997456744407  0.9460736674842107  0.5346284974267361
  0.0988218655918006  0.7692186373859196  0.4023904732391655
 -0.0293478918680722  0.7311451715508819  0.3950723742949134
 -0.0479235731079833  0.8282545699932489  0.4205119027586983
 -0.1000991553943189  0.6295758671567878  0.4502945684936148
 -0.1683995862362428  0.6598503521495139  0.5091864738653764
 -0.1300509443658197  0.7861649927009500  0.4913287036621239
 -0.0660308327111599  0.8592225508344917  0.5620920452469339
 -0.0610877148506175  0.7823673376364120  0.6278733075352272
 -0.1157322355376795  0.6626646200723030  0.5904570051828387
  0.3413864129567315  0.4675820027240313  0.4620009737533883
  0.4275141423302228  0.4377504162703662  0.4259837501466175
  0.3623450148308616  0.4811463275484648  0.5504919221776847
  0.4613065923640229  0.4595855830605613  0.5686819534506520
  0.5074811712309746  0.4371554032486544  0.4911242107102547
  0.2532277960769930  0.3928784545674122  0.5943877687504526
  0.2876111795293418  0.3121598687570695  0.6351855565474712
  0.4149656136053577  0.3547961059866738  0.6212134406752726
  0.1705989989233744  0.3200767748637708  0.5281948561893633
  0.1403821318987090  0.1944073079652681  0.5340616703766420
  0.2203235155830017  0.1938227993411236  0.5992122720675319
  0.2181032255238766  0.3701639279106724  0.4459862997531299
  0.2328685389991254  0.2767678947244973  0.4039823191889453
  0.1865256695975004  0.1719586641331412  0.4565005644396218
  0.3602051620825802  0.3194184810253046  0.3900077530013415
  0.3945864449962396  0.2386973691195299  0.4307970214275478
  0.2854902584945395  0.1504185138058406  0.4747026600036303
  0.3064499644860968  0.1639896626377632  0.5631990758967638
  0.4297509575152075  0.2614116380971055  0.5792082665420829
  0.4772473233888564  0.3114796380927874  0.4969866125259394
  0.7977899162614706  1.0011620392186014  0.3465694072725592
  0.7846696956749394  1.0997600350696382  0.3797220019827190
  0.7393206452394148  0.9016275584224016  0.4035869947657186
  0.6904078316901018  0.9392793234919439  0.4716878309697932
  0.7130821248777658  1.0617014736072157  0.4565384329196114
  0.8277014895144134  0.8709983360442667  0.4358140719904443
  0.8364998164404023  0.8993444922097232  0.5249939000620285
  0.7506625913401662  0.9378505011277564  0.5469816695603843
  0.9425106763817629  0.9628675695128801  0.4010126481630203
  1.0267985608951251  1.0355468102059748  0.4664514715496368
  0.9552142447612177  0.9974583516047973  0.5432566937819628
  0.9257246256251946  1.0379057768123519  0.3401847622922506
  0.9892285292136053  1.1593734371406852  0.3760008174988842
  1.0495013520233014  1.1579730240016672  0.4512972645758311
  0.9033938440947377  1.1978640832981240  0.3979705949695747
  0.9121985313960919  1.2262206807612028  0.4871456262459505
  1.0005699301813638  1.1955975519086559  0.5193947418783624
  0.9420937781379324  1.0960524547379271  0.5764121912168647
  0.8141498085925915  1.0593195399268540  0.5827989132021867
  0.7973846099917474  1.1343830156194279  0.5219707297357006
