C                                       
   1.00000000000000     
    14.9705141848178656   -0.0022817594912161    0.0000000000000000
    -7.4872333809474068   12.9638596032444795    0.0000000000000000
     0.0000000000000000    0.0000000000000000   16.0000000000000000
  C             
   108
Direct
  0.3764979182849336  0.5235424578868062  0.5172802037950068
  0.2803780830150451  0.4899717261463121  0.4618569390134200
  0.4553590059378926  0.6122162506187973  0.4658513381353385
  0.3022471638202112  0.5607665517359284  0.3890762158379796
  0.4068658423825922  0.6337056935225751  0.3913359462241457
  0.4968868241724243  0.7009154317784034  0.5118694223668774
  0.5099365410170961  0.7904722046266338  0.4617415768901376
  0.4390705203383240  0.7415134506491202  0.3890103203082940
  0.4361901145885173  0.6900927637889490  0.5872865985014603
  0.3562434766411008  0.5832954159185517  0.5896663411925833
  0.2538123765304025  0.5638257785566917  0.5873401734901266
  0.4167553061414455  0.7730649494031885  0.5896220739819237
  0.3099768041310695  0.7461803906965117  0.5872972869732976
  0.2269608996128180  0.6437395827605634  0.5896848110971982
  0.4764800609781376  0.8530655819657647  0.5171943741139362
  0.1566820808643649  0.5445135160201994  0.4659394713867387
  0.2038641322604234  0.5030294061697353  0.5119730274725394
  0.1469142224561270  0.6234373581557632  0.5173031135210694
  0.2094731159644067  0.7195012357226180  0.4618286207221083
  0.2990986125678912  0.7960309653247003  0.5118980140156696
  0.3877659737092363  0.8432312319977072  0.4658240348850309
  0.2266461177356348  0.5929553224173653  0.3913958169756584
  0.2583398797837072  0.6975455240982970  0.3890577387457081
  0.3661732244280390  0.7731988470394991  0.3913180449100700
  0.5919263804008029  0.4373348411221656  0.5291176332452434
  0.6818025692113224  0.4951456083674436  0.4841538305131795
  0.5058652047907488  0.3499670680046603  0.4787744055791251
  0.6770779321664695  0.4320152107012453  0.4116634476820906
  0.5742952097859662  0.3415309692778936  0.4087577508987480
  0.4728854974041520  0.2525338627588797  0.5343300721881968
  0.5047519193305625  0.1865371815100490  0.4841103943228082
  0.5679593867214211  0.2449878857856214  0.4116504034214937
  0.5559145897596393  0.2882101056695403  0.6041156716188948
  0.6204457693991564  0.3952896283778780  0.6015211644071650
  0.7322502581294826  0.4439539832595100  0.6041692641367333
  0.6045719735772862  0.2250831703271790  0.6014997591846122
  0.7116498520560873  0.2676286133248760  0.6041590119749991
  0.7747867437809242  0.3794411087796459  0.6015494914353816
  0.5625381119746189  0.1544838006639115  0.5291017779626670
  0.8441237160072925  0.4941065061156789  0.4788577135314245
  0.7796412616702214  0.5270272621297536  0.5344109650939383
  0.8454139636281097  0.4080332878837014  0.5291719968824855
  0.8133641603842526  0.3181822451747237  0.4841847143452992
  0.7473671040547071  0.2203030398657665  0.5343895201821751
  0.6499610467377085  0.1558321506883593  0.4788069371182322
  0.7672838141987041  0.4256830045526806  0.4088103227127451
  0.7549794846403561  0.3229355039932781  0.4116842859279566
  0.6584029498034788  0.2326866636076748  0.4087820123260476
  0.0823031594956739  0.2432114116711279  0.4731120150636713
  0.0427005531329287  0.1516749262631996  0.5344050051965695
  0.1344822820779368  0.2288442639135167  0.4026880671167571
  0.1378906315558513  0.1356339433563697  0.4114928154618060
  0.0929559175128595  0.0960115910463863  0.4884388453424878
  0.2400297255928962  0.3106715440468745  0.3959169357052905
  0.3105501827703452  0.2755371523580401  0.4053774572426148
  0.2484704053611358  0.1653652123160113  0.4168024765009903
  0.2559252943203666  0.3824181343463040  0.4632937204020931
  0.3484708548557519  0.4000371252259772  0.5195332207656331
  0.3906127566622075  0.3295157593363496  0.4751134373044987
  0.1605493326762751  0.3271229818028007  0.5158784008409275
  0.1851057005823070  0.3046740902474673  0.5954395718634210
  0.2917681128626645  0.3334844338261591  0.5954730631450299
  0.1212678658922670  0.1945352680989087  0.6053394615608489
  0.1888248247180941  0.1544329602247959  0.6085553315012383
  0.2945604376034247  0.2407804331172217  0.6034678614792292
  0.3580851744013257  0.2288456942981739  0.5367205136530570
  0.2696907066342276  0.1349460939250528  0.4924585191872992
  0.1656213246406509  0.0750398962846742  0.5407949060179049
  0.7567164243024078  0.8390872107749844  0.4730303052830691
  0.8482348298269322  0.8909820445051798  0.5343543017772343
  0.7711306480763739  0.9057008408088112  0.4026314408400788
  0.8643826134493524  0.0023467202696334  0.4114842857031956
  0.9039403831132303  0.9969664538842021  0.4884340783149690
  0.6893673884945956  0.9294475081328698  0.3958568140915795
  0.7245305016916410  0.0351212812854996  0.4053635980590899
  0.8346940306088578  0.0832233238205185  0.4168309628314655
  0.6175528354114369  0.8735182797678970  0.4631848052090216
  0.5999604645822588  0.9484223891991328  0.5194697990952191
  0.6705002056138625  0.0611066386523098  0.4751156177507586
  0.6727677196402075  0.8333479336457764  0.5157574869185317
  0.6952175962083338  0.8803345487101539  0.5953407291731962
  0.6664398088242960  0.9581872986153862  0.5954283210166097
  0.8053442034203150  0.9266395989062897  0.6052980211846465
  0.8454782390881735  0.0343319720266320  0.6085576448676160
  0.7591851428301000  0.0537283349909332  0.6034659739692492
  0.7711488244557814  0.1292496143704098  0.5367586073885566
  0.8650785211203740  0.1348099690551207  0.4925201174713703
  0.9249150039921218  0.0905870751273938  0.5408398193440643
  0.1608828789845771  0.9176652794733271  0.4730675354096049
  0.1089434172068798  0.9572575977751100  0.5343469730100673
  0.0942947445205822  0.8654289530651275  0.4026589103761501
  0.9976572553649469  0.8619906751936732  0.4114779890085080
  0.0029895073696985  0.9069514845500406  0.4884076353165492
  0.0705588350787137  0.7599107826031922  0.3959149255234442
  0.9648641713949605  0.6893531121418818  0.4054135306365488
  0.9167602520605684  0.7513910885255005  0.4168337247122533
  0.1264563218487675  0.7440629430704294  0.4632872393853283
  0.0515153019812940  0.6515415370206724  0.5195669887165975
  0.9388583977185190  0.6093640321341209  0.4751700231979022
  0.1665920280074778  0.8394736736662461  0.5158364579642811
  0.1195911541969339  0.8149511185637518  0.5954053107278982
  0.0417167542752360  0.7082680178323387  0.5954953883683608
  0.0732763821676958  0.8787396238737087  0.6053076165483464
  0.9655818935521236  0.8111515610288305  0.6085550272505158
  0.9462026162766113  0.7054436328456539  0.6034967509332071
  0.8706905460959017  0.6418536022336873  0.5367860733812361
  0.8651345762804333  0.7301965760968299  0.4925051707517933
  0.9093336830093238  0.8343024100075376  0.5408040286173830
 
  0.00000000E+00  0.00000000E+00  0.00000000E+00
  0.00000000E+00  0.00000000E+00  0.00000000E+00
  0.00000000E+00  0.00000000E+00  0.00000000E+00
  0.00000000E+00  0.00000000E+00  0.00000000E+00
  0.00000000E+00  0.00000000E+00  0.00000000E+00
  0.00000000E+00  0.00000000E+00  0.00000000E+00
  0.00000000E+00  0.00000000E+00  0.00000000E+00
  0.00000000E+00  0.00000000E+00  0.00000000E+00
  0.00000000E+00  0.00000000E+00  0.00000000E+00
  0.00000000E+00  0.00000000E+00  0.00000000E+00
  0.00000000E+00  0.00000000E+00  0.00000000E+00
  0.00000000E+00  0.00000000E+00  0.00000000E+00
  0.00000000E+00  0.00000000E+00  0.00000000E+00
  0.00000000E+00  0.00000000E+00  0.00000000E+00
  0.00000000E+00  0.00000000E+00  0.00000000E+00
  0.00000000E+00  0.00000000E+00  0.00000000E+00
  0.00000000E+00  0.00000000E+00  0.00000000E+00
  0.00000000E+00  0.00000000E+00  0.00000000E+00
  0.00000000E+00  0.00000000E+00  0.00000000E+00
  0.00000000E+00  0.00000000E+00  0.00000000E+00
  0.00000000E+00  0.00000000E+00  0.00000000E+00
  0.00000000E+00  0.00000000E+00  0.00000000E+00
  0.00000000E+00  0.00000000E+00  0.00000000E+00
  0.00000000E+00  0.00000000E+00  0.00000000E+00
  0.00000000E+00  0.00000000E+00  0.00000000E+00
  0.00000000E+00  0.00000000E+00  0.00000000E+00
  0.00000000E+00  0.00000000E+00  0.00000000E+00
  0.00000000E+00  0.00000000E+00  0.00000000E+00
  0.00000000E+00  0.00000000E+00  0.00000000E+00
  0.00000000E+00  0.00000000E+00  0.00000000E+00
  0.00000000E+00  0.00000000E+00  0.00000000E+00
  0.00000000E+00  0.00000000E+00  0.00000000E+00
  0.00000000E+00  0.00000000E+00  0.00000000E+00
  0.00000000E+00  0.00000000E+00  0.00000000E+00
  0.00000000E+00  0.00000000E+00  0.00000000E+00
  0.00000000E+00  0.00000000E+00  0.00000000E+00
  0.00000000E+00  0.00000000E+00  0.00000000E+00
  0.00000000E+00  0.00000000E+00  0.00000000E+00
  0.00000000E+00  0.00000000E+00  0.00000000E+00
  0.00000000E+00  0.00000000E+00  0.00000000E+00
  0.00000000E+00  0.00000000E+00  0.00000000E+00
  0.00000000E+00  0.00000000E+00  0.00000000E+00
  0.00000000E+00  0.00000000E+00  0.00000000E+00
  0.00000000E+00  0.00000000E+00  0.00000000E+00
  0.00000000E+00  0.00000000E+00  0.00000000E+00
  0.00000000E+00  0.00000000E+00  0.00000000E+00
  0.00000000E+00  0.00000000E+00  0.00000000E+00
  0.00000000E+00  0.00000000E+00  0.00000000E+00
  0.00000000E+00  0.00000000E+00  0.00000000E+00
  0.00000000E+00  0.00000000E+00  0.00000000E+00
  0.00000000E+00  0.00000000E+00  0.00000000E+00
  0.00000000E+00  0.00000000E+00  0.00000000E+00
  0.00000000E+00  0.00000000E+00  0.00000000E+00
  0.00000000E+00  0.00000000E+00  0.00000000E+00
  0.00000000E+00  0.00000000E+00  0.00000000E+00
  0.00000000E+00  0.00000000E+00  0.00000000E+00
  0.00000000E+00  0.00000000E+00  0.00000000E+00
  0.00000000E+00  0.00000000E+00  0.00000000E+00
  0.00000000E+00  0.00000000E+00  0.00000000E+00
  0.00000000E+00  0.00000000E+00  0.00000000E+00
  0.00000000E+00  0.00000000E+00  0.00000000E+00
  0.00000000E+00  0.00000000E+00  0.00000000E+00
  0.00000000E+00  0.00000000E+00  0.00000000E+00
  0.00000000E+00  0.00000000E+00  0.00000000E+00
  0.00000000E+00  0.00000000E+00  0.00000000E+00
  0.00000000E+00  0.00000000E+00  0.00000000E+00
  0.00000000E+00  0.00000000E+00  0.00000000E+00
  0.00000000E+00  0.00000000E+00  0.00000000E+00
  0.00000000E+00  0.00000000E+00  0.00000000E+00
  0.00000000E+00  0.00000000E+00  0.00000000E+00
  0.00000000E+00  0.00000000E+00  0.00000000E+00
  0.00000000E+00  0.00000000E+00  0.00000000E+00
  0.00000000E+00  0.00000000E+00  0.00000000E+00
  0.00000000E+00  0.00000000E+00  0.00000000E+00
  0.00000000E+00  0.00000000E+00  0.00000000E+00
  0.00000000E+00  0.00000000E+00  0.00000000E+00
  0.00000000E+00  0.00000000E+00  0.00000000E+00
  0.00000000E+00  0.00000000E+00  0.00000000E+00
  0.00000000E+00  0.00000000E+00  0.00000000E+00
  0.00000000E+00  0.00000000E+00  0.00000000E+00
  0.00000000E+00  0.00000000E+00  0.00000000E+00
  0.00000000E+00  0.00000000E+00  0.00000000E+00
  0.00000000E+00  0.00000000E+00  0.00000000E+00
  0.00000000E+00  0.00000000E+00  0.00000000E+00
  0.00000000E+00  0.00000000E+00  0.00000000E+00
  0.00000000E+00  0.00000000E+00  0.00000000E+00
  0.00000000E+00  0.00000000E+00  0.00000000E+00
  0.00000000E+00  0.00000000E+00  0.00000000E+00
  0.00000000E+00  0.00000000E+00  0.00000000E+00
  0.00000000E+00  0.00000000E+00  0.00000000E+00
  0.00000000E+00  0.00000000E+00  0.00000000E+00
  0.00000000E+00  0.00000000E+00  0.00000000E+00
  0.00000000E+00  0.00000000E+00  0.00000000E+00
  0.00000000E+00  0.00000000E+00  0.00000000E+00
  0.00000000E+00  0.00000000E+00  0.00000000E+00
  0.00000000E+00  0.00000000E+00  0.00000000E+00
  0.00000000E+00  0.00000000E+00  0.00000000E+00
  0.00000000E+00  0.00000000E+00  0.00000000E+00
  0.00000000E+00  0.00000000E+00  0.00000000E+00
  0.00000000E+00  0.00000000E+00  0.00000000E+00
  0.00000000E+00  0.00000000E+00  0.00000000E+00
  0.00000000E+00  0.00000000E+00  0.00000000E+00
  0.00000000E+00  0.00000000E+00  0.00000000E+00
  0.00000000E+00  0.00000000E+00  0.00000000E+00
  0.00000000E+00  0.00000000E+00  0.00000000E+00
  0.00000000E+00  0.00000000E+00  0.00000000E+00
  0.00000000E+00  0.00000000E+00  0.00000000E+00
  0.00000000E+00  0.00000000E+00  0.00000000E+00
