C                                       
   1.00000000000000     
    11.8724878251999826   -0.0000313911140760    0.0000000000000000
    -0.0000264163268637    9.9652369978391455    0.0000000000000000
     0.0000000000000000    0.0000000000000000   16.0000000000000000
  C             
    88
Direct
  0.8923269637091977  0.1716588101770309  0.5707026948971607
  0.8209995438878450  0.1015713772802390  0.6232568411360547
  0.9663819768526860  0.1000707796918969  0.5136736568618894
  0.7950519867771121  0.9770055473388822  0.5766861412723243
  0.8896367747985350  0.9605433127193381  0.5079305982879476
  0.9350890440025198  0.1601042793029113  0.4317660133127388
  0.8995477028393782  0.0788016937248109  0.3684921373438421
  0.8435560422354057  0.9633937471231189  0.4145479844171460
  0.8640676854086519  0.2799151706701118  0.4411256175341665
  0.8305717521289915  0.2721380391110460  0.5290474004856113
  0.7407690224326281  0.3213571471591951  0.5876529520863951
  0.8019826573719997  0.2944677082830124  0.3648117358555689
  0.6876904906251974  0.3468040924053228  0.3650785196601687
  0.6197715257712884  0.3572646810389650  0.5799203287166386
  0.8158586361486083  0.1606770926185967  0.3248672996663989
  0.6252955484666142  0.1345426946137374  0.6072641618687697
  0.7263766258158404  0.1869044660685669  0.6384033958977903
  0.5493724392422213  0.2512101084912437  0.5841744964111191
  0.5713620482358363  0.1609077725924701  0.4322198922826606
  0.6310265193857655  0.2206191540006895  0.3631603734575870
  0.7100064771405348  0.1097986843712629  0.3362920655887152
  0.6598897327732707  0.0116602514717619  0.5492829614297231
  0.6477183751171006  0.0698997289862179  0.4660782584239811
  0.7152679589380083  0.9986137979982570  0.4024470299448148
  0.1076744558086420  0.6716561633413035  0.5707030497214376
  0.1789988183884230  0.6015698989068007  0.6232564918930645
  0.0336172261368186  0.6000672686670826  0.5136739179252143
  0.2049489770441327  0.4770049484735180  0.5766844668033653
  0.1103637493063214  0.4605396263739071  0.5079293258943837
  0.0649082715225929  0.6601024133553457  0.4317659476861827
  0.1004487917937904  0.5787982685195434  0.3684932634802678
  0.1564435409523056  0.4633912997037724  0.4145469890796652
  0.1359301462369189  0.7799129529009154  0.4411240914410659
  0.1694237483927168  0.7721352735037020  0.5290451385392934
  0.2592319720078413  0.8213553164794793  0.5876514993231178
  0.1980134203251737  0.7944686162458467  0.3648102478788506
  0.3123080884436206  0.8468035301514245  0.3650784921313616
  0.3802225506352835  0.8572729598006300  0.5799160294212798
  0.1841398797322910  0.6606776082568118  0.3248697624999762
  0.3747042110323037  0.6345424438572410  0.6072635937809495
  0.2736225147683173  0.6869031994323730  0.6384021299926819
  0.4506324989602997  0.7512028592859248  0.5841702812374224
  0.4286364481248360  0.6609057869930405  0.4322178891049901
  0.3689732214162087  0.7206212347684229  0.3631604132853009
  0.2899914051031214  0.6097997626940426  0.3362910618283071
  0.3401110717481056  0.5116595448615681  0.5492825905016938
  0.3522832075851345  0.5699012615035965  0.4660767712454298
  0.2847327273731522  0.4986153046203994  0.4024464105222574
  0.6359691560598068  0.6413834641182300  0.5987096492771404
  0.7473232589276109  0.6871781318309501  0.6117708494867550
  0.6336313172770078  0.5033255116194164  0.5611311766462508
  0.7656274456915008  0.4759669998512400  0.5602125541987343
  0.8306266995727546  0.5920112918184240  0.5913793349944071
  0.5946005223307430  0.5301491427662404  0.4735100980166236
  0.6785627573713143  0.4842301307892693  0.4088402988386108
  0.7789307428091852  0.4884461493200369  0.4679039489577115
  0.5459371171241649  0.6689943674518549  0.4605129874665993
  0.6280327892171245  0.7245715524436196  0.3987356444197201
  0.7009337359926709  0.6279599686587890  0.3684390841894096
  0.5665303196459319  0.7401775849771387  0.5501010531373561
  0.6542042579885184  0.8539054820703220  0.5287919024139865
  0.6880051900675768  0.8450940802173337  0.4303446282816303
  0.7681949206439881  0.8213265031695846  0.5732718110231579
  0.8682017216046017  0.7984447379606137  0.5105563088505127
  0.8162948890964959  0.8098797255214080  0.4219374127611987
  0.8155374735611111  0.6730933767684770  0.3826620870474607
  0.8523834253602196  0.5873948050447875  0.4470105869000882
  0.9089543670339808  0.6436045277900857  0.5231624162499573
  0.3640264573952356  0.1413829810228542  0.5987052722934999
  0.2526782379615649  0.1871792405758596  0.6117734080181090
  0.3663701137437123  0.0033237414222368  0.5611298487937546
  0.2343757520224072  0.9759622380897827  0.5602098843338844
  0.1693771477747059  0.0920148700709542  0.5913741446161553
  0.4053988263463247  0.0301498067618939  0.4735083842600385
  0.3214381032256866  0.9842296607505525  0.4088398573690220
  0.2210704376247952  0.9884457109049746  0.4679035846091141
  0.4540652346674497  0.1689946634844715  0.4605130846500183
  0.3719697314938850  0.2245728259944526  0.3987336674792458
  0.2990668248639806  0.1279588902543358  0.3684373697694528
  0.4334716351143252  0.2401783337119932  0.5500993653720071
  0.3457953275261497  0.3539044109795940  0.5287914832197322
  0.3119958389789029  0.3450955026266362  0.4303417829046704
  0.2318042764930674  0.3213266277167360  0.5732734045447663
  0.1318001609275417  0.2984441593717385  0.5105556332542315
  0.1837067995024801  0.3098768768695684  0.4219359421998927
  0.1844627889567888  0.1730916053572940  0.3826592398720823
  0.1476179259292631  0.0873944280065594  0.4470083135815704
  0.0910477991318422  0.1436041472070004  0.5231593555094088
 
  0.00000000E+00  0.00000000E+00  0.00000000E+00
  0.00000000E+00  0.00000000E+00  0.00000000E+00
  0.00000000E+00  0.00000000E+00  0.00000000E+00
  0.00000000E+00  0.00000000E+00  0.00000000E+00
  0.00000000E+00  0.00000000E+00  0.00000000E+00
  0.00000000E+00  0.00000000E+00  0.00000000E+00
  0.00000000E+00  0.00000000E+00  0.00000000E+00
  0.00000000E+00  0.00000000E+00  0.00000000E+00
  0.00000000E+00  0.00000000E+00  0.00000000E+00
  0.00000000E+00  0.00000000E+00  0.00000000E+00
  0.00000000E+00  0.00000000E+00  0.00000000E+00
  0.00000000E+00  0.00000000E+00  0.00000000E+00
  0.00000000E+00  0.00000000E+00  0.00000000E+00
  0.00000000E+00  0.00000000E+00  0.00000000E+00
  0.00000000E+00  0.00000000E+00  0.00000000E+00
  0.00000000E+00  0.00000000E+00  0.00000000E+00
  0.00000000E+00  0.00000000E+00  0.00000000E+00
  0.00000000E+00  0.00000000E+00  0.00000000E+00
  0.00000000E+00  0.00000000E+00  0.00000000E+00
  0.00000000E+00  0.00000000E+00  0.00000000E+00
  0.00000000E+00  0.00000000E+00  0.00000000E+00
  0.00000000E+00  0.00000000E+00  0.00000000E+00
  0.00000000E+00  0.00000000E+00  0.00000000E+00
  0.00000000E+00  0.00000000E+00  0.00000000E+00
  0.00000000E+00  0.00000000E+00  0.00000000E+00
  0.00000000E+00  0.00000000E+00  0.00000000E+00
  0.00000000E+00  0.00000000E+00  0.00000000E+00
  0.00000000E+00  0.00000000E+00  0.00000000E+00
  0.00000000E+00  0.00000000E+00  0.00000000E+00
  0.00000000E+00  0.00000000E+00  0.00000000E+00
  0.00000000E+00  0.00000000E+00  0.00000000E+00
  0.00000000E+00  0.00000000E+00  0.00000000E+00
  0.00000000E+00  0.00000000E+00  0.00000000E+00
  0.00000000E+00  0.00000000E+00  0.00000000E+00
  0.00000000E+00  0.00000000E+00  0.00000000E+00
  0.00000000E+00  0.00000000E+00  0.00000000E+00
  0.00000000E+00  0.00000000E+00  0.00000000E+00
  0.00000000E+00  0.00000000E+00  0.00000000E+00
  0.00000000E+00  0.00000000E+00  0.00000000E+00
  0.00000000E+00  0.00000000E+00  0.00000000E+00
  0.00000000E+00  0.00000000E+00  0.00000000E+00
  0.00000000E+00  0.00000000E+00  0.00000000E+00
  0.00000000E+00  0.00000000E+00  0.00000000E+00
  0.00000000E+00  0.00000000E+00  0.00000000E+00
  0.00000000E+00  0.00000000E+00  0.00000000E+00
  0.00000000E+00  0.00000000E+00  0.00000000E+00
  0.00000000E+00  0.00000000E+00  0.00000000E+00
  0.00000000E+00  0.00000000E+00  0.00000000E+00
  0.00000000E+00  0.00000000E+00  0.00000000E+00
  0.00000000E+00  0.00000000E+00  0.00000000E+00
  0.00000000E+00  0.00000000E+00  0.00000000E+00
  0.00000000E+00  0.00000000E+00  0.00000000E+00
  0.00000000E+00  0.00000000E+00  0.00000000E+00
  0.00000000E+00  0.00000000E+00  0.00000000E+00
  0.00000000E+00  0.00000000E+00  0.00000000E+00
  0.00000000E+00  0.00000000E+00  0.00000000E+00
  0.00000000E+00  0.00000000E+00  0.00000000E+00
  0.00000000E+00  0.00000000E+00  0.00000000E+00
  0.00000000E+00  0.00000000E+00  0.00000000E+00
  0.00000000E+00  0.00000000E+00  0.00000000E+00
  0.00000000E+00  0.00000000E+00  0.00000000E+00
  0.00000000E+00  0.00000000E+00  0.00000000E+00
  0.00000000E+00  0.00000000E+00  0.00000000E+00
  0.00000000E+00  0.00000000E+00  0.00000000E+00
  0.00000000E+00  0.00000000E+00  0.00000000E+00
  0.00000000E+00  0.00000000E+00  0.00000000E+00
  0.00000000E+00  0.00000000E+00  0.00000000E+00
  0.00000000E+00  0.00000000E+00  0.00000000E+00
  0.00000000E+00  0.00000000E+00  0.00000000E+00
  0.00000000E+00  0.00000000E+00  0.00000000E+00
  0.00000000E+00  0.00000000E+00  0.00000000E+00
  0.00000000E+00  0.00000000E+00  0.00000000E+00
  0.00000000E+00  0.00000000E+00  0.00000000E+00
  0.00000000E+00  0.00000000E+00  0.00000000E+00
  0.00000000E+00  0.00000000E+00  0.00000000E+00
  0.00000000E+00  0.00000000E+00  0.00000000E+00
  0.00000000E+00  0.00000000E+00  0.00000000E+00
  0.00000000E+00  0.00000000E+00  0.00000000E+00
  0.00000000E+00  0.00000000E+00  0.00000000E+00
  0.00000000E+00  0.00000000E+00  0.00000000E+00
  0.00000000E+00  0.00000000E+00  0.00000000E+00
  0.00000000E+00  0.00000000E+00  0.00000000E+00
  0.00000000E+00  0.00000000E+00  0.00000000E+00
  0.00000000E+00  0.00000000E+00  0.00000000E+00
  0.00000000E+00  0.00000000E+00  0.00000000E+00
  0.00000000E+00  0.00000000E+00  0.00000000E+00
  0.00000000E+00  0.00000000E+00  0.00000000E+00
  0.00000000E+00  0.00000000E+00  0.00000000E+00
