Generated by VASPKIT code               
   1.00000000000000     
    10.5556786092833974   -0.2634771783007813    0.0000000000000000
    -5.5072089420334178    9.0096151764236598    0.0000000000000000
     0.0000000000000012    0.0000000000000021   19.7118712402260243
  C             
    64
Direct
  0.9716924793444368  0.7443910345699063  0.5191956257139988
  0.8488197171782313  0.7187449965563663  0.4684464799279719
  0.1213888968046357  0.8462739518656871  0.4751970666559007
  0.9115098475649021  0.8355285770052240  0.4143608686645211
  0.0679023608046280  0.9111227847886907  0.4169858319689117
  0.2028308049974208  0.9875426111944684  0.5160480092721793
  0.2660377747903491  0.1291994785459027  0.4737620296515949
  0.1468928379910612  0.0701290955662687  0.4187660410828051
  0.1197569555659181  0.9876228732720763  0.5707267381505094
  0.9799699544154890  0.8487202958327592  0.5718408704161367
  0.8443894610597060  0.8443768115216176  0.5683695067640799
  0.1287019907699345  0.1286224701455264  0.5701135186698011
  0.9877024608624991  0.1196949804675226  0.5707532574913651
  0.8487634587140294  0.9799704562942285  0.5718308642014016
  0.2150969884304897  0.2150018222716167  0.5153244239559985
  0.7186937414148307  0.8488746344904710  0.4684888511858245
  0.7600306488243157  0.7600724841309296  0.5097568181707353
  0.7444000520613369  0.9717317011990211  0.5192225718108523
  0.8463770385397180  0.1214731297628549  0.4752289442321309
  0.9876507888703676  0.2027529974405924  0.5160561691733665
  0.1292798620336743  0.2659385696707484  0.4737455335079192
  0.8354671966645190  0.9115529379503130  0.4143897134640011
  0.9111254942828392  0.0679075533631677  0.4170116156882884
  0.0701677350093651  0.1468293132156060  0.4187627434739545
  0.4056697980314542  0.9145417356604811  0.4662902025567059
  0.9145674080473442  0.4056870358680478  0.4662586504743886
  0.4677314588452695  0.9226565837490965  0.5414246377541420
  0.9227091981233104  0.4678696168594733  0.5413721928422283
  0.2237022807222504  0.7897780405961791  0.4706858278228970
  0.7899278063746786  0.2238475627092605  0.4707526420375535
  0.2057401361274271  0.7231736764997259  0.5410192736102974
  0.7233197306552304  0.2059030925755582  0.5411104804301884
  0.3355054762224573  0.7958426558760318  0.5786893119056897
  0.7959979545715141  0.3357322904815782  0.5787225178878823
  0.1873759403926325  0.6507036735496775  0.4300538407114265
  0.6508535434497920  0.1875312835464037  0.4301511100292377
  0.0976030678183188  0.4987302215892562  0.4679433555849562
  0.4989141585210630  0.0977481334292827  0.4680221649287923
  0.1058438407887254  0.5528115587170096  0.5444557581536004
  0.5528780872641371  0.1059547585988407  0.5445402252111677
  0.3238776026708534  0.6777695542377116  0.4078123056285775
  0.6778218415919652  0.3238997637391284  0.4077892369312058
  0.3390069252738944  0.5530340900377176  0.4291298409795101
  0.5530673990784177  0.3390041932099915  0.4291464256563104
  0.2036608827300886  0.4339456277145795  0.4687811236722771
  0.4340724687517101  0.2037368281020535  0.4688403883567477
  0.4535161838810173  0.8239648040151425  0.4242432073313659
  0.8240210112099655  0.4535991432533726  0.4241894792447073
  0.5501117261217943  0.7864954859629228  0.4621270852637285
  0.7864907473810872  0.5501973342075858  0.4620543667566277
  0.4672752922653888  0.6200696581323963  0.4668804372025374
  0.6200563096290745  0.4673332261625333  0.4668311356490127
  0.5698573174756726  0.8599148165823015  0.5353815759597875
  0.8599429179167939  0.5699499608078872  0.5353198240673394
  0.4994648038336056  0.7097972882683651  0.5786448793129264
  0.7099161299187466  0.4996352922753864  0.5786097738170586
  0.4624559423615145  0.5605282757849163  0.5369588373071937
  0.5606010182391383  0.4625356813741709  0.5369361110648498
  0.2831921246792482  0.4753818908827007  0.5391034804760226
  0.4754853108923328  0.2833547357661761  0.5391435895446062
  0.2252648931711414  0.5329847637825521  0.5813110575966394
  0.5331545725344593  0.2255008181902703  0.5813756708737738
  0.3623989153115263  0.6821097197025822  0.6015702524192762
  0.6822992301302547  0.3626695663800799  0.6016112249704095
 
  0.00000000E+00  0.00000000E+00  0.00000000E+00
  0.00000000E+00  0.00000000E+00  0.00000000E+00
  0.00000000E+00  0.00000000E+00  0.00000000E+00
  0.00000000E+00  0.00000000E+00  0.00000000E+00
  0.00000000E+00  0.00000000E+00  0.00000000E+00
  0.00000000E+00  0.00000000E+00  0.00000000E+00
  0.00000000E+00  0.00000000E+00  0.00000000E+00
  0.00000000E+00  0.00000000E+00  0.00000000E+00
  0.00000000E+00  0.00000000E+00  0.00000000E+00
  0.00000000E+00  0.00000000E+00  0.00000000E+00
  0.00000000E+00  0.00000000E+00  0.00000000E+00
  0.00000000E+00  0.00000000E+00  0.00000000E+00
  0.00000000E+00  0.00000000E+00  0.00000000E+00
  0.00000000E+00  0.00000000E+00  0.00000000E+00
  0.00000000E+00  0.00000000E+00  0.00000000E+00
  0.00000000E+00  0.00000000E+00  0.00000000E+00
  0.00000000E+00  0.00000000E+00  0.00000000E+00
  0.00000000E+00  0.00000000E+00  0.00000000E+00
  0.00000000E+00  0.00000000E+00  0.00000000E+00
  0.00000000E+00  0.00000000E+00  0.00000000E+00
  0.00000000E+00  0.00000000E+00  0.00000000E+00
  0.00000000E+00  0.00000000E+00  0.00000000E+00
  0.00000000E+00  0.00000000E+00  0.00000000E+00
  0.00000000E+00  0.00000000E+00  0.00000000E+00
  0.00000000E+00  0.00000000E+00  0.00000000E+00
  0.00000000E+00  0.00000000E+00  0.00000000E+00
  0.00000000E+00  0.00000000E+00  0.00000000E+00
  0.00000000E+00  0.00000000E+00  0.00000000E+00
  0.00000000E+00  0.00000000E+00  0.00000000E+00
  0.00000000E+00  0.00000000E+00  0.00000000E+00
  0.00000000E+00  0.00000000E+00  0.00000000E+00
  0.00000000E+00  0.00000000E+00  0.00000000E+00
  0.00000000E+00  0.00000000E+00  0.00000000E+00
  0.00000000E+00  0.00000000E+00  0.00000000E+00
  0.00000000E+00  0.00000000E+00  0.00000000E+00
  0.00000000E+00  0.00000000E+00  0.00000000E+00
  0.00000000E+00  0.00000000E+00  0.00000000E+00
  0.00000000E+00  0.00000000E+00  0.00000000E+00
  0.00000000E+00  0.00000000E+00  0.00000000E+00
  0.00000000E+00  0.00000000E+00  0.00000000E+00
  0.00000000E+00  0.00000000E+00  0.00000000E+00
  0.00000000E+00  0.00000000E+00  0.00000000E+00
  0.00000000E+00  0.00000000E+00  0.00000000E+00
  0.00000000E+00  0.00000000E+00  0.00000000E+00
  0.00000000E+00  0.00000000E+00  0.00000000E+00
  0.00000000E+00  0.00000000E+00  0.00000000E+00
  0.00000000E+00  0.00000000E+00  0.00000000E+00
  0.00000000E+00  0.00000000E+00  0.00000000E+00
  0.00000000E+00  0.00000000E+00  0.00000000E+00
  0.00000000E+00  0.00000000E+00  0.00000000E+00
  0.00000000E+00  0.00000000E+00  0.00000000E+00
  0.00000000E+00  0.00000000E+00  0.00000000E+00
  0.00000000E+00  0.00000000E+00  0.00000000E+00
  0.00000000E+00  0.00000000E+00  0.00000000E+00
  0.00000000E+00  0.00000000E+00  0.00000000E+00
  0.00000000E+00  0.00000000E+00  0.00000000E+00
  0.00000000E+00  0.00000000E+00  0.00000000E+00
  0.00000000E+00  0.00000000E+00  0.00000000E+00
  0.00000000E+00  0.00000000E+00  0.00000000E+00
  0.00000000E+00  0.00000000E+00  0.00000000E+00
  0.00000000E+00  0.00000000E+00  0.00000000E+00
  0.00000000E+00  0.00000000E+00  0.00000000E+00
  0.00000000E+00  0.00000000E+00  0.00000000E+00
  0.00000000E+00  0.00000000E+00  0.00000000E+00
