C 
 1.0000000000000000
    10.0633709049735245    0.0000000000000000    0.0000000000000000
     0.0000000000000000   10.0633709049735227    0.0000000000000000
     0.0000000000000000    0.0000000000000000   16.0000000000000000
 C  
  84
Direct
 -0.1009059534422429  0.1827474494472878  0.4245640434599603
 -0.1584294155924131  0.1754814651421926  0.5063747575597500
  0.0386415281898079  0.2096682678377736  0.4294932151083430
 -0.0450575777121518  0.1712987808169198  0.5656412567137432
  0.0752498884753945  0.1919881698934198  0.5187353504525254
  0.1126473571832816  0.1116931231545599  0.3843270860579575
  0.2117238115960619  0.0521258319934577  0.4366722643937507
  0.1810960369618114  0.0959393484344847  0.5230696350431390
  0.0171958412306476  0.0041456218693035  0.3637838801691488
 -0.1134147879312799  0.0476339471213378  0.3883954124604276
 -0.1914096186381933 -0.0316796504841287  0.4450417820059261
  0.0699126821039687 -0.1187408095330318  0.3957885901822562
 -0.0080552694624582 -0.1980502434382297  0.4523931809716325
 -0.1386735368976139 -0.1545530070804824  0.4770257685988940
  0.1992149640957603 -0.0896216743669261  0.4366880986088754
 -0.1821199641745241 -0.0154841075292210  0.5900562409528601
 -0.2287923110145562  0.0530774611468307  0.5173079676444121
 -0.1422140248263718 -0.1482746673025106  0.5696548778049100
 -0.0091124185852337 -0.1730777219315992  0.5971923357159431
  0.0713361352852316 -0.2193306600961535  0.5293512905205611
  0.1880452811771793 -0.1389439772889919  0.5203224310985602
 -0.0595748826488678  0.0545036544011913  0.6168354832835287
  0.0461795860772462 -0.0416469865546781  0.6211252633401760
  0.1665166485495150 -0.0208996156528013  0.5742306774598303
  0.3165884569251925  0.5418565843568215  0.4921710171504646
  0.3962645085379725  0.5289186626945944  0.5674707773810196
  0.2140989333727224  0.4428182484632692  0.4955930181742628
  0.2310258782708524  0.3691808967544542  0.5729924911322281
  0.3413582355814477  0.4248387899272250  0.6211563430842675
  0.2273555274979621  0.3533720259425749  0.4240074894232939
  0.2618756230089567  0.2248192186950665  0.4607184056831474
  0.2606395522935361  0.2339832025351821  0.5513665821764360
  0.3483386546387791  0.3967921970213603  0.3821630168023101
  0.4489114664912762  0.2927602053895857  0.3820150993294244
  0.3939806435249205  0.1886862546651880  0.4356780060668486
  0.3992074257194976  0.5194820467798192  0.4182804148647093
  0.5296134881549674  0.4836153382687267  0.4517812859576614
  0.5592585101319284  0.3484168719082129  0.4301591346852404
  0.5283641656619052  0.4928005700113907  0.5424134777893486
  0.5628952015372288  0.3642562818653970  0.5791242301202958
  0.5761548018385632  0.2747820043984557  0.5075556797654464
  0.4736535779262434  0.1757427366840340  0.5109766253575175
  0.3910400226437807  0.1981209195390887  0.5848806865547141
  0.4419384254663086  0.3208123885229773  0.6209971637330405
  0.5262896312258182 -0.0684374772579822  0.6018426691449903
  0.3952136127361832 -0.0522591888749314  0.5651353608596376
  0.6214911634329804 -0.0164226220742379  0.5436054644359215
  0.5487151394435652  0.0315901518267719  0.4712039188178212
  0.4057872084867452  0.0155193833432313  0.4845222550330603
  0.7131024392402335 -0.1221430259423679  0.5187561675153441
  0.6865800011388987 -0.1425240803766018  0.4297956673055677
  0.5890902977717554 -0.0466006356014464  0.4006210136435796
  0.6613346762466017 -0.2410649732467712  0.5591571807269827
  0.6211241404774489 -0.3404912215409320  0.4980633218693284
  0.6317370060169357 -0.2727165824687794  0.4174624454636557
  0.5534467444680585 -0.2093376018220147  0.6164289038154712
  0.4378576202421761 -0.2783834002984749  0.5819733818769045
  0.4782073224041046 -0.3565931616130592  0.5113883945176132
  0.3403880020812474 -0.1824612813438240  0.5528172564364253
  0.3138557663150169 -0.2028482094046537  0.4638617023082593
  0.4054549153022758 -0.3085606271033448  0.4389896063277705
  0.5006659253007462 -0.2565386484694820  0.3807523371216101
  0.4734898196337478 -0.1156277333764800  0.3661630632753933
  0.3655818900070787 -0.0839222669343517  0.4234358872274068
 -0.3207199756130471  0.4847948583512275  0.4989975077257898
 -0.2625960348283841  0.3556084362329977  0.4814176246502604
 -0.2924750091610313  0.5697712464343617  0.4291757010909644
 -0.2170045906429029  0.4926289655188785  0.3688286972937954
 -0.2015979887703719  0.3559406290434429  0.3984231873733274
 -0.2141275321607355  0.6836079599557786  0.4575363689100538
 -0.0852720104224551  0.6674475878231929  0.4164881514400732
 -0.0885109646014518  0.5532108304911790  0.3609518268866119
 -0.1877821043865238  0.6566152973207853  0.5454238612258266
 -0.0460226877752155  0.6426626294149752  0.5614246003904104
  0.0149558512355369  0.6430332539737150  0.4784357224045799
 -0.2615252293581538  0.5410918941604100  0.5746162729213991
 -0.1591196516191100  0.4454302269681943  0.5989037940111497
 -0.0306082564110344  0.5059915185253979  0.5910374476705287
 -0.1623845355662634  0.3312122498346264  0.5433773728672167
 -0.0335302902892350  0.3150433077248359  0.5023359662233720
  0.0448433742370677  0.4288678058960859  0.5306801148513047
  0.0730827546262614  0.5138518907066157  0.4608538546207813
  0.0138886238651460  0.4575341624108569  0.3852297547897870
 -0.0598399346666987  0.3419959589027546  0.4144355320736930
