Generated by VASPKIT code               
   1.00000000000000     
    10.7765138566467300    0.3349948725242248    0.0000000000000000
    -5.0986341308449941    8.9151441261054050    0.0000000000000000
     0.0000000000000013    0.0000000000000022   19.7184153030487650
   C 
    68
Direct
  0.2472554426017979  0.1038780840675173  0.4265957022191245
  0.8778971733337144  0.4266203893106919  0.4769335881513896
  0.1883822167965050  0.9554212119890266  0.4526392977605553
  0.8666114793661990  0.2844804384916912  0.5051150645332001
  0.1340807314976971  0.0884142182315770  0.3760316212044330
  0.7966926128625289  0.4077324637841642  0.4189629634060097
  0.0651863157570531  0.8580217630636042  0.4221018178944576
  0.7349593318770857  0.1656382117296857  0.4617832897132317
  0.0313986785958349  0.9362182053805697  0.3701554647079277
  0.6886254080148362  0.2542900353713407  0.4153075996429649
  0.0620988515848211  0.1744537640038786  0.3929638916161906
  0.7306807038495009  0.5012565037421624  0.4209409887601936
  0.9164986158703172  0.0812887026482585  0.3879113964730792
  0.5890355552201854  0.4145751249139877  0.4112687880092878
  0.8960979843166470  0.9275899227015287  0.3822478017721949
  0.5599028335507228  0.2606731279251022  0.4112744944572384
  0.1068777527373186  0.2645159881441685  0.4602528567885500
  0.7548159055585657  0.5749952548836390  0.4901110588596964
  0.2285660892611290  0.1980054484517169  0.4855281343031663
  0.8418806748358563  0.5091289689109573  0.5265709252233464
  0.1736036726991941  0.0803827115168261  0.5429387312964522
  0.7987965107094510  0.4257945327241401  0.5862763368080124
  0.9533310208502215  0.1937794639481183  0.4958734636901312
  0.6103798314758180  0.5034499157996706  0.5208203496875186
  0.9391029440970300  0.0809731378101617  0.5479390870573084
  0.5701996305010368  0.4218938858015093  0.5796207272600356
  0.0427631440246259  0.0383539212993966  0.5720864880268337
  0.6619538802611089  0.3809655544162140  0.6171174666535464
  0.8243991639539630  0.0875979616895819  0.4426907424666240
  0.5015699860191560  0.4413212355176768  0.4638273402539426
  0.0412364551094697  0.8247725338531140  0.5385475508239423
  0.6812170571739671  0.1726733021715745  0.5820790061669356
  0.1879228622528899  0.9333111581169433  0.5272112770474777
  0.8113327665309029  0.2894806969847679  0.5729547474053831
  0.9658124576196130  0.8728996006404728  0.5812709654658690
  0.5905877954932137  0.2220729444855749  0.6120726164499715
  0.8316814782626096  0.8207584064370366  0.5536988741326994
  0.4614782032035691  0.1647752929038546  0.5741859239947189
  0.8178981977712994  0.9463286436739082  0.5366637236277185
  0.4462270135475777  0.2880799734567390  0.5600063872769283
  0.7462643468478305  0.9289741790151425  0.4692148601259518
  0.3947951643552230  0.2896669281705613  0.4912185381053291
  0.9763790594200827  0.7744779456204753  0.4767889766417213
  0.6163607212364042  0.0861603488039506  0.5185815668808544
  0.8270214225332282  0.7412054033541082  0.4858647838283545
  0.4638926157395176  0.0880509025186029  0.5057356809904618
  0.8065682030049715  0.8423924017858440  0.4334994863988015
  0.4287559202826969  0.1783031503296542  0.4508388742331420
  0.3110994142652359  0.7607968358751691  0.5879334110389962
  0.4581074597036192  0.8087508918015871  0.5814286319728836
  0.2355978711152815  0.6014362067889891  0.5808957802460171
  0.3397312222870781  0.5503435158821262  0.5738740701657079
  0.4759613783659162  0.6817897787056708  0.5708475243965196
  0.1431277771020305  0.5499968895323022  0.5229886114018214
  0.1864894722318127  0.4473572037844065  0.4731964590666706
  0.3196677475071255  0.4869825578279219  0.5106663477442197
  0.1766383340526190  0.6874015194764240  0.4904963573251351
  0.2403635659965886  0.6988056294912823  0.4277404884818026
  0.2571416426564141  0.5678543929508564  0.4168483991770771
  0.2653338515580117  0.8333971193861558  0.5336319526074860
  0.3994841180054252  0.9206700351952293  0.4923540855987696
  0.3753060046400876  0.8301351686077112  0.4274461262960045
  0.5294208274127286  0.9165115806321609  0.5234654189773593
  0.5873460077634292  0.8379555785898205  0.4757806269721243
  0.4766305603187320  0.7817864017644283  0.4194182130380497
  0.4033508893856421  0.6223645708026169  0.4129896323083884
  0.4508024702193794  0.5539791473644655  0.4665341237602263
  0.5459915029478992  0.6889230149497934  0.5101589181178809
 
  0.00000000E+00  0.00000000E+00  0.00000000E+00
  0.00000000E+00  0.00000000E+00  0.00000000E+00
  0.00000000E+00  0.00000000E+00  0.00000000E+00
  0.00000000E+00  0.00000000E+00  0.00000000E+00
  0.00000000E+00  0.00000000E+00  0.00000000E+00
  0.00000000E+00  0.00000000E+00  0.00000000E+00
  0.00000000E+00  0.00000000E+00  0.00000000E+00
  0.00000000E+00  0.00000000E+00  0.00000000E+00
  0.00000000E+00  0.00000000E+00  0.00000000E+00
  0.00000000E+00  0.00000000E+00  0.00000000E+00
  0.00000000E+00  0.00000000E+00  0.00000000E+00
  0.00000000E+00  0.00000000E+00  0.00000000E+00
  0.00000000E+00  0.00000000E+00  0.00000000E+00
  0.00000000E+00  0.00000000E+00  0.00000000E+00
  0.00000000E+00  0.00000000E+00  0.00000000E+00
  0.00000000E+00  0.00000000E+00  0.00000000E+00
  0.00000000E+00  0.00000000E+00  0.00000000E+00
  0.00000000E+00  0.00000000E+00  0.00000000E+00
  0.00000000E+00  0.00000000E+00  0.00000000E+00
  0.00000000E+00  0.00000000E+00  0.00000000E+00
  0.00000000E+00  0.00000000E+00  0.00000000E+00
  0.00000000E+00  0.00000000E+00  0.00000000E+00
  0.00000000E+00  0.00000000E+00  0.00000000E+00
  0.00000000E+00  0.00000000E+00  0.00000000E+00
  0.00000000E+00  0.00000000E+00  0.00000000E+00
  0.00000000E+00  0.00000000E+00  0.00000000E+00
  0.00000000E+00  0.00000000E+00  0.00000000E+00
  0.00000000E+00  0.00000000E+00  0.00000000E+00
  0.00000000E+00  0.00000000E+00  0.00000000E+00
  0.00000000E+00  0.00000000E+00  0.00000000E+00
  0.00000000E+00  0.00000000E+00  0.00000000E+00
  0.00000000E+00  0.00000000E+00  0.00000000E+00
  0.00000000E+00  0.00000000E+00  0.00000000E+00
  0.00000000E+00  0.00000000E+00  0.00000000E+00
  0.00000000E+00  0.00000000E+00  0.00000000E+00
  0.00000000E+00  0.00000000E+00  0.00000000E+00
  0.00000000E+00  0.00000000E+00  0.00000000E+00
  0.00000000E+00  0.00000000E+00  0.00000000E+00
  0.00000000E+00  0.00000000E+00  0.00000000E+00
  0.00000000E+00  0.00000000E+00  0.00000000E+00
  0.00000000E+00  0.00000000E+00  0.00000000E+00
  0.00000000E+00  0.00000000E+00  0.00000000E+00
  0.00000000E+00  0.00000000E+00  0.00000000E+00
  0.00000000E+00  0.00000000E+00  0.00000000E+00
  0.00000000E+00  0.00000000E+00  0.00000000E+00
  0.00000000E+00  0.00000000E+00  0.00000000E+00
  0.00000000E+00  0.00000000E+00  0.00000000E+00
  0.00000000E+00  0.00000000E+00  0.00000000E+00
  0.00000000E+00  0.00000000E+00  0.00000000E+00
  0.00000000E+00  0.00000000E+00  0.00000000E+00
  0.00000000E+00  0.00000000E+00  0.00000000E+00
  0.00000000E+00  0.00000000E+00  0.00000000E+00
  0.00000000E+00  0.00000000E+00  0.00000000E+00
  0.00000000E+00  0.00000000E+00  0.00000000E+00
  0.00000000E+00  0.00000000E+00  0.00000000E+00
  0.00000000E+00  0.00000000E+00  0.00000000E+00
  0.00000000E+00  0.00000000E+00  0.00000000E+00
  0.00000000E+00  0.00000000E+00  0.00000000E+00
  0.00000000E+00  0.00000000E+00  0.00000000E+00
  0.00000000E+00  0.00000000E+00  0.00000000E+00
  0.00000000E+00  0.00000000E+00  0.00000000E+00
  0.00000000E+00  0.00000000E+00  0.00000000E+00
  0.00000000E+00  0.00000000E+00  0.00000000E+00
  0.00000000E+00  0.00000000E+00  0.00000000E+00
  0.00000000E+00  0.00000000E+00  0.00000000E+00
  0.00000000E+00  0.00000000E+00  0.00000000E+00
  0.00000000E+00  0.00000000E+00  0.00000000E+00
  0.00000000E+00  0.00000000E+00  0.00000000E+00
