C                                       
   1.00000000000000     
     7.0251546209912048    0.0428241978700716    0.0000000000000000
     0.0521297866535009    8.5234961992365292    0.0000000000000000
     0.0000000000000000    0.0000000000000000   16.0000000000000000
   C 
    44
Direct
  0.2907635115216264  0.9962406519777056  0.5859868548780237
  0.1178499764156887  0.9189515286968573  0.6092081832683941
  0.3894364856271211  0.9091971160309765  0.5205571803255008
  0.0188438304804491  0.7903666119027071  0.5731755787713153
  0.0315813633151530  0.6784739684567250  0.4915923237425436
  0.2926990850814711  0.9655100524218327  0.4476445183224723
  0.1525714486024807  0.8952602555757295  0.3892261765751957
  0.0285818588669688  0.7860387046459471  0.4185982382475122
  0.2127104130165705  0.1176578996642274  0.4627895850143504
  0.2332234787926500  0.1669082998138237  0.5567005650620033
  0.0324870467642265  0.1779930842741016  0.5862833390254677
  0.0694574389192943  0.1583679947860859  0.4068428716835513
  0.8906669349012700  0.2321237596464553  0.4351616995631830
  0.8884042911910441  0.2110954660299001  0.5326546623234675
  0.0222911717980072  0.0213372063516547  0.3589379475760253
  0.7845318090901795  0.9964404853793312  0.6242081693326313
  0.9731616206305560  0.0375614737231207  0.6313180129744824
  0.7041022716040810  0.1258305565760481  0.5609402949873717
  0.7026781917923532  0.0295368949548161  0.4865672234109910
  0.7235118457447376  0.1180265681909909  0.4104042504937966
  0.8277580087542858  0.9873611411797215  0.3567382004345030
  0.8039986758919078  0.8318995476187050  0.5805925529405610
  0.7831503288341597  0.8900015140944485  0.4903595353611835
  0.8248069641077026  0.8260583308021479  0.4018406992722295
  0.6787977879565344  0.5144100341125757  0.3614470596243317
  0.7094688491988831  0.6718595641706155  0.4087730844699157
  0.4788143448621359  0.4953862987196608  0.3628095250924880
  0.3682279396506146  0.6244921455480309  0.4030359088788223
  0.5095667929733770  0.7068381132445514  0.4375336912674672
  0.4179269587234566  0.3601363917288512  0.4072887090761459
  0.2949878128022422  0.4004463504620446  0.4723570784389299
  0.2261505501339596  0.5726489688388328  0.4753987776110117
  0.5881141441630218  0.2674920422452783  0.4333343503003073
  0.5688583471964188  0.2668965170630300  0.5372594361889118
  0.3601568640779956  0.3221094817593126  0.5538610671604839
  0.7575349464922687  0.3791948979768878  0.4176609502529289
  0.7853290383582826  0.4586797691008916  0.4966897004390309
  0.6805445524144772  0.4072174083276406  0.5620947615982826
  0.8129062887215229  0.6216843672582568  0.4933085583908807
  0.6750932394185846  0.6893968337928253  0.5689114124192234
  0.6057573200337985  0.5289295697493663  0.6110248318944116
  0.4052131192055429  0.4947528270195554  0.5987614606155277
  0.3385709009183455  0.6177625269748498  0.5505618380316923
  0.4765536331972523  0.7466060668787343  0.5273618362524541
 
  0.00000000E+00  0.00000000E+00  0.00000000E+00
  0.00000000E+00  0.00000000E+00  0.00000000E+00
  0.00000000E+00  0.00000000E+00  0.00000000E+00
  0.00000000E+00  0.00000000E+00  0.00000000E+00
  0.00000000E+00  0.00000000E+00  0.00000000E+00
  0.00000000E+00  0.00000000E+00  0.00000000E+00
  0.00000000E+00  0.00000000E+00  0.00000000E+00
  0.00000000E+00  0.00000000E+00  0.00000000E+00
  0.00000000E+00  0.00000000E+00  0.00000000E+00
  0.00000000E+00  0.00000000E+00  0.00000000E+00
  0.00000000E+00  0.00000000E+00  0.00000000E+00
  0.00000000E+00  0.00000000E+00  0.00000000E+00
  0.00000000E+00  0.00000000E+00  0.00000000E+00
  0.00000000E+00  0.00000000E+00  0.00000000E+00
  0.00000000E+00  0.00000000E+00  0.00000000E+00
  0.00000000E+00  0.00000000E+00  0.00000000E+00
  0.00000000E+00  0.00000000E+00  0.00000000E+00
  0.00000000E+00  0.00000000E+00  0.00000000E+00
  0.00000000E+00  0.00000000E+00  0.00000000E+00
  0.00000000E+00  0.00000000E+00  0.00000000E+00
  0.00000000E+00  0.00000000E+00  0.00000000E+00
  0.00000000E+00  0.00000000E+00  0.00000000E+00
  0.00000000E+00  0.00000000E+00  0.00000000E+00
  0.00000000E+00  0.00000000E+00  0.00000000E+00
  0.00000000E+00  0.00000000E+00  0.00000000E+00
  0.00000000E+00  0.00000000E+00  0.00000000E+00
  0.00000000E+00  0.00000000E+00  0.00000000E+00
  0.00000000E+00  0.00000000E+00  0.00000000E+00
  0.00000000E+00  0.00000000E+00  0.00000000E+00
  0.00000000E+00  0.00000000E+00  0.00000000E+00
  0.00000000E+00  0.00000000E+00  0.00000000E+00
  0.00000000E+00  0.00000000E+00  0.00000000E+00
  0.00000000E+00  0.00000000E+00  0.00000000E+00
  0.00000000E+00  0.00000000E+00  0.00000000E+00
  0.00000000E+00  0.00000000E+00  0.00000000E+00
  0.00000000E+00  0.00000000E+00  0.00000000E+00
  0.00000000E+00  0.00000000E+00  0.00000000E+00
  0.00000000E+00  0.00000000E+00  0.00000000E+00
  0.00000000E+00  0.00000000E+00  0.00000000E+00
  0.00000000E+00  0.00000000E+00  0.00000000E+00
  0.00000000E+00  0.00000000E+00  0.00000000E+00
  0.00000000E+00  0.00000000E+00  0.00000000E+00
  0.00000000E+00  0.00000000E+00  0.00000000E+00
  0.00000000E+00  0.00000000E+00  0.00000000E+00
