C                                       
   1.00000000000000     
    13.5081728914645733   -0.6320216082492662    0.0000000000000000
    -7.2792014976155075   11.9972531311053867    0.0000000000000000
     0.0000000000000000    0.0000000000000000   16.0000000000000000
  C             
   108
Direct
  0.3300433213531017  0.6439369960927407  0.6347860579097893
  0.3984728914741286  0.7657810025970738  0.6185986739075067
  0.2225215925598667  0.5960958290493928  0.5898050843799081
  0.3282108675675400  0.7865139249841872  0.5603438490057645
  0.2127592036435359  0.6770352695633051  0.5434676319637234
  0.1750281010379545  0.4854177137659595  0.5460371973915114
  0.1236086129366717  0.5139063713171808  0.4501353697590412
  0.1706421681060003  0.6418923075234864  0.4611034357789748
  0.3116791858913741  0.5188386210494190  0.5176878494506166
  0.4026509423257274  0.6082871456717122  0.5888469532743470
  0.4869552542507553  0.7272975469877329  0.5524062912972716
  0.3111390474219972  0.5537706067479367  0.4313893586316176
  0.4303820450568054  0.6448472957164928  0.4003933181814303
  0.4706431789916125  0.7420471314610143  0.4633782205166472
  0.2162638813517672  0.5331101214847899  0.3878409024101378
  0.5223482034502294  0.9009200073026347  0.5100955967837694
  0.5213287225575697  0.8338120097873524  0.5898397185518842
  0.5634199941193628  0.8656110796898816  0.4286716716250838
  0.4582343906829554  0.8261947141753631  0.3539028016331829
  0.4009551719059766  0.7080298617270578  0.3348966593480585
  0.2706713101575138  0.6429524513984661  0.3423084666620330
  0.3994453914290074  0.8021313722847102  0.4798407321904781
  0.3527745023161040  0.8251606562259612  0.3950873595077438
  0.2387925508331730  0.7075809190109977  0.3873849196112242
  0.8069581246758075  0.7918700646975403  0.5917974640514666
  0.8982568047355408  0.8964666443727783  0.6388337847180856
  0.7168102876997405  0.8182301257736556  0.5630637916723817
  0.8772762297321164  0.9858644499318013  0.6233095621730227
  0.7655178409926634  0.9432848089858994  0.5839533692209966
  0.7065056157323821  0.8119659779144638  0.4685293784881698
  0.7008165958191783  0.9108504476408464  0.4330572277075796
  0.7642178818469669  0.0151358838554002  0.5107247006529809
  0.8089878122239267  0.8036441250775600  0.4335308356178221
  0.8726988483411137  0.7897672683086145  0.5105564206499253
  0.9976757206364916  0.8874415163259192  0.5205829806104504
  0.8735669310313161  0.9038729977862622  0.3778744518978017
  0.9995020617066773  0.9840731828075052  0.3865907156731243
  0.0743603556168584  0.9757059450647028  0.4532704693021395
  0.8084861600919629  0.9584211789328760  0.3731861995048231
  0.0699789150970721  0.0628172510101290  0.5825707919833396
  0.0097626493263409  0.9409249154020841  0.5972887311325769
  0.1361423750400403  0.1012000424437234  0.5019510653316465
  0.0876522308179672  0.1622177740597940  0.4614730785787666
  0.0185375593107527  0.0953605225078581  0.3932705578707508
  0.9000472329489366  0.0749353984693020  0.3923414771702372
  0.9897188048909559  0.0921718765587098  0.5943345150424494
  0.0016879242836205  0.1699745774705403  0.5223074205734062
  0.8843196790076949  0.0918440346077507  0.4738205066396013
  0.7141314308540708  0.6511052919018265  0.5880359183993492
  0.6140231609123961  0.6688935855437977  0.5608549610227209
  0.7827078496227298  0.6517737935683207  0.5081210551931366
  0.7200561615035804  0.6677263042132900  0.4324561973845153
  0.6204522030224733  0.6797966950269207  0.4649682176487629
  0.7660466989430048  0.5318395959005154  0.5008135581030211
  0.6835763242332423  0.4844946251976395  0.4222986548640254
  0.6593764765540521  0.5631336624156634  0.3829187577962579
  0.6726341333192866  0.4475490399551407  0.5731056010127304
  0.5510096353449313  0.3580189579539494  0.5322941596882104
  0.5711144321164440  0.3907155563386638  0.4414400123042496
  0.6450100336608589  0.5282532253946218  0.6204053671153134
  0.5225795222057772  0.4838961658596599  0.6140627526634808
  0.4681399501621596  0.3890017394847134  0.5588155127964414
  0.4894135792934811  0.5659636183213864  0.5850160490620964
  0.4188783673447566  0.5059661713925124  0.5012625674397342
  0.4174433360446879  0.4032287507511280  0.4887265007181577
  0.4784421180321347  0.4068809596997517  0.4140486473553491
  0.5344577466997197  0.5171837439351498  0.3761170759120403
  0.5023094219012820  0.5924238925932233  0.4229377967136771
  0.2896832407123591  0.0940827018511451  0.5912073370490571
  0.2460407166771543  0.9764622838878403  0.6045682689592942
  0.2564098590905539  0.1131651561372789  0.5047395883052183
  0.1978981554150913  0.9939146977209229  0.4540118411529995
  0.2090891295881046  0.9276806358370024  0.5214402430360831
  0.3793907827674998  0.1823320289779636  0.4695405202133094
  0.3960276943101695  0.1207893261868761  0.4087935739680153
  0.2951870687643670  0.0077234150220634  0.3926751909618056
  0.4811332584188057  0.2312937121786384  0.5367411651901595
  0.5584475548016288  0.1899876345776956  0.5104649760366180
  0.5038876919326269  0.1263662420624472  0.4308814805467737
  0.4134918817090321  0.1607168095239693  0.6106383872145990
  0.4474674626561279  0.0830419189776943  0.6313268514316714
  0.5484367622937054  0.1009469989334812  0.5754100516797583
  0.3446642278653699  0.9701372798339962  0.6312508149536872
  0.3606343883514983  0.9064818196866580  0.5640388785697085
  0.4928646404743263  0.9878357173264295  0.5259923506517952
  0.4674034540663760  0.0169445578684027  0.4421081963114307
  0.3432272754554834  0.9278550511159295  0.4133264342754365
  0.2848328612452982  0.9001001946178615  0.4959328187999676
  0.8748030435306104  0.2059459525844700  0.5926551789999093
  0.9883752750051878  0.2707174799266993  0.5419621349860066
  0.7647263719945080  0.1416652311115549  0.5381276256701204
  0.8187919787438609  0.2301710855070624  0.4657658354078106
  0.9411359378074684  0.2980960812212756  0.4645402665688430
  0.6852668532341637  0.1769874879087308  0.5857564761424423
  0.6892071126610156  0.2729977378364100  0.5283173178756959
  0.7774404303813924  0.3043669409046658  0.4605177475597937
  0.7597140331527964  0.2487275440680425  0.6599359635636535
  0.7902597306045661  0.3610613957433159  0.6576299729264865
  0.7406423255166694  0.3870048576175604  0.5819110039883937
  0.8730358230631871  0.2583692526864244  0.6639477074619156
  0.9769699363492349  0.3753846515727390  0.6719083895615658
  0.9195733011391420  0.4358038309360442  0.6611643452334564
  0.0532650679085672  0.3920004580791867  0.5869464320925383
  0.9955652940014542  0.4450007955048508  0.5432551655345351
  0.9504429000159910  0.4993017700091669  0.5811598451790502
  0.8477984156234861  0.4813846217844771  0.5237242841839684
  0.8659821101161718  0.4186258491360598  0.4516395787283468
  0.9857014185435584  0.4236477309036457  0.4533600375223457
 
  0.00000000E+00  0.00000000E+00  0.00000000E+00
  0.00000000E+00  0.00000000E+00  0.00000000E+00
  0.00000000E+00  0.00000000E+00  0.00000000E+00
  0.00000000E+00  0.00000000E+00  0.00000000E+00
  0.00000000E+00  0.00000000E+00  0.00000000E+00
  0.00000000E+00  0.00000000E+00  0.00000000E+00
  0.00000000E+00  0.00000000E+00  0.00000000E+00
  0.00000000E+00  0.00000000E+00  0.00000000E+00
  0.00000000E+00  0.00000000E+00  0.00000000E+00
  0.00000000E+00  0.00000000E+00  0.00000000E+00
  0.00000000E+00  0.00000000E+00  0.00000000E+00
  0.00000000E+00  0.00000000E+00  0.00000000E+00
  0.00000000E+00  0.00000000E+00  0.00000000E+00
  0.00000000E+00  0.00000000E+00  0.00000000E+00
  0.00000000E+00  0.00000000E+00  0.00000000E+00
  0.00000000E+00  0.00000000E+00  0.00000000E+00
  0.00000000E+00  0.00000000E+00  0.00000000E+00
  0.00000000E+00  0.00000000E+00  0.00000000E+00
  0.00000000E+00  0.00000000E+00  0.00000000E+00
  0.00000000E+00  0.00000000E+00  0.00000000E+00
  0.00000000E+00  0.00000000E+00  0.00000000E+00
  0.00000000E+00  0.00000000E+00  0.00000000E+00
  0.00000000E+00  0.00000000E+00  0.00000000E+00
  0.00000000E+00  0.00000000E+00  0.00000000E+00
  0.00000000E+00  0.00000000E+00  0.00000000E+00
  0.00000000E+00  0.00000000E+00  0.00000000E+00
  0.00000000E+00  0.00000000E+00  0.00000000E+00
  0.00000000E+00  0.00000000E+00  0.00000000E+00
  0.00000000E+00  0.00000000E+00  0.00000000E+00
  0.00000000E+00  0.00000000E+00  0.00000000E+00
  0.00000000E+00  0.00000000E+00  0.00000000E+00
  0.00000000E+00  0.00000000E+00  0.00000000E+00
  0.00000000E+00  0.00000000E+00  0.00000000E+00
  0.00000000E+00  0.00000000E+00  0.00000000E+00
  0.00000000E+00  0.00000000E+00  0.00000000E+00
  0.00000000E+00  0.00000000E+00  0.00000000E+00
  0.00000000E+00  0.00000000E+00  0.00000000E+00
  0.00000000E+00  0.00000000E+00  0.00000000E+00
  0.00000000E+00  0.00000000E+00  0.00000000E+00
  0.00000000E+00  0.00000000E+00  0.00000000E+00
  0.00000000E+00  0.00000000E+00  0.00000000E+00
  0.00000000E+00  0.00000000E+00  0.00000000E+00
  0.00000000E+00  0.00000000E+00  0.00000000E+00
  0.00000000E+00  0.00000000E+00  0.00000000E+00
  0.00000000E+00  0.00000000E+00  0.00000000E+00
  0.00000000E+00  0.00000000E+00  0.00000000E+00
  0.00000000E+00  0.00000000E+00  0.00000000E+00
  0.00000000E+00  0.00000000E+00  0.00000000E+00
  0.00000000E+00  0.00000000E+00  0.00000000E+00
  0.00000000E+00  0.00000000E+00  0.00000000E+00
  0.00000000E+00  0.00000000E+00  0.00000000E+00
  0.00000000E+00  0.00000000E+00  0.00000000E+00
  0.00000000E+00  0.00000000E+00  0.00000000E+00
  0.00000000E+00  0.00000000E+00  0.00000000E+00
  0.00000000E+00  0.00000000E+00  0.00000000E+00
  0.00000000E+00  0.00000000E+00  0.00000000E+00
  0.00000000E+00  0.00000000E+00  0.00000000E+00
  0.00000000E+00  0.00000000E+00  0.00000000E+00
  0.00000000E+00  0.00000000E+00  0.00000000E+00
  0.00000000E+00  0.00000000E+00  0.00000000E+00
  0.00000000E+00  0.00000000E+00  0.00000000E+00
  0.00000000E+00  0.00000000E+00  0.00000000E+00
  0.00000000E+00  0.00000000E+00  0.00000000E+00
  0.00000000E+00  0.00000000E+00  0.00000000E+00
  0.00000000E+00  0.00000000E+00  0.00000000E+00
  0.00000000E+00  0.00000000E+00  0.00000000E+00
  0.00000000E+00  0.00000000E+00  0.00000000E+00
  0.00000000E+00  0.00000000E+00  0.00000000E+00
  0.00000000E+00  0.00000000E+00  0.00000000E+00
  0.00000000E+00  0.00000000E+00  0.00000000E+00
  0.00000000E+00  0.00000000E+00  0.00000000E+00
  0.00000000E+00  0.00000000E+00  0.00000000E+00
  0.00000000E+00  0.00000000E+00  0.00000000E+00
  0.00000000E+00  0.00000000E+00  0.00000000E+00
  0.00000000E+00  0.00000000E+00  0.00000000E+00
  0.00000000E+00  0.00000000E+00  0.00000000E+00
  0.00000000E+00  0.00000000E+00  0.00000000E+00
  0.00000000E+00  0.00000000E+00  0.00000000E+00
  0.00000000E+00  0.00000000E+00  0.00000000E+00
  0.00000000E+00  0.00000000E+00  0.00000000E+00
  0.00000000E+00  0.00000000E+00  0.00000000E+00
  0.00000000E+00  0.00000000E+00  0.00000000E+00
  0.00000000E+00  0.00000000E+00  0.00000000E+00
  0.00000000E+00  0.00000000E+00  0.00000000E+00
  0.00000000E+00  0.00000000E+00  0.00000000E+00
  0.00000000E+00  0.00000000E+00  0.00000000E+00
  0.00000000E+00  0.00000000E+00  0.00000000E+00
  0.00000000E+00  0.00000000E+00  0.00000000E+00
  0.00000000E+00  0.00000000E+00  0.00000000E+00
  0.00000000E+00  0.00000000E+00  0.00000000E+00
  0.00000000E+00  0.00000000E+00  0.00000000E+00
  0.00000000E+00  0.00000000E+00  0.00000000E+00
  0.00000000E+00  0.00000000E+00  0.00000000E+00
  0.00000000E+00  0.00000000E+00  0.00000000E+00
  0.00000000E+00  0.00000000E+00  0.00000000E+00
  0.00000000E+00  0.00000000E+00  0.00000000E+00
  0.00000000E+00  0.00000000E+00  0.00000000E+00
  0.00000000E+00  0.00000000E+00  0.00000000E+00
  0.00000000E+00  0.00000000E+00  0.00000000E+00
  0.00000000E+00  0.00000000E+00  0.00000000E+00
  0.00000000E+00  0.00000000E+00  0.00000000E+00
  0.00000000E+00  0.00000000E+00  0.00000000E+00
  0.00000000E+00  0.00000000E+00  0.00000000E+00
  0.00000000E+00  0.00000000E+00  0.00000000E+00
  0.00000000E+00  0.00000000E+00  0.00000000E+00
  0.00000000E+00  0.00000000E+00  0.00000000E+00
  0.00000000E+00  0.00000000E+00  0.00000000E+00
  0.00000000E+00  0.00000000E+00  0.00000000E+00
