C 
 1.0000000000000000
    12.4234820724442674    0.0000000000000000    0.0000000000000000
     0.0000000000000000   12.4234820724442692    0.0000000000000000
     0.0000000000000000    0.0000000000000000   16.0000000000000000
 C  
 128
Direct
  0.4762239445655820  0.0532988807723917  0.6420253989925074
  0.3719300403025747  0.0286739848818227  0.6088684607495467
  0.5436297181812810 -0.0402411804787470  0.6420242013252261
  0.3813058998757157 -0.0799353339198785  0.5709313531079123
  0.4861308296337115 -0.1219704892488863  0.5910583705008758
  0.6423941203511767 -0.0190626310774080  0.5989830303633391
  0.6599519051129280 -0.0967183996524826  0.5341351132906115
  0.5572648340119469 -0.1565599467634363  0.5252693336548755
  0.6275428053779138  0.0857755149057407  0.5560603622260807
  0.5259044273362717  0.1300207649131334  0.5824018342254914
  0.4458413431920061  0.1587010226079490  0.5212200072606507
  0.6492157293541613  0.0702005610155432  0.4684927327273263
  0.5692044549366807  0.0988947070628121  0.4073283270986466
  0.4675412676798332  0.1431260331982317  0.4336666608324051
  0.6780751802139718 -0.0446463934706007  0.4555381998956865
  0.3169243898492737  0.0409769839914104  0.4683850973230085
  0.3450041856673241  0.1003074744028684  0.5419781099742941
  0.3807104490330703  0.0747397027212501  0.3985172123979459
  0.4332534238783948 -0.0154087236114558  0.3604923044865339
  0.5469394533376115  0.0024298049621719  0.3555022646902308
  0.6049995654567095 -0.0843663264490340  0.3936051595101326
  0.3476358501671614 -0.0724050232178712  0.4850078766469745
  0.4187777356231590 -0.1068759411199981  0.4191888791086726
  0.5235984468615433 -0.1489550464255283  0.4393409824867165
 -0.1278223630357032  0.6624855555074813  0.6420173668525474
 -0.2218844762546137  0.6146601558391119  0.6058291543956915
 -0.0389549679161977  0.5890753778503777  0.6399906109720361
 -0.1846548660478141  0.5146358318460643  0.5641584965779429
 -0.0729816220395549  0.4990609351452935  0.5849010985241230
  0.0520104840045022  0.6373311297576375  0.5998515439818669
  0.0898131958832269  0.5710991728428702  0.5326164619827833
  0.0057732124303428  0.4880048847344958  0.5194247672152735
  0.0119031295169177  0.7378008183784841  0.5605293591409073
 -0.0980885629824140  0.7531712619404434  0.5863341239245405
 -0.1816857588760240  0.7648553214087577  0.5246241890014446
  0.0383953943563009  0.7341323999905667  0.4729720665709262
 -0.0451555105952005  0.7458417530405969  0.4112811181629720
 -0.1551676241533391  0.7611927042697824  0.4370817206020861
  0.0955980988995367  0.6312988561765535  0.4564247909442209
 -0.2756621500138320  0.6221940208405489  0.4648569925055872
 -0.2648392300490114  0.6816227033955772  0.5411043056052528
 -0.2212309874615603  0.6756133176416557  0.3976626220130454
 -0.1469104427390599  0.6043082212180089  0.3574826450529798
 -0.0413547833810745  0.6505217325938273  0.3555273012623292
  0.0360755250165418  0.5786970397914269  0.3916006920364011
 -0.2175743488247073  0.5192422024493575  0.4779356925858009
 -0.1388413314746392  0.5083047115659514  0.4124339591110784
 -0.0271615060086432  0.4926845855412409  0.4331999091815436
  0.5440272285548065  0.2475169549507469  0.4048070850128181
  0.4646899415872298  0.3276468222046863  0.4289229586026979
  0.5890252243374805  0.2034821860903470  0.4800228329523959
  0.5372608760237081  0.2566723630531303  0.5502216302163169
  0.4554185826462041  0.3318780858639141  0.5200130440782832
  0.7049526126056431  0.2240026084753855  0.4816408383985342
  0.7203846019339243  0.2975004452403455  0.5520408011678570
  0.6187248930471057  0.3149688272368472  0.5948909641494173
  0.7249748370010112  0.2897527127457469  0.4078917682256905
  0.7660791548042610  0.3956205482526929  0.4304033483894590
  0.7568308033719431  0.3998266534564007  0.5214853729962226
  0.6294695561456626  0.2978277162506026  0.3555053750826422
  0.6027992635089231  0.4125121922144132  0.3555178273193857
  0.6842580369651214  0.4708328056566242  0.4001812519067546
  0.5011480595399130  0.4299605627212505  0.3983532075379769
  0.5165759336638500  0.5034637786870477  0.4687462111121906
  0.6324972491586087  0.5239990111467930  0.4703853997935634
  0.6774973659649070  0.4799556852837061  0.5456041066374415
  0.5920386631543144  0.4296509271457961  0.5949096372981366
  0.4965322098549604  0.4377469892224246  0.5425142421155602
  0.4090473243670534  0.8081716049137548  0.5059910694615783
  0.4711807769216741  0.7484179211193824  0.5673701298057743
  0.3018880365948914  0.8200924454949486  0.5382148548744212
  0.2983776157216962  0.7676041451746689  0.6193361553596228
  0.4049133013952274  0.7257966277891550  0.6408815755454123
  0.2255707353275578  0.7687780640981308  0.4811189080847172
  0.1811428880229333  0.6787643292984152  0.5288844213344243
  0.2234875427501917  0.6799658590828911  0.6135543795342312
  0.2927696169639693  0.7182995232337003  0.4176504039363398
  0.2797170202788319  0.6018193387032348  0.4173892097987068
  0.2134317743402941  0.5792174373807489  0.4908819842674185
  0.4052839941903578  0.7488123681596660  0.4270907984617882
  0.4611246701760490  0.6476613337124973  0.4446966079037198
  0.3862509068041820  0.5600030191011121  0.4389138946672667
  0.5034689033528932  0.6488828966184816  0.5293503948088275
  0.4590513586671845  0.5588668122535377  0.5771129477812386
  0.3827258738650720  0.5075351668773176  0.5200365748190205
  0.2755599174981764  0.5194628319727386  0.5522612102806145
  0.2793336083408057  0.5788199628302729  0.6311729093550501
  0.3918629473792044  0.6093153108909297  0.6406078545904330
  1.0665677239145508  0.9612157402028848  0.4146552950672944
  1.0515236763710891  0.8975623619480193  0.4899436381477050
  1.0718347653903386  1.0722391915400897  0.4391301830813865
  1.0599843619773361  1.0765908960287516  0.5294242520074294
  1.0516780536902988  0.9676006886864897  0.5634456933411461
  0.9843847373341912  1.1317410851530219  0.3989589072803357
  0.9152263694693127  1.1659914200118251  0.4679929993824786
  0.9628696322479117  1.1347427237761829  0.5473257149536513
  0.9220057524188957  1.0497563335121924  0.3555004949953958
  0.8127006758104340  1.0430461249030654  0.3879405854531607
  0.8128609569967689  1.1131029086202497  0.4614194172231384
  0.9755817567294386  0.9455533667618453  0.3579178421623255
  0.9015069435634461  0.8759213779560266  0.4040385943918443
  0.8043765300536208  0.9340537340325936  0.4219451770349789
  0.9491611233380266  0.8446745161461646  0.4833505808784325
  0.8800012092385365  0.8789139919602081  0.5523827885749752
  0.7925427177665143  0.9384233670419102  0.5122344533876318
  0.7978151340686739  1.0494546072698203  0.5367080685912066
  0.8888063344348791  1.0651078239757490  0.5934569639699113
  0.9423666664063091  0.9608865931789299  0.5958744874461294
  0.0966989840834855  0.3857624518801381  0.4285259869174520
  0.1768018261926886  0.4526723432236485  0.4695130983621111
  0.0269996036713415  0.3434905928422610  0.4920949141711187
  0.0644369073633139  0.3844926303619091  0.5720356781486927
  0.1557444075566562  0.4570606941653057  0.5594079031138166
  0.0324088816481414  0.2258709998794843  0.4913339826982375
  0.0813307123009104  0.1976212662561228  0.5715366758999544
  0.0981193677137371  0.2940311194500136  0.6213070973204667
  0.1148515111557362  0.2008023766880742  0.4296060963838870
  0.2057948794899238  0.1450830797292492  0.4673489772714130
  0.1847126811624637  0.1494523299200090  0.5572305320109988
  0.1492764326187953  0.2967848555179529  0.3847276950343099
  0.2634018917540445  0.3080891584502337  0.4054380839180765
  0.2971100435536304  0.2176299340426779  0.4547080875546081
  0.2801744312798817  0.4044939118252927  0.4551903033891577
  0.3291039670097138  0.3762478696352731  0.5353873329196088
  0.3345221916744500  0.2586313548925629  0.5346498371490931
  0.2648134266737142  0.2163583848511769  0.5982200952751575
  0.2122426555759645  0.3053512338200453  0.6420239413964415
  0.2466906805979076  0.4013325174734998  0.5971403868349547
