Generated by VASPKIT code               
   1.00000000000000     
    12.0868912692845676   -0.0546089051327204    0.0000000000000000
    -6.0920986591503903   10.3009791860487443    0.0000000000000000
     0.0000000000000012    0.0000000000000021   19.7163061060893057
   C 
    84
Direct
  0.0766662034756180  0.2424213911621820  0.5071349321748642
  0.0689633578180562  0.1878998422412295  0.5726450288334419
  0.1696310170566306  0.2213902525507407  0.4647790480296692
  0.1359128785540449  0.1201001522535634  0.5789757118735750
  0.2194610434856585  0.1508451914438567  0.5161721959173846
  0.0918752427621428  0.1197926324174858  0.4139171296999962
  0.1090137640683579  0.0122179812433600  0.4179057584920400
  0.1996243511142026  0.0242946868022855  0.4738868713906186
  0.9577683635312368  0.0742212073199013  0.4208590716722682
  0.9392945557929551  0.1582738214895656  0.4693764387036197
  0.8707924884443798  0.0731725304674313  0.5308984668314949
  0.8903228688183162  0.9337427913962202  0.4213176508971657
  0.7852629943195737  0.8458075468681656  0.4687251823001830
  0.7713191155761976  0.9280736738571775  0.5293932079011370
  0.9832261820305916  0.8962045030379073  0.4155093762138407
  0.9246216940127994  0.9970662613743642  0.6274192085022250
  0.9383755022921960  0.1093529971900153  0.5916436997102252
  0.8261488530050869  0.8898265496152717  0.5941137531960905
  0.8867193925223731  0.8206797706004139  0.5696950911000158
  0.8395493654578985  0.7659822693971847  0.5042385102636047
  0.9584598707448535  0.7891893274130624  0.4627460113096049
  0.0501400125847269  0.0013232437030979  0.6109833796594657
  0.0188860967544571  0.8814157349032996  0.5772117838807489
  0.0762677039456463  0.8547450974801336  0.5159886217441212
  0.6241176441961969  0.1239960012447554  0.5506176182309162
  0.8850988106590663  0.5041713350536767  0.5483191735772976
  0.5465866701916866  0.4586360077087406  0.5747360105282127
  0.5084555139860925  0.1263439696115682  0.5546249626180710
  0.8826533587598959  0.3810826195638626  0.5479723159356666
  0.6096513384217275  0.5993126853049304  0.5650167969972628
  0.6937366513931167  0.1757574426054873  0.4841171263113395
  0.8319341283897685  0.5257849445880467  0.4821331803231885
  0.5894763185463674  0.4101108721143660  0.5255266740989128
  0.5794697638761050  0.1733157316191338  0.4455472883273686
  0.8344878535437985  0.4177526675961474  0.4410983951232126
  0.6995947361472972  0.5175067608615862  0.4821218948315789
  0.4743191506659770  0.1724763496007427  0.4890957278433348
  0.8271746025588271  0.3047173600636768  0.4824830914950766
  0.7077056958261565  0.6441833856819343  0.5074417588066567
  0.6809268587804524  0.0457659743037837  0.4594978885588645
  0.9588999677536165  0.6601102847342091  0.4563723270965525
  0.4770760439200785  0.2988937721997331  0.4866275895536845
  0.5901485850515797  0.9949844116555369  0.4086270184519876
  0.0111281415021907  0.6075415501097510  0.4033745210973194
  0.4991824786147561  0.3725892520246603  0.4193930241976673
  0.5260397316096999  0.0721547671888629  0.4004716866538871
  0.9301868257002610  0.4659447067864662  0.3937376404752868
  0.6225779961244413  0.4958847854251616  0.4170774238039598
  0.6535300302543448  0.9410767098439905  0.5153842645065581
  0.0671314285185787  0.7128229547998330  0.5142175697282241
  0.3528709285667517  0.2901748710217689  0.5155741243860135
  0.5231968988850397  0.8151024442593737  0.4886395762203506
  0.1809508971398373  0.6979587162258198  0.4878679542257132
  0.2994060351133427  0.3459335838443423  0.4590739097885219
  0.4931806733302082  0.8647709015033627  0.4239340569311381
  0.1306389690507075  0.6270335069687718  0.4204695741713422
  0.4003686564866911  0.3943365819114035  0.4041853352665328
  0.6059602246246882  0.9997639053582077  0.5677997989962407
  0.0069192601600534  0.6045377308723303  0.5667429720349020
  0.4054900185941221  0.3970523951291867  0.5685084011071950
  0.4718664520315912  0.9157873679309034  0.5784946619699127
  0.0830653703726938  0.5416011300389840  0.5761346078334455
  0.3854540422403403  0.4977531423442016  0.5517489393755781
  0.4181544474016832  0.8117046240962082  0.5335265530290698
  0.1777643638551751  0.5887760527449970  0.5280742792025421
  0.3082534261314009  0.4769856557008154  0.4858366608639102
  0.4111112115409341  0.9953248133665085  0.5723708228595825
  0.0030603728673384  0.4014369993484337  0.5653231847617946
  0.5094772414484652  0.6192507732166561  0.5500181327444480
  0.3255371915205174  0.9434023505389746  0.5203171423951858
  0.0601662014762283  0.3584969709946790  0.5097210663894245
  0.5283818761264314  0.6926841142986788  0.4842392402805800
  0.3122486733424310  0.8181070263487058  0.4936858388204541
  0.1823350435766002  0.4839709433623796  0.4851772887735848
  0.4190980920706266  0.5826021550917275  0.4438011105497779
  0.3786183620062715  0.8685069272955204  0.4275171118447005
  0.1288229518879263  0.5043648347921561  0.4190933142165818
  0.4631978775831556  0.5355326976229833  0.3945222232471650
  0.3889440800032276  0.9879308564965754  0.4100134458089428
  0.0061304486726002  0.4023482906489093  0.4019222420204400
  0.6039563382964701  0.5984409486609508  0.4005902740056584
  0.3349330191625555  0.0364894966963760  0.4670847036775925
  0.9461251391397383  0.2952804395052553  0.4562353921298694
  0.6547219721340554  0.7055999932453076  0.4550614148482808
 
  0.00000000E+00  0.00000000E+00  0.00000000E+00
  0.00000000E+00  0.00000000E+00  0.00000000E+00
  0.00000000E+00  0.00000000E+00  0.00000000E+00
  0.00000000E+00  0.00000000E+00  0.00000000E+00
  0.00000000E+00  0.00000000E+00  0.00000000E+00
  0.00000000E+00  0.00000000E+00  0.00000000E+00
  0.00000000E+00  0.00000000E+00  0.00000000E+00
  0.00000000E+00  0.00000000E+00  0.00000000E+00
  0.00000000E+00  0.00000000E+00  0.00000000E+00
  0.00000000E+00  0.00000000E+00  0.00000000E+00
  0.00000000E+00  0.00000000E+00  0.00000000E+00
  0.00000000E+00  0.00000000E+00  0.00000000E+00
  0.00000000E+00  0.00000000E+00  0.00000000E+00
  0.00000000E+00  0.00000000E+00  0.00000000E+00
  0.00000000E+00  0.00000000E+00  0.00000000E+00
  0.00000000E+00  0.00000000E+00  0.00000000E+00
  0.00000000E+00  0.00000000E+00  0.00000000E+00
  0.00000000E+00  0.00000000E+00  0.00000000E+00
  0.00000000E+00  0.00000000E+00  0.00000000E+00
  0.00000000E+00  0.00000000E+00  0.00000000E+00
  0.00000000E+00  0.00000000E+00  0.00000000E+00
  0.00000000E+00  0.00000000E+00  0.00000000E+00
  0.00000000E+00  0.00000000E+00  0.00000000E+00
  0.00000000E+00  0.00000000E+00  0.00000000E+00
  0.00000000E+00  0.00000000E+00  0.00000000E+00
  0.00000000E+00  0.00000000E+00  0.00000000E+00
  0.00000000E+00  0.00000000E+00  0.00000000E+00
  0.00000000E+00  0.00000000E+00  0.00000000E+00
  0.00000000E+00  0.00000000E+00  0.00000000E+00
  0.00000000E+00  0.00000000E+00  0.00000000E+00
  0.00000000E+00  0.00000000E+00  0.00000000E+00
  0.00000000E+00  0.00000000E+00  0.00000000E+00
  0.00000000E+00  0.00000000E+00  0.00000000E+00
  0.00000000E+00  0.00000000E+00  0.00000000E+00
  0.00000000E+00  0.00000000E+00  0.00000000E+00
  0.00000000E+00  0.00000000E+00  0.00000000E+00
  0.00000000E+00  0.00000000E+00  0.00000000E+00
  0.00000000E+00  0.00000000E+00  0.00000000E+00
  0.00000000E+00  0.00000000E+00  0.00000000E+00
  0.00000000E+00  0.00000000E+00  0.00000000E+00
  0.00000000E+00  0.00000000E+00  0.00000000E+00
  0.00000000E+00  0.00000000E+00  0.00000000E+00
  0.00000000E+00  0.00000000E+00  0.00000000E+00
  0.00000000E+00  0.00000000E+00  0.00000000E+00
  0.00000000E+00  0.00000000E+00  0.00000000E+00
  0.00000000E+00  0.00000000E+00  0.00000000E+00
  0.00000000E+00  0.00000000E+00  0.00000000E+00
  0.00000000E+00  0.00000000E+00  0.00000000E+00
  0.00000000E+00  0.00000000E+00  0.00000000E+00
  0.00000000E+00  0.00000000E+00  0.00000000E+00
  0.00000000E+00  0.00000000E+00  0.00000000E+00
  0.00000000E+00  0.00000000E+00  0.00000000E+00
  0.00000000E+00  0.00000000E+00  0.00000000E+00
  0.00000000E+00  0.00000000E+00  0.00000000E+00
  0.00000000E+00  0.00000000E+00  0.00000000E+00
  0.00000000E+00  0.00000000E+00  0.00000000E+00
  0.00000000E+00  0.00000000E+00  0.00000000E+00
  0.00000000E+00  0.00000000E+00  0.00000000E+00
  0.00000000E+00  0.00000000E+00  0.00000000E+00
  0.00000000E+00  0.00000000E+00  0.00000000E+00
  0.00000000E+00  0.00000000E+00  0.00000000E+00
  0.00000000E+00  0.00000000E+00  0.00000000E+00
  0.00000000E+00  0.00000000E+00  0.00000000E+00
  0.00000000E+00  0.00000000E+00  0.00000000E+00
  0.00000000E+00  0.00000000E+00  0.00000000E+00
  0.00000000E+00  0.00000000E+00  0.00000000E+00
  0.00000000E+00  0.00000000E+00  0.00000000E+00
  0.00000000E+00  0.00000000E+00  0.00000000E+00
  0.00000000E+00  0.00000000E+00  0.00000000E+00
  0.00000000E+00  0.00000000E+00  0.00000000E+00
  0.00000000E+00  0.00000000E+00  0.00000000E+00
  0.00000000E+00  0.00000000E+00  0.00000000E+00
  0.00000000E+00  0.00000000E+00  0.00000000E+00
  0.00000000E+00  0.00000000E+00  0.00000000E+00
  0.00000000E+00  0.00000000E+00  0.00000000E+00
  0.00000000E+00  0.00000000E+00  0.00000000E+00
  0.00000000E+00  0.00000000E+00  0.00000000E+00
  0.00000000E+00  0.00000000E+00  0.00000000E+00
  0.00000000E+00  0.00000000E+00  0.00000000E+00
  0.00000000E+00  0.00000000E+00  0.00000000E+00
  0.00000000E+00  0.00000000E+00  0.00000000E+00
  0.00000000E+00  0.00000000E+00  0.00000000E+00
  0.00000000E+00  0.00000000E+00  0.00000000E+00
  0.00000000E+00  0.00000000E+00  0.00000000E+00
