Generated by VASPKIT code               
   1.00000000000000     
    12.5003137452137310   -0.0010302040328501    0.0000000000000000
    -6.2512092838613684   10.3368943635428874    0.0000000000000000
     0.0000000000000013    0.0000000000000021   19.7103720953277453
   C 
    84
Direct
  0.4458320376129521  0.6875365446570498  0.5932597485976245
  0.3226356763325029  0.6178811618907787  0.6222963421265817
  0.4784284593119636  0.6179684562579624  0.5509089864945764
  0.2639094762174352  0.5102563141156722  0.5744846353287514
  0.3573735094266439  0.4874124716708792  0.5344467122159742
  0.5520905239085678  0.6938138466473518  0.4890279869739658
  0.4568628382090694  0.6243072872022069  0.4362218033585705
  0.3464122225173298  0.5159687138508318  0.4603432470688631
  0.5448036283470898  0.8328695801767410  0.4978032268480845
  0.4620568042996425  0.7990689241475621  0.5576144006836472
  0.3533722593770463  0.8053836064696895  0.5641368617324289
  0.4521768581176389  0.8046659329396206  0.4356949103789489
  0.3375159094197357  0.7991336259771771  0.4421955118986602
  0.2890662399468695  0.8336217899998246  0.5019831781086097
  0.4260864743360031  0.6960867874658589  0.3918475136855690
  0.1678857432919045  0.6255568142790082  0.5639829658113698
  0.2707390913936152  0.6972774138915341  0.6082029530658204
  0.1424274351846222  0.6949917989778811  0.5110064734638655
  0.1396011297282342  0.6185537338188993  0.4492586737535760
  0.2417726693028399  0.6874748905657100  0.4068093150365186
  0.2946913299338405  0.6171242269233588  0.3779489683291857
  0.1693042160905449  0.5167170129026815  0.5400826935917991
  0.1296030054801776  0.4878705565079642  0.4660220326376106
  0.2455196327240543  0.5098397595100650  0.4259695656439320
  0.7712043058101798  0.1698097891238319  0.5813366341295989
  0.8315403928215161  0.6046927714471266  0.5890147370768801
  0.4044366304372176  0.2246724155583664  0.5968959778531158
  0.8495502085577087  0.3003344680750502  0.5572411660390557
  0.7071212841448045  0.5601422282351365  0.5659936826488519
  0.4405330440771991  0.1355952252375445  0.5724126905406877
  0.8465795950297164  0.1086563863689705  0.5817512452823195
  0.9007725855489568  0.7482490255689385  0.5905342618126141
  0.2647875298702829  0.1618272871983848  0.5956576350024037
  0.9704102369170471  0.1997944516458219  0.5569013233960973
  0.8211962372846244  0.7938618338412127  0.5668300914198170
  0.2119983185222267  0.0326108960431029  0.5717809693061184
  0.9643001038446428  0.3101102512126133  0.5398997010092756
  0.7102520521701479  0.6769144555400644  0.5505922776138092
  0.3209359081769634  0.0286411099511170  0.5560944540834143
  0.7886909534028348  0.0021735186938230  0.5408947804947886
  0.9997758001412578  0.7899473254345963  0.5478014858517071
  0.2289184938991227  0.2317656776665373  0.5567919401456791
  0.8804956995598019  0.0072178154347355  0.4899338793965811
  0.0036428511383519  0.8823786895941623  0.4957032361347515
  0.1356181450134457  0.1464912941296248  0.5003648646135943
  0.0109498218675768  0.1464309880238872  0.4977667039371383
  0.8787882408819030  0.8824802428208969  0.5020545813998609
  0.1266273026941462  0.0071730892286155  0.5078699493453556
  0.6622367995500866  0.9746692612157162  0.5116674752956527
  0.0142391105804833  0.6820596448305665  0.5196017496753313
  0.3494922318047387  0.3549929263294374  0.5328665111233661
  0.7068823931757962  0.0294062415319445  0.4437388014167354
  0.9660282203380675  0.6751832448695012  0.4494666842248236
  0.3473487120771921  0.3110271781405558  0.4605231709666953
  0.8196166756388052  0.0337886313510083  0.4269216810127361
  0.9715675328757385  0.7914243673459964  0.4319130848605255
  0.2315094942055183  0.2011014648256761  0.4421967491234398
  0.6653874598269880  0.0985922686991501  0.5425094907786772
  0.8917219699615373  0.5602770033538746  0.5486300746565504
  0.4544503822400401  0.3335396622374134  0.5581538241030870
  0.6570903993748374  0.1910413401279882  0.4932266243835457
  0.7969427672023315  0.4641199413684518  0.4962286961907338
  0.5426470343163246  0.3338092165441822  0.5040371081609010
  0.6941980041283458  0.1368441145290760  0.4288120029665521
  0.8519903916526417  0.5577929875363097  0.4354264623290192
  0.4529501074371467  0.3017002621307654  0.4442197355828341
  0.7912451179045235  0.3336613801330444  0.4983065865684253
  0.6674295225639924  0.4642614943457630  0.5061714470588612
  0.5339028527717673  0.1910567047446605  0.5088750885110116
  0.8783548506237651  0.3343360091371110  0.4433756335772259
  0.6678586421140906  0.5583952676881978  0.4527751140801470
  0.4347716779590414  0.0998191211585748  0.4585895982360952
  0.8189801178687262  0.2263800978791934  0.4040111162682578
  0.7716166578271952  0.6012526430375544  0.4118698796713289
  0.4016536601526681  0.1717744783734219  0.4194035116216313
  0.8957420101574698  0.1635562716514443  0.4038041433706923
  0.8457210494521092  0.7446835942880412  0.4088634024183406
  0.2651234880882782  0.1105036272891766  0.4176080623319010
  0.0021947245540517  0.2327755052060567  0.4423342876996301
  0.7890615772095728  0.7881271974451849  0.4509716773200125
  0.2149946832338472  0.0029667469426258  0.4577624136294034
  0.0050926012737165  0.3554065828417805  0.4676011481838458
  0.6673764124408805  0.6810417538490583  0.4804564085376626
  0.3132797550957065  0.9752872801010355  0.4880687653305529
 
  0.00000000E+00  0.00000000E+00  0.00000000E+00
  0.00000000E+00  0.00000000E+00  0.00000000E+00
  0.00000000E+00  0.00000000E+00  0.00000000E+00
  0.00000000E+00  0.00000000E+00  0.00000000E+00
  0.00000000E+00  0.00000000E+00  0.00000000E+00
  0.00000000E+00  0.00000000E+00  0.00000000E+00
  0.00000000E+00  0.00000000E+00  0.00000000E+00
  0.00000000E+00  0.00000000E+00  0.00000000E+00
  0.00000000E+00  0.00000000E+00  0.00000000E+00
  0.00000000E+00  0.00000000E+00  0.00000000E+00
  0.00000000E+00  0.00000000E+00  0.00000000E+00
  0.00000000E+00  0.00000000E+00  0.00000000E+00
  0.00000000E+00  0.00000000E+00  0.00000000E+00
  0.00000000E+00  0.00000000E+00  0.00000000E+00
  0.00000000E+00  0.00000000E+00  0.00000000E+00
  0.00000000E+00  0.00000000E+00  0.00000000E+00
  0.00000000E+00  0.00000000E+00  0.00000000E+00
  0.00000000E+00  0.00000000E+00  0.00000000E+00
  0.00000000E+00  0.00000000E+00  0.00000000E+00
  0.00000000E+00  0.00000000E+00  0.00000000E+00
  0.00000000E+00  0.00000000E+00  0.00000000E+00
  0.00000000E+00  0.00000000E+00  0.00000000E+00
  0.00000000E+00  0.00000000E+00  0.00000000E+00
  0.00000000E+00  0.00000000E+00  0.00000000E+00
  0.00000000E+00  0.00000000E+00  0.00000000E+00
  0.00000000E+00  0.00000000E+00  0.00000000E+00
  0.00000000E+00  0.00000000E+00  0.00000000E+00
  0.00000000E+00  0.00000000E+00  0.00000000E+00
  0.00000000E+00  0.00000000E+00  0.00000000E+00
  0.00000000E+00  0.00000000E+00  0.00000000E+00
  0.00000000E+00  0.00000000E+00  0.00000000E+00
  0.00000000E+00  0.00000000E+00  0.00000000E+00
  0.00000000E+00  0.00000000E+00  0.00000000E+00
  0.00000000E+00  0.00000000E+00  0.00000000E+00
  0.00000000E+00  0.00000000E+00  0.00000000E+00
  0.00000000E+00  0.00000000E+00  0.00000000E+00
  0.00000000E+00  0.00000000E+00  0.00000000E+00
  0.00000000E+00  0.00000000E+00  0.00000000E+00
  0.00000000E+00  0.00000000E+00  0.00000000E+00
  0.00000000E+00  0.00000000E+00  0.00000000E+00
  0.00000000E+00  0.00000000E+00  0.00000000E+00
  0.00000000E+00  0.00000000E+00  0.00000000E+00
  0.00000000E+00  0.00000000E+00  0.00000000E+00
  0.00000000E+00  0.00000000E+00  0.00000000E+00
  0.00000000E+00  0.00000000E+00  0.00000000E+00
  0.00000000E+00  0.00000000E+00  0.00000000E+00
  0.00000000E+00  0.00000000E+00  0.00000000E+00
  0.00000000E+00  0.00000000E+00  0.00000000E+00
  0.00000000E+00  0.00000000E+00  0.00000000E+00
  0.00000000E+00  0.00000000E+00  0.00000000E+00
  0.00000000E+00  0.00000000E+00  0.00000000E+00
  0.00000000E+00  0.00000000E+00  0.00000000E+00
  0.00000000E+00  0.00000000E+00  0.00000000E+00
  0.00000000E+00  0.00000000E+00  0.00000000E+00
  0.00000000E+00  0.00000000E+00  0.00000000E+00
  0.00000000E+00  0.00000000E+00  0.00000000E+00
  0.00000000E+00  0.00000000E+00  0.00000000E+00
  0.00000000E+00  0.00000000E+00  0.00000000E+00
  0.00000000E+00  0.00000000E+00  0.00000000E+00
  0.00000000E+00  0.00000000E+00  0.00000000E+00
  0.00000000E+00  0.00000000E+00  0.00000000E+00
  0.00000000E+00  0.00000000E+00  0.00000000E+00
  0.00000000E+00  0.00000000E+00  0.00000000E+00
  0.00000000E+00  0.00000000E+00  0.00000000E+00
  0.00000000E+00  0.00000000E+00  0.00000000E+00
  0.00000000E+00  0.00000000E+00  0.00000000E+00
  0.00000000E+00  0.00000000E+00  0.00000000E+00
  0.00000000E+00  0.00000000E+00  0.00000000E+00
  0.00000000E+00  0.00000000E+00  0.00000000E+00
  0.00000000E+00  0.00000000E+00  0.00000000E+00
  0.00000000E+00  0.00000000E+00  0.00000000E+00
  0.00000000E+00  0.00000000E+00  0.00000000E+00
  0.00000000E+00  0.00000000E+00  0.00000000E+00
  0.00000000E+00  0.00000000E+00  0.00000000E+00
  0.00000000E+00  0.00000000E+00  0.00000000E+00
  0.00000000E+00  0.00000000E+00  0.00000000E+00
  0.00000000E+00  0.00000000E+00  0.00000000E+00
  0.00000000E+00  0.00000000E+00  0.00000000E+00
  0.00000000E+00  0.00000000E+00  0.00000000E+00
  0.00000000E+00  0.00000000E+00  0.00000000E+00
  0.00000000E+00  0.00000000E+00  0.00000000E+00
  0.00000000E+00  0.00000000E+00  0.00000000E+00
  0.00000000E+00  0.00000000E+00  0.00000000E+00
  0.00000000E+00  0.00000000E+00  0.00000000E+00
