Generated by VASPKIT code               
   1.00000000000000     
     9.8023691257736285   -0.0058171368835103    0.0000000000000000
    -4.9065062601497473    9.1486776521864499    0.0000000000000000
     0.0000000000000012    0.0000000000000023   19.7125436851461053
   C 
    64
Direct
  0.9591821786168566  0.4448668991309219  0.4587937337052779
  0.8981434919920801  0.2813218408153659  0.4792696296104353
  0.8439022158453895  0.4396755507470402  0.4044937905536941
  0.7398636864137416  0.2028504306040446  0.4493404752705246
  0.7201806672818236  0.2937975528842003  0.4026192290215747
  0.7735362053127872  0.5471600905925698  0.4112654409684069
  0.5955903895158841  0.4393277353853122  0.4040550976805477
  0.5735854352275993  0.2936668334584454  0.4024750314736778
  0.7641221634165163  0.5282384642821327  0.4873629813391602
  0.8722818566280210  0.4904514468396997  0.5147535485653165
  0.8302369758237660  0.4065853835630904  0.5736321704403835
  0.6182001076654018  0.4899594075084366  0.5144879044292310
  0.5761356668747624  0.4062715918948570  0.5734561494652723
  0.6823787570457540  0.3651736749065648  0.6054424252297039
  0.4855249297104720  0.4442248607892623  0.4584866192978438
  0.6987926140251730  0.1614220053919126  0.5653352740995672
  0.8453545306712016  0.2789719136187614  0.5536867139388590
  0.6030529506048694  0.2066494289332255  0.6007828171848502
  0.4617928108405636  0.1611223176017091  0.5654173083393275
  0.4328518723541777  0.2786680487104718  0.5536816366468074
  0.3828214350642085  0.2808713794305007  0.4791602006331956
  0.6264239714608379  0.0912709546994037  0.4986450131635181
  0.4647099688873269  0.0913267885023146  0.4986646698809807
  0.4629642055608514  0.2027524144270672  0.4493421003115969
  0.2140928754985012  0.1711359576839797  0.4655223725064275
  0.3825109307108505  0.9230698031152897  0.5040828658946239
  0.1260779510467955  0.1091891365746349  0.3986030209854903
  0.2775552162312493  0.8264496350881885  0.4477368268316440
  0.1953681206147664  0.0203879784917902  0.4863294579544757
  0.5397202509305643  0.9227118411295763  0.5042321213917162
  0.1643599758108465  0.9029603786995040  0.4328922503725963
  0.5466509572938563  0.8255013165883156  0.4477763177890566
  0.0966462704757163  0.9610253416662502  0.3814722135360142
  0.3756620524434808  0.7522955350686615  0.4218186113667883
  0.1005406031992777  0.9687944141694800  0.5417478054748202
  0.5467999968869393  0.8543817440136294  0.5709046771701765
  0.9806643148785028  0.8233164289581367  0.5262041370571993
  0.5464335903692472  0.7207176731979175  0.5576552265627654
  0.0190555955679628  0.7643151142398281  0.4637820715709822
  0.5644774534351455  0.6995510227287909  0.4825773512908498
  0.0314580265952884  0.0643718483988209  0.5528415029908658
  0.4091663614065411  0.8137591834652866  0.6094091545782163
  0.8664955023546952  0.9688418347873622  0.5418907444265599
  0.3332666807847815  0.6606539275797871  0.6284025110639035
  0.8407415593877445  0.8232121454006887  0.5263044461908351
  0.4218203585284783  0.6014894982532013  0.5925582994231533
  0.0906873465633993  0.1819770810137911  0.5085721184255831
  0.3077461137432280  0.8544503059634465  0.5708204864462090
  0.9566643554761285  0.1714323265384081  0.4655383230465304
  0.1757768074171082  0.7242340987947102  0.5583733991367268
  0.8239806499283446  0.0206387883361501  0.4862994398945588
  0.1894205534192821  0.6050233093800088  0.5914163788798561
  0.9824513738238849  0.1095402983109892  0.3985606266567459
  0.1354251106496562  0.7006619641658745  0.4833867771699829
  0.8637598926446657  0.9611249202229217  0.3816875150236854
  0.1349721388298875  0.5515781174640324  0.4687970252329023
  0.7383932564409648  0.9031082659011602  0.4328929221863618
  0.1860686862568670  0.5156540237580955  0.5367161622842147
  0.7442011950415619  0.7643287470784372  0.4635017237794870
  0.3326453675286842  0.5183471407804205  0.5363872170055330
  0.8619386650758258  0.7244571260392689  0.4156141140162930
  0.4166738033204993  0.5511858370694327  0.4679671948530739
  0.9338913152108574  0.8681264266015347  0.3722169032735820
  0.3007776373378164  0.6027044485649000  0.4322129253305036
 
  0.00000000E+00  0.00000000E+00  0.00000000E+00
  0.00000000E+00  0.00000000E+00  0.00000000E+00
  0.00000000E+00  0.00000000E+00  0.00000000E+00
  0.00000000E+00  0.00000000E+00  0.00000000E+00
  0.00000000E+00  0.00000000E+00  0.00000000E+00
  0.00000000E+00  0.00000000E+00  0.00000000E+00
  0.00000000E+00  0.00000000E+00  0.00000000E+00
  0.00000000E+00  0.00000000E+00  0.00000000E+00
  0.00000000E+00  0.00000000E+00  0.00000000E+00
  0.00000000E+00  0.00000000E+00  0.00000000E+00
  0.00000000E+00  0.00000000E+00  0.00000000E+00
  0.00000000E+00  0.00000000E+00  0.00000000E+00
  0.00000000E+00  0.00000000E+00  0.00000000E+00
  0.00000000E+00  0.00000000E+00  0.00000000E+00
  0.00000000E+00  0.00000000E+00  0.00000000E+00
  0.00000000E+00  0.00000000E+00  0.00000000E+00
  0.00000000E+00  0.00000000E+00  0.00000000E+00
  0.00000000E+00  0.00000000E+00  0.00000000E+00
  0.00000000E+00  0.00000000E+00  0.00000000E+00
  0.00000000E+00  0.00000000E+00  0.00000000E+00
  0.00000000E+00  0.00000000E+00  0.00000000E+00
  0.00000000E+00  0.00000000E+00  0.00000000E+00
  0.00000000E+00  0.00000000E+00  0.00000000E+00
  0.00000000E+00  0.00000000E+00  0.00000000E+00
  0.00000000E+00  0.00000000E+00  0.00000000E+00
  0.00000000E+00  0.00000000E+00  0.00000000E+00
  0.00000000E+00  0.00000000E+00  0.00000000E+00
  0.00000000E+00  0.00000000E+00  0.00000000E+00
  0.00000000E+00  0.00000000E+00  0.00000000E+00
  0.00000000E+00  0.00000000E+00  0.00000000E+00
  0.00000000E+00  0.00000000E+00  0.00000000E+00
  0.00000000E+00  0.00000000E+00  0.00000000E+00
  0.00000000E+00  0.00000000E+00  0.00000000E+00
  0.00000000E+00  0.00000000E+00  0.00000000E+00
  0.00000000E+00  0.00000000E+00  0.00000000E+00
  0.00000000E+00  0.00000000E+00  0.00000000E+00
  0.00000000E+00  0.00000000E+00  0.00000000E+00
  0.00000000E+00  0.00000000E+00  0.00000000E+00
  0.00000000E+00  0.00000000E+00  0.00000000E+00
  0.00000000E+00  0.00000000E+00  0.00000000E+00
  0.00000000E+00  0.00000000E+00  0.00000000E+00
  0.00000000E+00  0.00000000E+00  0.00000000E+00
  0.00000000E+00  0.00000000E+00  0.00000000E+00
  0.00000000E+00  0.00000000E+00  0.00000000E+00
  0.00000000E+00  0.00000000E+00  0.00000000E+00
  0.00000000E+00  0.00000000E+00  0.00000000E+00
  0.00000000E+00  0.00000000E+00  0.00000000E+00
  0.00000000E+00  0.00000000E+00  0.00000000E+00
  0.00000000E+00  0.00000000E+00  0.00000000E+00
  0.00000000E+00  0.00000000E+00  0.00000000E+00
  0.00000000E+00  0.00000000E+00  0.00000000E+00
  0.00000000E+00  0.00000000E+00  0.00000000E+00
  0.00000000E+00  0.00000000E+00  0.00000000E+00
  0.00000000E+00  0.00000000E+00  0.00000000E+00
  0.00000000E+00  0.00000000E+00  0.00000000E+00
  0.00000000E+00  0.00000000E+00  0.00000000E+00
  0.00000000E+00  0.00000000E+00  0.00000000E+00
  0.00000000E+00  0.00000000E+00  0.00000000E+00
  0.00000000E+00  0.00000000E+00  0.00000000E+00
  0.00000000E+00  0.00000000E+00  0.00000000E+00
  0.00000000E+00  0.00000000E+00  0.00000000E+00
  0.00000000E+00  0.00000000E+00  0.00000000E+00
  0.00000000E+00  0.00000000E+00  0.00000000E+00
  0.00000000E+00  0.00000000E+00  0.00000000E+00
