C 
 1.0000000000000000
    15.3729431331709296    0.0000000000000000    0.0000000000000000
     0.0000000000000000    8.8173605891684783    0.0000000000000000
     0.0000000000000000    0.0000000000000000   16.0000000000000000
 C  
 128
Direct
 -0.1409706169785467  0.1378329668405594  0.5024640781335176
 -0.1289666037041922  0.0824124404185696  0.4190550347085905
 -0.1493768254791227  0.0147712800068782  0.5603441654282263
 -0.1116883580436268 -0.0825138162989416  0.4272860331072503
 -0.1240276207069583 -0.1238114572415156  0.5135225535393684
 -0.0875290816982384  0.0293188972064954  0.6267402971332292
 -0.0362035367430533 -0.1056920178649724  0.6344381890910147
 -0.0550155637508823 -0.1974603901779903  0.5588687546210827
 -0.0264004573091563  0.1507406225730440  0.6007624096600013
 -0.0591054106042336  0.2171001611607361  0.5247520870397421
 -0.0050462385176310  0.2224325488321294  0.4512854750124959
  0.0604204025485364  0.0896850107193773  0.6033736051809869
  0.1144730020143821  0.0950476270484277  0.5299484750235287
  0.0817645959144751  0.1613852513641716  0.4539196870391466
  0.0547056074360053 -0.0707813186937606  0.6311586558282083
  0.0040911441856851  0.0296936418307999  0.3522487151536097
 -0.0525940147941069  0.1466833027869862  0.3820942722743847
  0.0896635993786103  0.0465987986770843  0.3865279655237933
  0.1172874079358757 -0.0906465788424433  0.4263409334027621
  0.1430972691011156 -0.0618286249090746  0.5108500915396400
  0.0969182166573255 -0.1583627815633504  0.5676610836179771
 -0.0303096265975954 -0.1147523050917994  0.3864044409114535
  0.0387569326649555 -0.1882537086194635  0.4317432441146831
  0.0263834372347913 -0.2295995501619471  0.5179839119105467
  0.6409706169785467  0.6378329668405595  0.5024640781335176
  0.6289666037041922  0.5824124404185697  0.4190550347085905
  0.6493768254791227  0.5147712800068782  0.5603441654282263
  0.6116883580436269  0.4174861837010583  0.4272860331072503
  0.6240276207069583  0.3761885427584843  0.5135225535393684
  0.5875290816982384  0.5293188972064954  0.6267402971332292
  0.5362035367430533  0.3943079821350276  0.6344381890910147
  0.5550155637508823  0.3025396098220097  0.5588687546210827
  0.5264004573091563  0.6507406225730440  0.6007624096600013
  0.5591054106042336  0.7171001611607360  0.5247520870397421
  0.5050462385176311  0.7224325488321294  0.4512854750124959
  0.4395795974514636  0.5896850107193773  0.6033736051809869
  0.3855269979856179  0.5950476270484277  0.5299484750235287
  0.4182354040855248  0.6613852513641715  0.4539196870391466
  0.4452943925639947  0.4292186813062394  0.6311586558282083
  0.4959088558143149  0.5296936418307999  0.3522487151536097
  0.5525940147941069  0.6466833027869862  0.3820942722743847
  0.4103364006213897  0.5465987986770843  0.3865279655237933
  0.3827125920641243  0.4093534211575567  0.4263409334027621
  0.3569027308988844  0.4381713750909254  0.5108500915396400
  0.4030817833426745  0.3416372184366496  0.5676610836179771
  0.5303096265975954  0.3852476949082007  0.3864044409114535
  0.4612430673350445  0.3117462913805366  0.4317432441146831
  0.4736165627652087  0.2704004498380529  0.5179839119105467
  0.9045568514883575  0.4259682614367725  0.5542532571867768
  0.9003726057765747  0.5903802872792249  0.5589612508494676
  0.9489704419489301  0.3871816070102702  0.4782968379853307
  0.9719724889090886  0.5278631494993313  0.4364619777979462
  0.9455105546084877  0.6575815331643257  0.4874932923738484
  0.8911580433121851  0.2972968323698009  0.4251938872431179
  0.8752988821229838  0.3932823315124417  0.3522118421746254
  0.9262933557346481  0.5316411557968943  0.3582646847961572
  0.8085290229060320  0.2955213335183333  0.4697267142812483
  0.7400729402118140  0.3687045841586333  0.4214556336558513
  0.7852127282697415  0.4358557216109817  0.3499874099425148
  0.8166982627690539  0.3623434078910751  0.5525832722088534
  0.7592863552080596  0.4945989258868172  0.5506812719231188
  0.7135921319101441  0.4984008935148065  0.4724882828272112
  0.8102821753486088  0.6329221820884110  0.5567449636744444
  0.7944181107666024  0.7289124411031230  0.4837697749668990
  0.7366095676957410  0.6390599032462614  0.4306502749820703
  0.7810288171105941  0.6002650260047827  0.3546915071218072
  0.8688922398217991  0.6639132980184143  0.3563646332371927
  0.8770451030936610  0.7307507400966913  0.4392266615244969
  0.0659638460071991  0.6262223162543811  0.4617609436507595
  0.0556962970785584  0.5355941834843969  0.5369665941308830
  0.0711619031614061  0.5238884326960894  0.3921769104552595
  0.0641012345025277  0.3705496619763151  0.4247709945125749
  0.0505896540340897  0.3746715539387282  0.5152538858487667
  0.1547915396716345  0.5437523184259797  0.3499549033649623
  0.2004468248979620  0.4001996937119169  0.3631457117254512
  0.1442736117635829  0.2938349299032655  0.4067591433281849
  0.2016214762508173  0.6526268492157222  0.4015553164066750
  0.2805108312162562  0.5867248743389887  0.4364622564707959
  0.2754062159375562  0.4258310509918702  0.4147269666537744
  0.1460501705751661  0.7153659386610909  0.4666445983711475
  0.1868348451638242  0.6675877057613324  0.5449370390709339
  0.2670161349427246  0.5908732001146620  0.5269433471028784
  0.1306571738397561  0.5612577526684971  0.5885396439920643
  0.1763126646501584  0.4177141436781426  0.6017376190546972
  0.2599455868124547  0.4375346677003475  0.5595203256628777
  0.2651406393202897  0.3351992808379179  0.4899294665744565
  0.1850469161814544  0.2460427007630188  0.4850556337230727
  0.1294855911245960  0.3087895012657887  0.5501603822567952
  0.5954431485116426 -0.0740317385632274  0.5542532571867768
  0.5996273942234254  0.0903802872792250  0.5589612508494676
  0.5510295580510700 -0.1128183929897296  0.4782968379853307
  0.5280275110909114  0.0278631494993315  0.4364619777979462
  0.5544894453915125  0.1575815331643259  0.4874932923738484
  0.6088419566878149 -0.2027031676301989  0.4251938872431179
  0.6247011178770162 -0.1067176684875581  0.3522118421746254
  0.5737066442653519  0.0316411557968944  0.3582646847961572
  0.6914709770939680 -0.2044786664816665  0.4697267142812483
  0.7599270597881860 -0.1312954158413665  0.4214556336558513
  0.7147872717302586 -0.0641442783890182  0.3499874099425148
  0.6833017372309462 -0.1376565921089248  0.5525832722088534
  0.7407136447919404 -0.0054010741131826  0.5506812719231188
  0.7864078680898560 -0.0015991064851933  0.4724882828272112
  0.6897178246513912  0.1329221820884111  0.5567449636744444
  0.7055818892333977  0.2289124411031233  0.4837697749668990
  0.7633904323042591  0.1390599032462615  0.4306502749820703
  0.7189711828894060  0.1002650260047829  0.3546915071218072
  0.6311077601782009  0.1639132980184143  0.3563646332371927
  0.6229548969063391  0.2307507400966914  0.4392266615244969
  0.4340361539928010  1.1262223162543810  0.4617609436507595
  0.4443037029214417  1.0355941834843967  0.5369665941308830
  0.4288380968385940  1.0238884326960893  0.3921769104552595
  0.4358987654974724  0.8705496619763151  0.4247709945125749
  0.4494103459659103  0.8746715539387281  0.5152538858487667
  0.3452084603283656  1.0437523184259794  0.3499549033649623
  0.2995531751020380  0.9001996937119169  0.3631457117254512
  0.3557263882364172  0.7938349299032654  0.4067591433281849
  0.2983785237491828  1.1526268492157221  0.4015553164066750
  0.2194891687837439  1.0867248743389886  0.4364622564707959
  0.2245937840624439  0.9258310509918701  0.4147269666537744
  0.3539498294248339  1.2153659386610909  0.4666445983711475
  0.3131651548361759  1.1675877057613322  0.5449370390709339
  0.2329838650572754  1.0908732001146622  0.5269433471028784
  0.3693428261602440  1.0612577526684970  0.5885396439920643
  0.3236873353498416  0.9177141436781425  0.6017376190546972
  0.2400544131875453  0.9375346677003474  0.5595203256628777
  0.2348593606797104  0.8351992808379178  0.4899294665744565
  0.3149530838185456  0.7460427007630187  0.4850556337230727
  0.3705144088754040  0.8087895012657886  0.5501603822567952
