C 
 1.0000000000000000
     8.7853131824756527    0.0000000000000000    0.0000000000000000
     0.0000000000000000   15.4735923429436539    0.0000000000000000
     0.0000000000000000    0.0000000000000000   16.0000000000000000
 C  
 128
Direct
 -0.0987764778782373 -0.0542402162841655  0.6285475760836298
 -0.1205866349426888  0.0375458893620019  0.6285585105511782
 -0.1834925771305667 -0.0939156133568604  0.5623770571221495
 -0.1982088825877922  0.0581788561911095  0.5486252275315953
 -0.2364485993326440 -0.0220297075593015  0.5081613127528312
 -0.0859567881594803 -0.1458180220284571  0.5112278428167473
 -0.0981948600392832 -0.1211281845441561  0.4251373512223543
 -0.1845449278148600 -0.0387542272463835  0.4243375795507028
  0.0720091026344640 -0.1243960401977586  0.5367126084627389
  0.0641359745687585 -0.0683877434704782  0.6084742537633948
  0.1383121453082497  0.0146082112759288  0.6069134773103487
  0.1541223824752005 -0.0974561385509505  0.4633238209142586
  0.2283102158504272 -0.0145063700944571  0.4617644612572565
  0.2204178796445175  0.0415222474246893  0.5335254947617807
  0.0485259851071431 -0.1018083795496378  0.3909179839184476
  0.0269753098357975  0.1412797616363804  0.5576934224451983
  0.0225565358567867  0.0816799404710125  0.6261437534887245
  0.1570813755852339  0.1256777861868985  0.5058224221420130
  0.1123806158064863  0.1140560160096321  0.4204922425995178
  0.1699460051417832  0.0340408126429035  0.3885263831391262
  0.0494864322862787 -0.0174147075771907  0.3542467162200583
 -0.1079576116522883  0.1216441030933686  0.5052936011079053
 -0.0558880655574867  0.1049175835419600  0.4215031510999108
 -0.0942045350057976  0.0247041426239109  0.3810367309631508
  0.4012235221217628  0.4457597837158345  0.6285475760836298
  0.3794133650573112  0.5375458893620019  0.6285585105511782
  0.3165074228694332  0.4060843866431396  0.5623770571221495
  0.3017911174122078  0.5581788561911095  0.5486252275315953
  0.2635514006673560  0.4779702924406984  0.5081613127528312
  0.4140432118405197  0.3541819779715428  0.5112278428167473
  0.4018051399607168  0.3788718154558439  0.4251373512223543
  0.3154550721851400  0.4612457727536165  0.4243375795507028
  0.5720091026344640  0.3756039598022414  0.5367126084627389
  0.5641359745687584  0.4316122565295218  0.6084742537633948
  0.6383121453082498  0.5146082112759288  0.6069134773103487
  0.6541223824752006  0.4025438614490495  0.4633238209142586
  0.7283102158504272  0.4854936299055429  0.4617644612572565
  0.7204178796445174  0.5415222474246894  0.5335254947617807
  0.5485259851071431  0.3981916204503622  0.3909179839184476
  0.5269753098357975  0.6412797616363803  0.5576934224451983
  0.5225565358567867  0.5816799404710125  0.6261437534887245
  0.6570813755852339  0.6256777861868984  0.5058224221420130
  0.6123806158064863  0.6140560160096321  0.4204922425995178
  0.6699460051417832  0.5340408126429035  0.3885263831391262
  0.5494864322862788  0.4825852924228093  0.3542467162200583
  0.3920423883477117  0.6216441030933686  0.5052936011079053
  0.4441119344425133  0.6049175835419600  0.4215031510999108
  0.4057954649942024  0.5247041426239109  0.3810367309631508
  0.0445335066615094  0.7325087499240808  0.5451533346176155
  0.1628918865333020  0.6669537702638282  0.5429706567329428
 -0.0995550165917015  0.6888138438625482  0.5466196487559961
 -0.0694461951710598  0.5964782720323480  0.5453112374082677
  0.0947506782008744  0.5807704214242064  0.5466124761209097
 -0.1880082214476319  0.7135911122016804  0.4729586039654042
 -0.2013757867167734  0.6339832416088993  0.4242202202527359
 -0.1326058058671512  0.5624712444068272  0.4694095441989524
 -0.0853520355317776  0.7678848353832591  0.4244531262683425
 -0.0522491320911656  0.7298380564483987  0.3432220388222835
 -0.1204253574211445  0.6436752102355434  0.3468655577243650
  0.0536283388775693  0.7868661644833852  0.4705229988021385
  0.1750752649275914  0.7481561936820387  0.4204206100752019
  0.1119460899145706  0.7141464702295545  0.3445080991071064
  0.2438335796880731  0.6766653925142851  0.4656164417271267
  0.2304804111261020  0.5970612209890725  0.4168771637128647
  0.1420266345490131  0.6218135890135269  0.3432113016566459
 -0.0020736707844573  0.5781189272430218  0.3446813178548433
 -0.0111520068232969  0.5237519114080602  0.4193171062667322
  0.1278552284254462  0.5427353090854414  0.4653756783081767
  0.5445335066615093  0.2325087499240809  0.5451533346176155
  0.6628918865333019  0.1669537702638284  0.5429706567329428
  0.4004449834082985  0.1888138438625484  0.5466196487559961
  0.4305538048289402  0.0964782720323482  0.5453112374082677
  0.5947506782008743  0.0807704214242065  0.5466124761209097
  0.3119917785523680  0.2135911122016806  0.4729586039654042
  0.2986242132832265  0.1339832416088994  0.4242202202527359
  0.3673941941328487  0.0624712444068273  0.4694095441989524
  0.4146479644682224  0.2678848353832593  0.4244531262683425
  0.4477508679088344  0.2298380564483989  0.3432220388222835
  0.3795746425788555  0.1436752102355436  0.3468655577243650
  0.5536283388775691  0.2868661644833854  0.4705229988021385
  0.6750752649275914  0.2481561936820388  0.4204206100752019
  0.6119460899145706  0.2141464702295547  0.3445080991071064
  0.7438335796880731  0.1766653925142853  0.4656164417271267
  0.7304804111261021  0.0970612209890727  0.4168771637128647
  0.6420266345490131  0.1218135890135271  0.3432113016566459
  0.4979263292155428  0.0781189272430220  0.3446813178548433
  0.4888479931767031  0.0237519114080604  0.4193171062667322
  0.6278552284254462  0.0427353090854416  0.4653756783081767
 -0.1613988954031277  0.3840350397758925  0.5619295673538298
 -0.0954406462161096  0.4504153051309661  0.5088749457691283
 -0.0397425934325810  0.3452014897252571  0.6085626905189359
  0.1007626567562161  0.3877878874481510  0.5840490135271740
  0.0683853861775445  0.4567437162968221  0.5240688361685304
 -0.0316908550535589  0.2530124777326299  0.5887975894225701
  0.1145292441685388  0.2424977788376094  0.5462865376755730
  0.1964450054160899  0.3240945297701501  0.5454366737035802
 -0.1449668859883649  0.2405266895901458  0.5234321785123459
 -0.0752665676294802  0.2113446939321030  0.4458333503359911
  0.0885378924546953  0.2176537956904782  0.4610438750545847
 -0.2357119138132655  0.3181526771713879  0.5106110513198993
 -0.2033448374352398  0.3439721205695708  0.4244763722500011
 -0.1076662275989201  0.2802839834847822  0.3858447089598122
 -0.1214611262629873  0.4255614840690884  0.4236384599317020
  0.0247480831665382  0.4150503900094967  0.3811220997949082
  0.0328418227551327  0.3228665248846765  0.3613501747472956
  0.1545009921387918  0.2840309020056378  0.4079903061830069
  0.2288226008031047  0.3499265743547823  0.4593056504743133
  0.1380674248974965  0.4275544416152729  0.4464667784991428
  0.3386011045968723  0.8840350397758925  0.5619295673538298
  0.4045593537838904  0.9504153051309661  0.5088749457691283
  0.4602574065674190  0.8452014897252570  0.6085626905189359
  0.6007626567562160  0.8877878874481510  0.5840490135271740
  0.5683853861775444  0.9567437162968221  0.5240688361685304
  0.4683091449464411  0.7530124777326299  0.5887975894225701
  0.6145292441685387  0.7424977788376094  0.5462865376755730
  0.6964450054160900  0.8240945297701501  0.5454366737035802
  0.3550331140116351  0.7405266895901458  0.5234321785123459
  0.4247334323705197  0.7113446939321030  0.4458333503359911
  0.5885378924546952  0.7176537956904782  0.4610438750545847
  0.2642880861867344  0.8181526771713878  0.5106110513198993
  0.2966551625647602  0.8439721205695708  0.4244763722500011
  0.3923337724010798  0.7802839834847821  0.3858447089598122
  0.3785388737370127  0.9255614840690883  0.4236384599317020
  0.5247480831665382  0.9150503900094967  0.3811220997949082
  0.5328418227551327  0.8228665248846765  0.3613501747472956
  0.6545009921387918  0.7840309020056379  0.4079903061830069
  0.7288226008031046  0.8499265743547822  0.4593056504743133
  0.6380674248974965  0.9275544416152729  0.4464667784991428
