Generated by VASPKIT code               
   1.00000000000000     
    11.9664979319891973    0.0054580935349805    0.0000000000000000
     0.0050966770321681   11.9670685820845524    0.0000000000000000
     0.0000000000000012    0.0000000000000012   19.7145670198184604
   C 
    64
Direct
  0.5820493838587879  0.7070431701420219  0.5208783623349404
  0.6468393110112132  0.6216686736012704  0.4800653840024367
  0.4766183595144540  0.7262826752207090  0.4756658443869171
  0.5793968377115775  0.5796499723969859  0.4250037905574757
  0.4776856499291782  0.6394253826650669  0.4197609412708871
  0.3802640344897270  0.6888245519394971  0.5184277152245613
  0.3111921662035328  0.6197207029999277  0.4817048264041688
  0.3745218457778705  0.5792550754453600  0.4224634760482502
  0.4207397446715930  0.6254539140061155  0.5776618385399885
  0.5382291811135076  0.6270756703935660  0.5773543458452224
  0.5941885314880011  0.5214654773793654  0.5758523731906564
  0.3605724472940324  0.5222758699702794  0.5803482973597625
  0.4203301720544985  0.4205503535994950  0.5750964612393403
  0.5403870155826880  0.4178466607327067  0.5764398358403042
  0.2737265959334536  0.5233273802604259  0.5244204765437743
  0.6638239339765732  0.4145790597386991  0.4781853888960512
  0.6823171740928942  0.5221429064610632  0.5219981653449182
  0.5854065890821687  0.3361405276798450  0.5218806387607628
  0.4778268267084371  0.3177068758421697  0.4780894390780261
  0.3782949572959069  0.3530896851362897  0.5200455541767894
  0.2929792614796867  0.4179466258114743  0.4792014624228784
  0.5821133160437668  0.4596221221813508  0.4236600105762705
  0.4784938739249824  0.4058215323436372  0.4242616592675219
  0.3729298596887531  0.4617823864645700  0.4227578235756795
  0.4944778204594726  0.8492813808960733  0.4714714242188194
  0.1586014553389390  0.4020781328167260  0.4752193431025802
  0.5979277273691466  0.8414248589587174  0.5247340653852604
  0.1507451996047564  0.5055003874376709  0.5284972425064467
  0.5363684078093627  0.9228017168597518  0.4144654459682329
  0.0801653702420566  0.4417311319514354  0.4178692766246428
  0.6465810776191177  0.9600286806537426  0.4286734607876568
  0.0407258164286262  0.5516007477577105  0.4302006827786045
  0.6851169951266272  0.9200478718816640  0.4923473235724600
  0.0761732217242610  0.5903158364335894  0.4946774553065154
  0.4695049932491315  0.0226577175665383  0.4107059275396594
  0.9791924860965153  0.3747794339186754  0.4131501353553944
  0.5367307326546324  0.1221172415137701  0.4152143678988125
  0.8779383772831935  0.4415878436480298  0.4171517705186218
  0.6468149738327043  0.0843904670979043  0.4290855012929313
  0.9167017950913277  0.5515071043684898  0.4297609202909243
  0.3913335890076155  0.0224297189462561  0.4657490069782426
  0.9788150158910867  0.2977894588908683  0.4678916554598871
  0.4096814264141884  0.1203398331885737  0.5059656078793822
  0.8768029094495091  0.3145047684713376  0.5068068905109584
  0.4949239731490565  0.1947802826481038  0.4725267081446631
  0.7983315189743649  0.4017087075303607  0.4738728156126939
  0.4097048964935368  0.9238894871155097  0.5052737735787503
  0.0799838234839498  0.3148668312708978  0.5075487865157911
  0.4483838562900289  0.9593330271384417  0.5697554174150099
  0.0400528250551915  0.3533719246065274  0.5712372200014499
  0.4485022092492628  0.0833384006238660  0.5701928038478385
  0.9156922315127147  0.3531338885751723  0.5708311161321546
  0.5582591010053832  0.9198677242330291  0.5820733169452765
  0.0772394873971365  0.4635547675866505  0.5854733683342275
  0.6252403012241743  0.0208070070880666  0.5867918030822423
  0.9773881163801619  0.5304128659867260  0.5892240417899330
  0.5584378720866567  0.1220723536021708  0.5827863791280095
  0.8779549133388045  0.4631950471838167  0.5847089173619864
  0.5983270814597148  0.2016508007306328  0.5260947104431395
  0.8052696141640183  0.5050479868313431  0.5274223541722307
  0.6854801080907791  0.1232313121400637  0.4931175868978173
  0.8796866707249791  0.5903027279505579  0.4939846560502161
  0.7022039205981230  0.0212028392735277  0.5320160744040621
  0.9776110197024153  0.6086204322151119  0.5341956792284748
 
  0.00000000E+00  0.00000000E+00  0.00000000E+00
  0.00000000E+00  0.00000000E+00  0.00000000E+00
  0.00000000E+00  0.00000000E+00  0.00000000E+00
  0.00000000E+00  0.00000000E+00  0.00000000E+00
  0.00000000E+00  0.00000000E+00  0.00000000E+00
  0.00000000E+00  0.00000000E+00  0.00000000E+00
  0.00000000E+00  0.00000000E+00  0.00000000E+00
  0.00000000E+00  0.00000000E+00  0.00000000E+00
  0.00000000E+00  0.00000000E+00  0.00000000E+00
  0.00000000E+00  0.00000000E+00  0.00000000E+00
  0.00000000E+00  0.00000000E+00  0.00000000E+00
  0.00000000E+00  0.00000000E+00  0.00000000E+00
  0.00000000E+00  0.00000000E+00  0.00000000E+00
  0.00000000E+00  0.00000000E+00  0.00000000E+00
  0.00000000E+00  0.00000000E+00  0.00000000E+00
  0.00000000E+00  0.00000000E+00  0.00000000E+00
  0.00000000E+00  0.00000000E+00  0.00000000E+00
  0.00000000E+00  0.00000000E+00  0.00000000E+00
  0.00000000E+00  0.00000000E+00  0.00000000E+00
  0.00000000E+00  0.00000000E+00  0.00000000E+00
  0.00000000E+00  0.00000000E+00  0.00000000E+00
  0.00000000E+00  0.00000000E+00  0.00000000E+00
  0.00000000E+00  0.00000000E+00  0.00000000E+00
  0.00000000E+00  0.00000000E+00  0.00000000E+00
  0.00000000E+00  0.00000000E+00  0.00000000E+00
  0.00000000E+00  0.00000000E+00  0.00000000E+00
  0.00000000E+00  0.00000000E+00  0.00000000E+00
  0.00000000E+00  0.00000000E+00  0.00000000E+00
  0.00000000E+00  0.00000000E+00  0.00000000E+00
  0.00000000E+00  0.00000000E+00  0.00000000E+00
  0.00000000E+00  0.00000000E+00  0.00000000E+00
  0.00000000E+00  0.00000000E+00  0.00000000E+00
  0.00000000E+00  0.00000000E+00  0.00000000E+00
  0.00000000E+00  0.00000000E+00  0.00000000E+00
  0.00000000E+00  0.00000000E+00  0.00000000E+00
  0.00000000E+00  0.00000000E+00  0.00000000E+00
  0.00000000E+00  0.00000000E+00  0.00000000E+00
  0.00000000E+00  0.00000000E+00  0.00000000E+00
  0.00000000E+00  0.00000000E+00  0.00000000E+00
  0.00000000E+00  0.00000000E+00  0.00000000E+00
  0.00000000E+00  0.00000000E+00  0.00000000E+00
  0.00000000E+00  0.00000000E+00  0.00000000E+00
  0.00000000E+00  0.00000000E+00  0.00000000E+00
  0.00000000E+00  0.00000000E+00  0.00000000E+00
  0.00000000E+00  0.00000000E+00  0.00000000E+00
  0.00000000E+00  0.00000000E+00  0.00000000E+00
  0.00000000E+00  0.00000000E+00  0.00000000E+00
  0.00000000E+00  0.00000000E+00  0.00000000E+00
  0.00000000E+00  0.00000000E+00  0.00000000E+00
  0.00000000E+00  0.00000000E+00  0.00000000E+00
  0.00000000E+00  0.00000000E+00  0.00000000E+00
  0.00000000E+00  0.00000000E+00  0.00000000E+00
  0.00000000E+00  0.00000000E+00  0.00000000E+00
  0.00000000E+00  0.00000000E+00  0.00000000E+00
  0.00000000E+00  0.00000000E+00  0.00000000E+00
  0.00000000E+00  0.00000000E+00  0.00000000E+00
  0.00000000E+00  0.00000000E+00  0.00000000E+00
  0.00000000E+00  0.00000000E+00  0.00000000E+00
  0.00000000E+00  0.00000000E+00  0.00000000E+00
  0.00000000E+00  0.00000000E+00  0.00000000E+00
  0.00000000E+00  0.00000000E+00  0.00000000E+00
  0.00000000E+00  0.00000000E+00  0.00000000E+00
  0.00000000E+00  0.00000000E+00  0.00000000E+00
  0.00000000E+00  0.00000000E+00  0.00000000E+00
