C                                       
   1.00000000000000     
    10.8138451182374915    0.7641066124432209    0.0000000000000000
     0.7817673841584183   10.7943650191560181    0.0000000000000000
     0.0000000000000000    0.0000000000000000   16.0000000000000000
  C             
    88
Direct
  0.0012343194584564  0.0158689183496496  0.6380497601003442
  0.8852411754406148  0.0916456249184701  0.6291876241706511
  0.9967554785455937  0.8926389790704111  0.6142907376192706
  0.7993361284945656  0.0039013981449489  0.5794513927909177
  0.8939044382557496  0.8890062795015609  0.5653895319666361
  0.1168013952120536  0.8258152741427610  0.5833732938430994
  0.0765242643331504  0.8269879461702658  0.4881037045364520
  0.9311390481683827  0.8177727300340153  0.4833012740630417
  0.1997599327652955  0.9327184913148605  0.5966332294972763
  0.1161766232418392  0.0473013379356145  0.6026111216312682
  0.0668261034285954  0.1697440275356344  0.5459380260970387
  0.2025745294123073  0.9560712484300437  0.3921847298628748
  0.1096639414167441  0.0656017902235187  0.3820643658807034
  0.0582439724939359  0.1557562769771161  0.4433286215267476
  0.1168694863560620  0.8664642413532264  0.4127637523306653
  0.8593900300074464  0.1712976305818153  0.4947460692793446
  0.9255798023005666  0.1735907041595669  0.5696884694574174
  0.9292924555206102  0.1797417302451024  0.4201887223412285
  0.8853056927764998  0.1016499481733901  0.3579137890026676
  0.9996107991653579  0.0293049076977401  0.3360951692930318
  0.9994613249549616  0.9059780765595361  0.3644690443394139
  0.8093586431807235  0.0637973957658030  0.4939117332108460
  0.7991871754052884  0.0099188667269723  0.4067665683364635
  0.8912269790710179  0.8887419242129938  0.4056441156108441
  0.5721475834065485  0.6363924143589149  0.5993848150447287
  0.4786613634903702  0.5521676657503376  0.5960083746129811
  0.6803695282918141  0.5526360352199334  0.5967073930010234
  0.5364043844110906  0.4202641025044171  0.5983639558789811
  0.6578137627998952  0.4229672007751704  0.5731694713840427
  0.7172445265941928  0.5890105604612301  0.4365538210277025
  0.7100065346372627  0.4558040275166710  0.4257603968800052
  0.6901206619584510  0.3677033203398951  0.4885445580751976
  0.6080070268738222  0.6544468211375370  0.3938773506969109
  0.3362394494122373  0.7356175094271028  0.4802366298992953
  0.2970173933242408  0.6167426962394309  0.4852657848968411
  0.5430301746528994  0.5536609414436149  0.3539544871088144
  0.4226155827825449  0.4976410131177637  0.3598858556603405
  0.3204615315957385  0.5148829406532249  0.4144795543339846
  0.6302094065342607  0.4428103948345810  0.3571321479813872
  0.3353996724197746  0.4243829444326158  0.5415570567579644
  0.3780539792155343  0.5472955939740989  0.5468881279527198
  0.2883013823119649  0.3872317372166231  0.4532947560214621
  0.3947961690318745  0.2888540941689648  0.4158760464734899
  0.4538154619236499  0.3577735708063252  0.3489400339186395
  0.5807629330619409  0.3290661677831920  0.3584694729068869
  0.4534951889302394  0.3462519651959066  0.5587785373128255
  0.4877947806703916  0.3084037400203785  0.4818195755188131
  0.6121625220466445  0.2709606060837541  0.4455093106173665
  0.4392069176500906  0.1418729605242356  0.4281432704138941
  0.4387840355518853  0.0157159149600754  0.3806375023093914
  0.5873506619487411  0.1315406633757753  0.4599922145880192
  0.6550857878521474  0.0012094775025552  0.4202310762555371
  0.5516487669313836  0.9398752174405148  0.3761934667925561
  0.5789666186869621  0.0982857862397535  0.5539685611190085
  0.6592742525972585  0.9803853050978143  0.5805185963525318
  0.6549046996014437  0.9188657578633085  0.4978630512371501
  0.4594257601912609  0.0936871624361556  0.5793169527229314
  0.4446962597809432  0.9758947010442450  0.6211115152986300
  0.5571024863628190  0.8992480007071798  0.6224499407697421
  0.3775416608489608  0.1113524129333890  0.5084032718716465
  0.3258260392558556  0.0062974847600738  0.5007607340714102
  0.3353118561679361  0.9236762724058305  0.5757024551647264
  0.3358222701755740  0.9470230976781491  0.4163761573703001
  0.4057378054908261  0.8155246363549988  0.4378954121366462
  0.4020155817184337  0.8027122826766478  0.5386277092651423
  0.5424328079561891  0.7744051663553649  0.5741927999171164
  0.6024737709623333  0.8144706606358638  0.4947050865065898
  0.5477538393364326  0.7937337241046855  0.4116228443016823
  0.8970726096632283  0.6322078273982810  0.6409627020616876
  0.9718905056142609  0.6765195727706419  0.5849809381161383
  0.9836291201052385  0.5588468475081833  0.6998924104961974
  0.1078078064295402  0.5805281947615909  0.6796033447600240
  0.1085796179010225  0.6789521560259011  0.6041012105006996
  0.9699708488347922  0.4294813838448102  0.6836488877021500
  0.0889591662488298  0.3620783829205472  0.6521206587195509
  0.1589883250030327  0.4603420858891961  0.6473984864234485
  0.8861116999553984  0.4347153769256088  0.6160081509390698
  0.9434043909119473  0.3763488557115073  0.5446551689030809
  0.0777562638711476  0.3074373527833648  0.5609447258042340
  0.8114415376897919  0.5610772497961215  0.5936242499696729
  0.8378626852852142  0.5860323809322655  0.4914076630265007
  0.9268124121858816  0.4605461927807566  0.4774797379592315
  0.9372483027887814  0.6771513612556931  0.4955679661519829
  0.0614031854955410  0.5988862464026127  0.4684637097352429
  0.0492175916966268  0.4762594748675093  0.4541206069121161
  0.1513112547925547  0.3875666531900399  0.4964367444402208
  0.2028768198472729  0.4670549956450128  0.5629855518119653
  0.1684543499627560  0.6019527907276250  0.5280721104762777
 
  0.00000000E+00  0.00000000E+00  0.00000000E+00
  0.00000000E+00  0.00000000E+00  0.00000000E+00
  0.00000000E+00  0.00000000E+00  0.00000000E+00
  0.00000000E+00  0.00000000E+00  0.00000000E+00
  0.00000000E+00  0.00000000E+00  0.00000000E+00
  0.00000000E+00  0.00000000E+00  0.00000000E+00
  0.00000000E+00  0.00000000E+00  0.00000000E+00
  0.00000000E+00  0.00000000E+00  0.00000000E+00
  0.00000000E+00  0.00000000E+00  0.00000000E+00
  0.00000000E+00  0.00000000E+00  0.00000000E+00
  0.00000000E+00  0.00000000E+00  0.00000000E+00
  0.00000000E+00  0.00000000E+00  0.00000000E+00
  0.00000000E+00  0.00000000E+00  0.00000000E+00
  0.00000000E+00  0.00000000E+00  0.00000000E+00
  0.00000000E+00  0.00000000E+00  0.00000000E+00
  0.00000000E+00  0.00000000E+00  0.00000000E+00
  0.00000000E+00  0.00000000E+00  0.00000000E+00
  0.00000000E+00  0.00000000E+00  0.00000000E+00
  0.00000000E+00  0.00000000E+00  0.00000000E+00
  0.00000000E+00  0.00000000E+00  0.00000000E+00
  0.00000000E+00  0.00000000E+00  0.00000000E+00
  0.00000000E+00  0.00000000E+00  0.00000000E+00
  0.00000000E+00  0.00000000E+00  0.00000000E+00
  0.00000000E+00  0.00000000E+00  0.00000000E+00
  0.00000000E+00  0.00000000E+00  0.00000000E+00
  0.00000000E+00  0.00000000E+00  0.00000000E+00
  0.00000000E+00  0.00000000E+00  0.00000000E+00
  0.00000000E+00  0.00000000E+00  0.00000000E+00
  0.00000000E+00  0.00000000E+00  0.00000000E+00
  0.00000000E+00  0.00000000E+00  0.00000000E+00
  0.00000000E+00  0.00000000E+00  0.00000000E+00
  0.00000000E+00  0.00000000E+00  0.00000000E+00
  0.00000000E+00  0.00000000E+00  0.00000000E+00
  0.00000000E+00  0.00000000E+00  0.00000000E+00
  0.00000000E+00  0.00000000E+00  0.00000000E+00
  0.00000000E+00  0.00000000E+00  0.00000000E+00
  0.00000000E+00  0.00000000E+00  0.00000000E+00
  0.00000000E+00  0.00000000E+00  0.00000000E+00
  0.00000000E+00  0.00000000E+00  0.00000000E+00
  0.00000000E+00  0.00000000E+00  0.00000000E+00
  0.00000000E+00  0.00000000E+00  0.00000000E+00
  0.00000000E+00  0.00000000E+00  0.00000000E+00
  0.00000000E+00  0.00000000E+00  0.00000000E+00
  0.00000000E+00  0.00000000E+00  0.00000000E+00
  0.00000000E+00  0.00000000E+00  0.00000000E+00
  0.00000000E+00  0.00000000E+00  0.00000000E+00
  0.00000000E+00  0.00000000E+00  0.00000000E+00
  0.00000000E+00  0.00000000E+00  0.00000000E+00
  0.00000000E+00  0.00000000E+00  0.00000000E+00
  0.00000000E+00  0.00000000E+00  0.00000000E+00
  0.00000000E+00  0.00000000E+00  0.00000000E+00
  0.00000000E+00  0.00000000E+00  0.00000000E+00
  0.00000000E+00  0.00000000E+00  0.00000000E+00
  0.00000000E+00  0.00000000E+00  0.00000000E+00
  0.00000000E+00  0.00000000E+00  0.00000000E+00
  0.00000000E+00  0.00000000E+00  0.00000000E+00
  0.00000000E+00  0.00000000E+00  0.00000000E+00
  0.00000000E+00  0.00000000E+00  0.00000000E+00
  0.00000000E+00  0.00000000E+00  0.00000000E+00
  0.00000000E+00  0.00000000E+00  0.00000000E+00
  0.00000000E+00  0.00000000E+00  0.00000000E+00
  0.00000000E+00  0.00000000E+00  0.00000000E+00
  0.00000000E+00  0.00000000E+00  0.00000000E+00
  0.00000000E+00  0.00000000E+00  0.00000000E+00
  0.00000000E+00  0.00000000E+00  0.00000000E+00
  0.00000000E+00  0.00000000E+00  0.00000000E+00
  0.00000000E+00  0.00000000E+00  0.00000000E+00
  0.00000000E+00  0.00000000E+00  0.00000000E+00
  0.00000000E+00  0.00000000E+00  0.00000000E+00
  0.00000000E+00  0.00000000E+00  0.00000000E+00
  0.00000000E+00  0.00000000E+00  0.00000000E+00
  0.00000000E+00  0.00000000E+00  0.00000000E+00
  0.00000000E+00  0.00000000E+00  0.00000000E+00
  0.00000000E+00  0.00000000E+00  0.00000000E+00
  0.00000000E+00  0.00000000E+00  0.00000000E+00
  0.00000000E+00  0.00000000E+00  0.00000000E+00
  0.00000000E+00  0.00000000E+00  0.00000000E+00
  0.00000000E+00  0.00000000E+00  0.00000000E+00
  0.00000000E+00  0.00000000E+00  0.00000000E+00
  0.00000000E+00  0.00000000E+00  0.00000000E+00
  0.00000000E+00  0.00000000E+00  0.00000000E+00
  0.00000000E+00  0.00000000E+00  0.00000000E+00
  0.00000000E+00  0.00000000E+00  0.00000000E+00
  0.00000000E+00  0.00000000E+00  0.00000000E+00
  0.00000000E+00  0.00000000E+00  0.00000000E+00
  0.00000000E+00  0.00000000E+00  0.00000000E+00
  0.00000000E+00  0.00000000E+00  0.00000000E+00
  0.00000000E+00  0.00000000E+00  0.00000000E+00
