C 
 1.0000000000000000
    10.2268417810727001    0.0000000000000000    0.0000000000000000
     0.0000000000000000   10.2268417810727001    0.0000000000000000
     0.0000000000000000    0.0000000000000000   16.0000000000000000
 C  
  88
Direct
  0.0277062351095510 -0.0294869035721371  0.6468551676706048
 -0.0890407431451590  0.0456695753900797  0.6347416592282344
  0.0148107879667694 -0.1567255230480699  0.6103537830604356
 -0.1689414255902718 -0.0283492131301093  0.5734433628947992
 -0.1055136471141870 -0.1518074961017959  0.5584582303628488
  0.1200108920597452 -0.1817356812522528  0.5535476416839487
  0.0709691998937117 -0.2181132083253808  0.4729025657342180
 -0.0712037467967642 -0.1895128260317574  0.4745625794102019
  0.1879265510938374 -0.0548796182443408  0.5415950426565357
  0.1314570673485801  0.0382218194107131  0.5986766567003156
  0.0780343462248230  0.1591428610084962  0.5676273512099728
  0.1910525754855510 -0.0271096914362787  0.4533993406523673
  0.1376892173506234  0.0937748013856830  0.4223572932857950
  0.0811857615403992  0.1868842419589917  0.4794385220999482
  0.1252389921912371 -0.1364328484416514  0.4090174905766521
 -0.1364735450847036  0.1859352082645587  0.5220746751770010
 -0.0598376959103742  0.1685534398372383  0.5961741144106684
 -0.0545745558927950  0.2138621101341758  0.4516272374362890
 -0.0802360587678323  0.1246223279596582  0.3846392760452992
  0.0378264691939148  0.0615971928474937  0.3583430359863357
  0.0236220601022474 -0.0778142206468855  0.3601921808998767
 -0.1979730706868469  0.0574650783061371  0.5045405301591293
 -0.1635628797194826  0.0198735684915964  0.4206426790345034
 -0.1001727868525714 -0.1036349947641620  0.4056713858115787
  0.5165286351176270  0.6536025423148194  0.5760158241828026
  0.4573556488930523  0.5487117375369333  0.6218141258773747
  0.6467665777927316  0.6199637518730917  0.5510661509701271
  0.5448604027409274  0.4342522002107104  0.6107065579433257
  0.6603960897459427  0.4776530410088778  0.5674377628262790
  0.6623962794071538  0.6356941030882483  0.4627314577153967
  0.7100841978447344  0.5175520776926301  0.4253758066222583
  0.6992732718051977  0.4151957677745652  0.4906977049341306
  0.5290325410814223  0.6556486929729675  0.4284855297644353
  0.4398346531594048  0.6666078791254384  0.4977874069250785
  0.3287326993988526  0.5805153135780168  0.5035055478371614
  0.5071723256394619  0.5585885627358917  0.3648183824584168
  0.3960987325123317  0.4725503277385164  0.3705140829688060
  0.3068971563130678  0.4834840655434895  0.4398310491805965
  0.6267630820168031  0.4767365781643943  0.3583433111129084
  0.3319381179894255  0.3757524193387202  0.5670142796492978
  0.3345641666898369  0.5127530680462625  0.5855252590988118
  0.2989219800754513  0.3538014769199802  0.4811097649020285
  0.3951706794631815  0.2734050437074592  0.4413028160375936
  0.4447920552930968  0.3359886299175484  0.3677987734071384
  0.5846259457248481  0.3446022524399269  0.3705079765442123
  0.4681298579846004  0.3284562192765199  0.5772046888503561
  0.5068819088852539  0.2660540103443078  0.5004225460868981
  0.6224711675195534  0.3094492153199508  0.4571786331953679
  0.4855051714126504  0.1346741494693408  0.4381880374753779
  0.4578113662452425  0.0154660796447165  0.3920516884095326
  0.6180222333749026  0.1269277568657977  0.4673137317412921
  0.6714937965002546  0.0029351363012587  0.4390313601909311
  0.5747378117311558 -0.0667552844481645  0.3885148577149600
  0.6194969479173010  0.1327518133515285  0.5586605545987976
  0.6674800185038299  0.0043286698026646  0.5846981929357934
  0.7021807057269167 -0.0730915116527644  0.5118272122050637
  0.4820358064583475  0.1330862471945194  0.5824769797123995
  0.4487047222092217  0.0182401883284226  0.6318760166696693
  0.5656390111201074 -0.0639437955453099  0.6283522142778357
  0.3972788476684793  0.1457574904101379  0.5097970546398325
  0.3212658331354007  0.0246066793517091  0.5085805413668805
  0.3519289476042889 -0.0514404727353653  0.5813762384163762
  0.3559606245779012 -0.0527791469959514  0.4357122399142315
  0.4039306068378223 -0.1812028682187804  0.4617474362085568
  0.4054232718224987 -0.1754127045469865  0.5530927580643892
  0.5379499387782569 -0.1831524884245972  0.5822187331784232
  0.6261757366867249 -0.1942489284760321  0.5105984121289490
  0.5413932961026442 -0.1815915509585358  0.4379208118926672
 -0.1249991558195713  0.6366987960355375  0.5904864894657029
 -0.0200807842128927  0.6981112917445310  0.5434809889609025
 -0.0661662920215838  0.5549308724983346  0.6529491275584560
  0.0748142147054090  0.5662343003781420  0.6441852033490170
  0.1066552475523742  0.6599379602786396  0.5781591871829342
 -0.1067401877295037  0.4193581736651070  0.6396327856623394
  0.0136559764623145  0.3508451950593477  0.6168988220288413
  0.1243209404993627  0.4396667213652524  0.6218380051270381
 -0.1828471111016619  0.4228291748244297  0.5627193694467009
 -0.1223787968663608  0.3442638074993487  0.4973959714097562
  0.0043245032745238  0.3060735967686600  0.5320887169898039
 -0.2054013156970421  0.5565105161183026  0.5348983868804279
 -0.1400746450113091  0.5645126250543537  0.4537265745520683
 -0.0905621578157379  0.4379494144004281  0.4313598380553404
 -0.0294423832735043  0.6533361697273805  0.4586738196619823
  0.0909489221825455  0.5848304510184957  0.4359331546672323
  0.0504126890360607  0.4492506315901405  0.4226150876460083
  0.1092445379394972  0.3674804093875499  0.4850850081669781
  0.1896619260460500  0.4476840002373929  0.5406703764155657
  0.1671061174766900  0.5813673358823539  0.5128307778773796
