Generated by VASPKIT code               
   1.00000000000000     
    11.9175501855639094    0.0765525186576193    0.0000000000000000
    -5.8956869556624421   10.1980109619284143    0.0000000000000000
     0.0000000000000013    0.0000000000000022   19.7162968996427139
   C 
    84
Direct
  0.1241217743559844  0.1252217634501207  0.4230579169095208
  0.1962875384406004  0.2053238066208536  0.4836177592075899
  0.1296161406259770  0.0057902876691216  0.4179400480828050
  0.1764456442476501  0.0917741460338064  0.5273192516184579
  0.1828039452505124  0.9891575995262798  0.4852901704103374
  0.0094798404368746  0.9033470049489480  0.4012759259907668
  0.9625784840541911  0.7863621500749574  0.4470004797089189
  0.0658379921325292  0.8430064873623238  0.5092128401616023
  0.9217818602862522  0.9591961229347064  0.4061035367952073
  0.9973470134913072  0.0993102825388092  0.4168811397667866
  0.9663073767115762  0.1699724216719929  0.4702097213529797
  0.8224296821001218  0.8828819238011008  0.4490067742625996
  0.7770428845512996  0.9387796362305707  0.5067201710398308
  0.8780753102037906  0.0753036002432879  0.5225447259446909
  0.8308572282016229  0.7611731533829982  0.4692504019412169
  0.0568568772688067  0.1620069517667488  0.5777229771733872
  0.0954772940244766  0.2424077211245432  0.5159219120174470
  0.9225678494053895  0.0879906979101435  0.5884483578297335
  0.8874611209952548  0.9593374261733629  0.6156933215817517
  0.7983160396176672  0.8691092775926279  0.5691150693187126
  0.8558786343434122  0.7971286348424798  0.5430515953849024
  0.1081951999956914  0.0759516671980975  0.5868510333258001
  0.0066630300136268  0.9504062771998250  0.6111798394821690
  0.9827154911380589  0.8469845899757900  0.5656548432774642
  0.5012315215039251  0.1031078652621247  0.5710414267806172
  0.8964165068961094  0.3880412891887417  0.5564939706661107
  0.6209248768384583  0.5080725308475564  0.5618772873917521
  0.6204315623322145  0.1138854433611556  0.5578586690637835
  0.8963283602634959  0.5113999072174096  0.5540356741404793
  0.4993824685646686  0.4008238197911851  0.5717119711978143
  0.4139708141235232  0.9612594046548040  0.5795893464252373
  0.0197164672252654  0.4099779810250510  0.5708204475301457
  0.5985659271201271  0.6203179672395649  0.5615454182945783
  0.4824541837568148  0.8874849754446927  0.5726291583620409
  0.0973406894038220  0.5523928252897292  0.5759154600431842
  0.4710807426024175  0.5914921317958530  0.5742037584285740
  0.6068484312882134  0.9837137884741765  0.5583782681745788
  0.0185680083339008  0.6143312546761521  0.5661650014995132
  0.4076447625406558  0.4504048452604081  0.5797478529773201
  0.3319007933872982  0.9233668800972481  0.5264119213844936
  0.0731668371778369  0.3612727679853762  0.5143235414816729
  0.6280716983446482  0.6738846620914316  0.4975931038095993
  0.3194910086353175  0.8111887216871452  0.4835666597490302
  0.1812680950616041  0.4860544822903137  0.4812586175816307
  0.5360990466916604  0.7050065394770471  0.4633041206341133
  0.4261813354234718  0.7836544927352520  0.5161177277542137
  0.1759829934645225  0.5904467054994242  0.5211901772786121
  0.4207549973010387  0.6448517584577189  0.5161179010550825
  0.3322222450767356  0.0300541292075991  0.4858378839636828
  0.9546985032469522  0.2949577601431983  0.4628847523170876
  0.7038561321402170  0.6287783085209568  0.4575259792239024
  0.3925278601933613  0.0160776619864365  0.4211023963536249
  0.0007123108850777  0.3909755298398423  0.4043898700973187
  0.6020167421232614  0.5629419372891675  0.4025538439644194
  0.3831798093330647  0.8878159331273494  0.4196589365862806
  0.1233316696534175  0.4954475805917440  0.4153133966100953
  0.5084677732381806  0.6075199350158016  0.4088497212293163
  0.4561469702149594  0.1647982570196191  0.5169233148592838
  0.8330339291892628  0.3067149126811515  0.4934150282731480
  0.6936663514685719  0.5047468707897309  0.4973097905787753
  0.5746942176305581  0.2198900317708450  0.4631847202752937
  0.8370071398605390  0.4153544846229451  0.4500262022517347
  0.5779357632774378  0.3653230316577023  0.4636985575896873
  0.5186427880253959  0.1130208178327408  0.4092136944309175
  0.9211163348730054  0.4526065185766370  0.3970847740271779
  0.5318829257083593  0.4242438200019123  0.4093462400035577
  0.6894765526652904  0.1913359216222119  0.4945399254948768
  0.8325512125879015  0.5235227838924743  0.4900706248151749
  0.4581268270024665  0.2988528946371076  0.5158487225490660
  0.6759376890371129  0.0748971167285006  0.4530471996304755
  0.9568296605534243  0.6536878236074628  0.4529497831282754
  0.3406947588732407  0.3096606939868352  0.4813614960683381
  0.5890181897891651  0.0401723368599249  0.4017159723407246
  0.0014720149685772  0.5943689571123016  0.4005023954003377
  0.3989788452053347  0.3863744865949457  0.4179062550748043
  0.5011603149746122  0.8985944153683789  0.4065371659539920
  0.1257863777033705  0.6197962026400035  0.4125806090171551
  0.3839014923111677  0.4982402683963869  0.4180642839157969
  0.5403496423067011  0.8369462889163302  0.4624964501326119
  0.1820565651604724  0.6974567495925541  0.4783187596696834
  0.3181931635391635  0.5108843747982235  0.4818649655965643
  0.6592638279065071  0.9552652432236215  0.4945981708441352
  0.0686758386247561  0.7127324427755042  0.5081073387195332
  0.3334211804786875  0.4115868084487460  0.5231063195822045
 
  0.00000000E+00  0.00000000E+00  0.00000000E+00
  0.00000000E+00  0.00000000E+00  0.00000000E+00
  0.00000000E+00  0.00000000E+00  0.00000000E+00
  0.00000000E+00  0.00000000E+00  0.00000000E+00
  0.00000000E+00  0.00000000E+00  0.00000000E+00
  0.00000000E+00  0.00000000E+00  0.00000000E+00
  0.00000000E+00  0.00000000E+00  0.00000000E+00
  0.00000000E+00  0.00000000E+00  0.00000000E+00
  0.00000000E+00  0.00000000E+00  0.00000000E+00
  0.00000000E+00  0.00000000E+00  0.00000000E+00
  0.00000000E+00  0.00000000E+00  0.00000000E+00
  0.00000000E+00  0.00000000E+00  0.00000000E+00
  0.00000000E+00  0.00000000E+00  0.00000000E+00
  0.00000000E+00  0.00000000E+00  0.00000000E+00
  0.00000000E+00  0.00000000E+00  0.00000000E+00
  0.00000000E+00  0.00000000E+00  0.00000000E+00
  0.00000000E+00  0.00000000E+00  0.00000000E+00
  0.00000000E+00  0.00000000E+00  0.00000000E+00
  0.00000000E+00  0.00000000E+00  0.00000000E+00
  0.00000000E+00  0.00000000E+00  0.00000000E+00
  0.00000000E+00  0.00000000E+00  0.00000000E+00
  0.00000000E+00  0.00000000E+00  0.00000000E+00
  0.00000000E+00  0.00000000E+00  0.00000000E+00
  0.00000000E+00  0.00000000E+00  0.00000000E+00
  0.00000000E+00  0.00000000E+00  0.00000000E+00
  0.00000000E+00  0.00000000E+00  0.00000000E+00
  0.00000000E+00  0.00000000E+00  0.00000000E+00
  0.00000000E+00  0.00000000E+00  0.00000000E+00
  0.00000000E+00  0.00000000E+00  0.00000000E+00
  0.00000000E+00  0.00000000E+00  0.00000000E+00
  0.00000000E+00  0.00000000E+00  0.00000000E+00
  0.00000000E+00  0.00000000E+00  0.00000000E+00
  0.00000000E+00  0.00000000E+00  0.00000000E+00
  0.00000000E+00  0.00000000E+00  0.00000000E+00
  0.00000000E+00  0.00000000E+00  0.00000000E+00
  0.00000000E+00  0.00000000E+00  0.00000000E+00
  0.00000000E+00  0.00000000E+00  0.00000000E+00
  0.00000000E+00  0.00000000E+00  0.00000000E+00
  0.00000000E+00  0.00000000E+00  0.00000000E+00
  0.00000000E+00  0.00000000E+00  0.00000000E+00
  0.00000000E+00  0.00000000E+00  0.00000000E+00
  0.00000000E+00  0.00000000E+00  0.00000000E+00
  0.00000000E+00  0.00000000E+00  0.00000000E+00
  0.00000000E+00  0.00000000E+00  0.00000000E+00
  0.00000000E+00  0.00000000E+00  0.00000000E+00
  0.00000000E+00  0.00000000E+00  0.00000000E+00
  0.00000000E+00  0.00000000E+00  0.00000000E+00
  0.00000000E+00  0.00000000E+00  0.00000000E+00
  0.00000000E+00  0.00000000E+00  0.00000000E+00
  0.00000000E+00  0.00000000E+00  0.00000000E+00
  0.00000000E+00  0.00000000E+00  0.00000000E+00
  0.00000000E+00  0.00000000E+00  0.00000000E+00
  0.00000000E+00  0.00000000E+00  0.00000000E+00
  0.00000000E+00  0.00000000E+00  0.00000000E+00
  0.00000000E+00  0.00000000E+00  0.00000000E+00
  0.00000000E+00  0.00000000E+00  0.00000000E+00
  0.00000000E+00  0.00000000E+00  0.00000000E+00
  0.00000000E+00  0.00000000E+00  0.00000000E+00
  0.00000000E+00  0.00000000E+00  0.00000000E+00
  0.00000000E+00  0.00000000E+00  0.00000000E+00
  0.00000000E+00  0.00000000E+00  0.00000000E+00
  0.00000000E+00  0.00000000E+00  0.00000000E+00
  0.00000000E+00  0.00000000E+00  0.00000000E+00
  0.00000000E+00  0.00000000E+00  0.00000000E+00
  0.00000000E+00  0.00000000E+00  0.00000000E+00
  0.00000000E+00  0.00000000E+00  0.00000000E+00
  0.00000000E+00  0.00000000E+00  0.00000000E+00
  0.00000000E+00  0.00000000E+00  0.00000000E+00
  0.00000000E+00  0.00000000E+00  0.00000000E+00
  0.00000000E+00  0.00000000E+00  0.00000000E+00
  0.00000000E+00  0.00000000E+00  0.00000000E+00
  0.00000000E+00  0.00000000E+00  0.00000000E+00
  0.00000000E+00  0.00000000E+00  0.00000000E+00
  0.00000000E+00  0.00000000E+00  0.00000000E+00
  0.00000000E+00  0.00000000E+00  0.00000000E+00
  0.00000000E+00  0.00000000E+00  0.00000000E+00
  0.00000000E+00  0.00000000E+00  0.00000000E+00
  0.00000000E+00  0.00000000E+00  0.00000000E+00
  0.00000000E+00  0.00000000E+00  0.00000000E+00
  0.00000000E+00  0.00000000E+00  0.00000000E+00
  0.00000000E+00  0.00000000E+00  0.00000000E+00
  0.00000000E+00  0.00000000E+00  0.00000000E+00
  0.00000000E+00  0.00000000E+00  0.00000000E+00
  0.00000000E+00  0.00000000E+00  0.00000000E+00
