Generated by VASPKIT code               
   1.00000000000000     
    11.9175501855639094    0.0765525186576193    0.0000000000000000
    -5.8956869556624421   10.1980109619284143    0.0000000000000000
     0.0000000000000013    0.0000000000000022   19.7162968996427139
  C             
    84
Direct
  0.1241217743559839  0.1252217634501234  0.4230579169095185
  0.1962875384405985  0.2053238066208534  0.4836177592075894
  0.1296161406259750  0.0057902876691231  0.4179400480828029
  0.1764456442476522  0.0917741460338057  0.5273192516184553
  0.1828039452505124  0.9891575995262828  0.4852901704103360
  0.0094798404368753  0.9033470049489483  0.4012759259907675
  0.9625784840541914  0.7863621500749556  0.4470004797089213
  0.0658379921325284  0.8430064873623271  0.5092128401616022
  0.9217818602862548  0.9591961229347068  0.4061035367952076
  0.9973470134913103  0.0993102825388100  0.4168811397667893
  0.9663073767115772  0.1699724216719962  0.4702097213529771
  0.8224296821001226  0.8828819238011016  0.4490067742625982
  0.7770428845512969  0.9387796362305718  0.5067201710398316
  0.8780753102037914  0.0753036002432882  0.5225447259446879
  0.8308572282016228  0.7611731533829954  0.4692504019412195
  0.0568568772688076  0.1620069517667484  0.5777229771733872
  0.0954772940244766  0.2424077211245456  0.5159219120174465
  0.9225678494053929  0.0879906979101412  0.5884483578297308
  0.8874611209952546  0.9593374261733649  0.6156933215817542
  0.7983160396176664  0.8691092775926296  0.5691150693187120
  0.8558786343434092  0.7971286348424773  0.5430515953849001
  0.1081951999956894  0.0759516671981000  0.5868510333257980
  0.0066630300136294  0.9504062771998255  0.6111798394821721
  0.9827154911380623  0.8469845899757872  0.5656548432774640
  0.5012315215039246  0.1031078652621223  0.5710414267806152
  0.8964165068961084  0.3880412891887430  0.5564939706661113
  0.6209248768384608  0.5080725308475568  0.5618772873917501
  0.6204315623322145  0.1138854433611545  0.5578586690637827
  0.8963283602634963  0.5113999072174112  0.5540356741404776
  0.4993824685646704  0.4008238197911846  0.5717119711978117
  0.4139708141235231  0.9612594046548046  0.5795893464252365
  0.0197164672252653  0.4099779810250520  0.5708204475301469
  0.5985659271201291  0.6203179672395649  0.5615454182945778
  0.4824541837568160  0.8874849754446942  0.5726291583620382
  0.0973406894038207  0.5523928252897320  0.5759154600431855
  0.4710807426024145  0.5914921317958550  0.5742037584285749
  0.6068484312882167  0.9837137884741791  0.5583782681745810
  0.0185680083339039  0.6143312546761488  0.5661650014995104
  0.4076447625406551  0.4504048452604055  0.5797478529773198
  0.3319007933872978  0.9233668800972471  0.5264119213844912
  0.0731668371778378  0.3612727679853793  0.5143235414816746
  0.6280716983446507  0.6738846620914345  0.4975931038095961
  0.3194910086353198  0.8111887216871461  0.4835666597490296
  0.1812680950616070  0.4860544822903130  0.4812586175816309
  0.5360990466916640  0.7050065394770492  0.4633041206341117
  0.4261813354234746  0.7836544927352528  0.5161177277542150
  0.1759829934645246  0.5904467054994219  0.5211901772786095
  0.4207549973010377  0.6448517584577165  0.5161179010550859
  0.3322222450767355  0.0300541292075996  0.4858378839636844
  0.9546985032469512  0.2949577601432006  0.4628847523170845
  0.7038561321402143  0.6287783085209593  0.4575259792238998
  0.3925278601933612  0.0160776619864370  0.4211023963536232
  0.0007123108850755  0.3909755298398409  0.4043898700973156
  0.6020167421232628  0.5629419372891667  0.4025538439644203
  0.3831798093330653  0.8878159331273509  0.4196589365862774
  0.1233316696534143  0.4954475805917462  0.4153133966100974
  0.5084677732381787  0.6075199350158036  0.4088497212293160
  0.4561469702149591  0.1647982570196186  0.5169233148592808
  0.8330339291892593  0.3067149126811480  0.4934150282731478
  0.6936663514685698  0.5047468707897332  0.4973097905787779
  0.5746942176305578  0.2198900317708461  0.4631847202752966
  0.8370071398605370  0.4153544846229417  0.4500262022517356
  0.5779357632774379  0.3653230316577001  0.4636985575896859
  0.5186427880253950  0.1130208178327415  0.4092136944309200
  0.9211163348730038  0.4526065185766382  0.3970847740271814
  0.5318829257083619  0.4242438200019104  0.4093462400035611
  0.6894765526652921  0.1913359216222099  0.4945399254948779
  0.8325512125878991  0.5235227838924770  0.4900706248151775
  0.4581268270024649  0.2988528946371070  0.5158487225490657
  0.6759376890371106  0.0748971167285036  0.4530471996304744
  0.9568296605534258  0.6536878236074639  0.4529497831282727
  0.3406947588732388  0.3096606939868327  0.4813614960683406
  0.5890181897891679  0.0401723368599270  0.4017159723407238
  0.0014720149685760  0.5943689571123018  0.4005023954003403
  0.3989788452053352  0.3863744865949488  0.4179062550748033
  0.5011603149746128  0.8985944153683778  0.4065371659539905
  0.1257863777033676  0.6197962026400031  0.4125806090171579
  0.3839014923111704  0.4982402683963848  0.4180642839157933
  0.5403496423067025  0.8369462889163326  0.4624964501326091
  0.1820565651604712  0.6974567495925529  0.4783187596696827
  0.3181931635391639  0.5108843747982231  0.4818649655965669
  0.6592638279065088  0.9552652432236221  0.4945981708441345
  0.0686758386247592  0.7127324427755048  0.5081073387195366
  0.3334211804786878  0.4115868084487429  0.5231063195822037
 
  0.00000000E+00  0.00000000E+00  0.00000000E+00
  0.00000000E+00  0.00000000E+00  0.00000000E+00
  0.00000000E+00  0.00000000E+00  0.00000000E+00
  0.00000000E+00  0.00000000E+00  0.00000000E+00
  0.00000000E+00  0.00000000E+00  0.00000000E+00
  0.00000000E+00  0.00000000E+00  0.00000000E+00
  0.00000000E+00  0.00000000E+00  0.00000000E+00
  0.00000000E+00  0.00000000E+00  0.00000000E+00
  0.00000000E+00  0.00000000E+00  0.00000000E+00
  0.00000000E+00  0.00000000E+00  0.00000000E+00
  0.00000000E+00  0.00000000E+00  0.00000000E+00
  0.00000000E+00  0.00000000E+00  0.00000000E+00
  0.00000000E+00  0.00000000E+00  0.00000000E+00
  0.00000000E+00  0.00000000E+00  0.00000000E+00
  0.00000000E+00  0.00000000E+00  0.00000000E+00
  0.00000000E+00  0.00000000E+00  0.00000000E+00
  0.00000000E+00  0.00000000E+00  0.00000000E+00
  0.00000000E+00  0.00000000E+00  0.00000000E+00
  0.00000000E+00  0.00000000E+00  0.00000000E+00
  0.00000000E+00  0.00000000E+00  0.00000000E+00
  0.00000000E+00  0.00000000E+00  0.00000000E+00
  0.00000000E+00  0.00000000E+00  0.00000000E+00
  0.00000000E+00  0.00000000E+00  0.00000000E+00
  0.00000000E+00  0.00000000E+00  0.00000000E+00
  0.00000000E+00  0.00000000E+00  0.00000000E+00
  0.00000000E+00  0.00000000E+00  0.00000000E+00
  0.00000000E+00  0.00000000E+00  0.00000000E+00
  0.00000000E+00  0.00000000E+00  0.00000000E+00
  0.00000000E+00  0.00000000E+00  0.00000000E+00
  0.00000000E+00  0.00000000E+00  0.00000000E+00
  0.00000000E+00  0.00000000E+00  0.00000000E+00
  0.00000000E+00  0.00000000E+00  0.00000000E+00
  0.00000000E+00  0.00000000E+00  0.00000000E+00
  0.00000000E+00  0.00000000E+00  0.00000000E+00
  0.00000000E+00  0.00000000E+00  0.00000000E+00
  0.00000000E+00  0.00000000E+00  0.00000000E+00
  0.00000000E+00  0.00000000E+00  0.00000000E+00
  0.00000000E+00  0.00000000E+00  0.00000000E+00
  0.00000000E+00  0.00000000E+00  0.00000000E+00
  0.00000000E+00  0.00000000E+00  0.00000000E+00
  0.00000000E+00  0.00000000E+00  0.00000000E+00
  0.00000000E+00  0.00000000E+00  0.00000000E+00
  0.00000000E+00  0.00000000E+00  0.00000000E+00
  0.00000000E+00  0.00000000E+00  0.00000000E+00
  0.00000000E+00  0.00000000E+00  0.00000000E+00
  0.00000000E+00  0.00000000E+00  0.00000000E+00
  0.00000000E+00  0.00000000E+00  0.00000000E+00
  0.00000000E+00  0.00000000E+00  0.00000000E+00
  0.00000000E+00  0.00000000E+00  0.00000000E+00
  0.00000000E+00  0.00000000E+00  0.00000000E+00
  0.00000000E+00  0.00000000E+00  0.00000000E+00
  0.00000000E+00  0.00000000E+00  0.00000000E+00
  0.00000000E+00  0.00000000E+00  0.00000000E+00
  0.00000000E+00  0.00000000E+00  0.00000000E+00
  0.00000000E+00  0.00000000E+00  0.00000000E+00
  0.00000000E+00  0.00000000E+00  0.00000000E+00
  0.00000000E+00  0.00000000E+00  0.00000000E+00
  0.00000000E+00  0.00000000E+00  0.00000000E+00
  0.00000000E+00  0.00000000E+00  0.00000000E+00
  0.00000000E+00  0.00000000E+00  0.00000000E+00
  0.00000000E+00  0.00000000E+00  0.00000000E+00
  0.00000000E+00  0.00000000E+00  0.00000000E+00
  0.00000000E+00  0.00000000E+00  0.00000000E+00
  0.00000000E+00  0.00000000E+00  0.00000000E+00
  0.00000000E+00  0.00000000E+00  0.00000000E+00
  0.00000000E+00  0.00000000E+00  0.00000000E+00
  0.00000000E+00  0.00000000E+00  0.00000000E+00
  0.00000000E+00  0.00000000E+00  0.00000000E+00
  0.00000000E+00  0.00000000E+00  0.00000000E+00
  0.00000000E+00  0.00000000E+00  0.00000000E+00
  0.00000000E+00  0.00000000E+00  0.00000000E+00
  0.00000000E+00  0.00000000E+00  0.00000000E+00
  0.00000000E+00  0.00000000E+00  0.00000000E+00
  0.00000000E+00  0.00000000E+00  0.00000000E+00
  0.00000000E+00  0.00000000E+00  0.00000000E+00
  0.00000000E+00  0.00000000E+00  0.00000000E+00
  0.00000000E+00  0.00000000E+00  0.00000000E+00
  0.00000000E+00  0.00000000E+00  0.00000000E+00
  0.00000000E+00  0.00000000E+00  0.00000000E+00
  0.00000000E+00  0.00000000E+00  0.00000000E+00
  0.00000000E+00  0.00000000E+00  0.00000000E+00
  0.00000000E+00  0.00000000E+00  0.00000000E+00
  0.00000000E+00  0.00000000E+00  0.00000000E+00
  0.00000000E+00  0.00000000E+00  0.00000000E+00
