Generated by VASPKIT code               
   1.00000000000000     
    19.6278363590093150   -0.0143820401514194    0.0000000000000000
    -9.8263647740784705   16.9960642353906621    0.0000000000000000
     0.0000000000000013    0.0000000000000023   19.7134533830936647
  C             
   108
Direct
  0.4214774319748722  0.6077313446266216  0.5490830817743960
  0.5785364455409501  0.3922829838581264  0.5490712629414821
  0.3517045104854870  0.5499032471166226  0.5017725270781781
  0.6483086955744033  0.4501063475520798  0.5017617220577636
  0.4589712815182890  0.6845906111267519  0.5083503338403929
  0.5410320041867248  0.3154221539520630  0.5083371521919149
  0.3446299870831522  0.6024105221999195  0.4491378395424339
  0.6553801508175907  0.3975965006747876  0.4491251990421372
  0.4104093853038509  0.6770931756679437  0.4491596655138653
  0.5895938993555143  0.3229173112310643  0.4491465154534902
  0.4715037335254134  0.7498817774624089  0.5448465477807716
  0.5284892812224213  0.2501282224679534  0.5448310338103829
  0.4503565267162196  0.8017548233747402  0.5018237036143623
  0.5496336257194628  0.1982505179771340  0.5018109865644077
  0.3979229649275223  0.7420506347722647  0.4491442337501744
  0.6020700351941987  0.2579523798554086  0.4491309726843998
  0.4157323031265750  0.7166107239931104  0.6022602527939560
  0.5842619394078620  0.2833954859606767  0.6022471148774570
  0.3827373729236573  0.6318201141027351  0.6053560159681510
  0.6172654587840627  0.3681852228313282  0.6053446239949268
  0.3009706209878817  0.5842587851521004  0.6021576927524791
  0.6990339834628714  0.4157401661062661  0.6021465259805412
  0.3682042234708409  0.7507394253292846  0.6053092000482283
  0.6317826451009180  0.2492601517310365  0.6053003223334084
  0.2833856813721345  0.6988949516448613  0.6021156123073407
  0.7166025572034975  0.3010930693623450  0.6021073680261878
  0.2491665237260894  0.6171702377486862  0.6051985509824346
  0.7508294348881628  0.3828194002153870  0.6051908511687342
  0.3924702850148330  0.8135630646608518  0.5490023163840912
  0.6075089706472803  0.1864344524962445  0.5489940805778212
  0.2258240237341878  0.5411442424566859  0.5081147933389563
  0.7741817947568509  0.4588470016279461  0.5081049915146078
  0.2785237543448464  0.5286155842809541  0.5446847017190979
  0.7214893545794994  0.4713866581353074  0.5446758485469637
  0.1863966642386846  0.5784885640936310  0.5488086296715066
  0.8135964982544083  0.4214919238314774  0.5488015262556134
  0.1984496704712389  0.6482531940209326  0.5015384741568960
  0.8015394698351409  0.3517297622257402  0.5015295911389452
  0.2502866881498496  0.7213509489429665  0.5445910858141189
  0.7496966120010988  0.2786314261795704  0.5445810241221987
  0.3157069965770272  0.7741043723347966  0.5081480341882285
  0.6842733038042187  0.2258848608042920  0.5081396043244242
  0.2670806131140588  0.5898111016662103  0.4490011454810155
  0.7329216958418662  0.4101845450748743  0.4489895042684460
  0.2581969996493446  0.6554873914558355  0.4489790585233170
  0.7417960463036043  0.3444999345885199  0.4489706644180536
  0.3232692225759276  0.7330510949806717  0.4490060875518406
  0.6767186914042954  0.2669411558890927  0.4489959732986831
  0.5736261900577118  0.1012168531163601  0.5608158374935519
  0.8989124767487648  0.4727569193877925  0.5604799153362507
  0.5272948841499748  0.4262541777291384  0.5608017064976144
  0.6064324219126183  0.0650421892241764  0.5199617112413911
  0.9354383550442671  0.5417907649094486  0.5195478868085961
  0.4582368000137881  0.3935794187192490  0.5198811673130381
  0.4972268149987928  0.0369875861513663  0.5751254680225537
  0.9628481948940173  0.4602781317076177  0.5747241192005236
  0.5397346152744331  0.5026801767700935  0.5750698587691725
  0.5027213939316739  0.9630145780103040  0.5751375909590801
  0.0371473487565804  0.5396901374636698  0.5747296021865768
  0.4602928178211931  0.4973463892015031  0.5750764816998383
  0.5736205857385271  0.9820807783503633  0.5369767608320167
  0.0184890893162929  0.5917554487583704  0.5365473099847079
  0.4082447742868298  0.4265019921254491  0.5368980186023564
  0.4263502979367735  0.0179170228710053  0.5369269899589255
  0.9815063685494400  0.4082220776001703  0.5365284349142837
  0.5917751778445949  0.5735208963848173  0.5368874025898199
  0.3935471722546051  0.9349515531288143  0.5199155130331961
  0.0645589478234891  0.4581927030652998  0.5195319394796715
  0.5417786542781828  0.6064396429386602  0.5198742983743698
  0.4263344751816721  0.8987841861188369  0.5608088493297166
  0.1010821313461236  0.5272141123579969  0.5604806915193853
  0.4727267319452872  0.5737684164259603  0.5608067233240183
  0.4337607197836318  0.0588123974877958  0.4738946844431799
  0.9405588767548455  0.3748248368446918  0.4734739388503913
  0.6252100039265556  0.5660490995374964  0.4738439626826323
  0.4201670738865848  0.0015412459757126  0.4193675167505297
  0.9979035387958238  0.4183843057545777  0.4189514909624044
  0.5816522298984077  0.5797494704100079  0.4193106576519674
  0.3992750391518154  0.9248078878962132  0.4468528010084851
  0.0747675867687647  0.4740529962051174  0.4464651486188450
  0.5259422096692611  0.6007623796310645  0.4468100842190742
  0.5036419164328261  0.1281404793814886  0.4600131141476934
  0.8714809500247959  0.3757257384510593  0.4596237645858431
  0.6243387924815363  0.4961040934501069  0.4599654762534504
  0.5467704175956255  0.0995610747676885  0.4182133915660715
  0.9003766461439804  0.4474780726854632  0.4177681326260459
  0.5525589377717905  0.4531008457181844  0.4181097629437244
  0.4897670105968910  0.0309917748700948  0.3812994895876678
  0.9687980980219735  0.4587520356110180  0.3808488733917644
  0.5412652704725189  0.5101862828135713  0.3811950901457220
  0.6007507530952020  0.0751945525195337  0.4468926342240468
  0.9252256002487488  0.5259466730704457  0.4464818042973074
  0.4740606481122770  0.3992437036299938  0.4468143211796026
  0.5798790694784171  0.9984649564061330  0.4194148297114551
  0.0020865639047600  0.5816217025786838  0.4189686912877875
  0.4183454010396567  0.4202517272262785  0.4193192329035002
  0.5102997822725410  0.9690180486132196  0.3813125965743528
  0.0311911821605225  0.5412587859969217  0.3808529563072552
  0.4587272737209995  0.4898107250855944  0.3811991718300605
  0.4532721072216951  0.9004450823290149  0.4182070109826835
  0.0996131784056119  0.5525250590379583  0.4177663906764868
  0.4474400581530938  0.5469013060164003  0.4181123743478278
  0.4963727232540490  0.8718633851483349  0.4600380704271122
  0.1285111452595491  0.6242670978404431  0.4596343137199312
  0.3756670469345937  0.5039034251121951  0.4599733809848153
  0.5662429277240469  0.9411862752568100  0.4739455065336374
  0.0594325763917125  0.6251630154418392  0.4734945999251753
  0.3747998654403455  0.4339617408420657  0.4738588577205290
 
  0.00000000E+00  0.00000000E+00  0.00000000E+00
  0.00000000E+00  0.00000000E+00  0.00000000E+00
  0.00000000E+00  0.00000000E+00  0.00000000E+00
  0.00000000E+00  0.00000000E+00  0.00000000E+00
  0.00000000E+00  0.00000000E+00  0.00000000E+00
  0.00000000E+00  0.00000000E+00  0.00000000E+00
  0.00000000E+00  0.00000000E+00  0.00000000E+00
  0.00000000E+00  0.00000000E+00  0.00000000E+00
  0.00000000E+00  0.00000000E+00  0.00000000E+00
  0.00000000E+00  0.00000000E+00  0.00000000E+00
  0.00000000E+00  0.00000000E+00  0.00000000E+00
  0.00000000E+00  0.00000000E+00  0.00000000E+00
  0.00000000E+00  0.00000000E+00  0.00000000E+00
  0.00000000E+00  0.00000000E+00  0.00000000E+00
  0.00000000E+00  0.00000000E+00  0.00000000E+00
  0.00000000E+00  0.00000000E+00  0.00000000E+00
  0.00000000E+00  0.00000000E+00  0.00000000E+00
  0.00000000E+00  0.00000000E+00  0.00000000E+00
  0.00000000E+00  0.00000000E+00  0.00000000E+00
  0.00000000E+00  0.00000000E+00  0.00000000E+00
  0.00000000E+00  0.00000000E+00  0.00000000E+00
  0.00000000E+00  0.00000000E+00  0.00000000E+00
  0.00000000E+00  0.00000000E+00  0.00000000E+00
  0.00000000E+00  0.00000000E+00  0.00000000E+00
  0.00000000E+00  0.00000000E+00  0.00000000E+00
  0.00000000E+00  0.00000000E+00  0.00000000E+00
  0.00000000E+00  0.00000000E+00  0.00000000E+00
  0.00000000E+00  0.00000000E+00  0.00000000E+00
  0.00000000E+00  0.00000000E+00  0.00000000E+00
  0.00000000E+00  0.00000000E+00  0.00000000E+00
  0.00000000E+00  0.00000000E+00  0.00000000E+00
  0.00000000E+00  0.00000000E+00  0.00000000E+00
  0.00000000E+00  0.00000000E+00  0.00000000E+00
  0.00000000E+00  0.00000000E+00  0.00000000E+00
  0.00000000E+00  0.00000000E+00  0.00000000E+00
  0.00000000E+00  0.00000000E+00  0.00000000E+00
  0.00000000E+00  0.00000000E+00  0.00000000E+00
  0.00000000E+00  0.00000000E+00  0.00000000E+00
  0.00000000E+00  0.00000000E+00  0.00000000E+00
  0.00000000E+00  0.00000000E+00  0.00000000E+00
  0.00000000E+00  0.00000000E+00  0.00000000E+00
  0.00000000E+00  0.00000000E+00  0.00000000E+00
  0.00000000E+00  0.00000000E+00  0.00000000E+00
  0.00000000E+00  0.00000000E+00  0.00000000E+00
  0.00000000E+00  0.00000000E+00  0.00000000E+00
  0.00000000E+00  0.00000000E+00  0.00000000E+00
  0.00000000E+00  0.00000000E+00  0.00000000E+00
  0.00000000E+00  0.00000000E+00  0.00000000E+00
  0.00000000E+00  0.00000000E+00  0.00000000E+00
  0.00000000E+00  0.00000000E+00  0.00000000E+00
  0.00000000E+00  0.00000000E+00  0.00000000E+00
  0.00000000E+00  0.00000000E+00  0.00000000E+00
  0.00000000E+00  0.00000000E+00  0.00000000E+00
  0.00000000E+00  0.00000000E+00  0.00000000E+00
  0.00000000E+00  0.00000000E+00  0.00000000E+00
  0.00000000E+00  0.00000000E+00  0.00000000E+00
  0.00000000E+00  0.00000000E+00  0.00000000E+00
  0.00000000E+00  0.00000000E+00  0.00000000E+00
  0.00000000E+00  0.00000000E+00  0.00000000E+00
  0.00000000E+00  0.00000000E+00  0.00000000E+00
  0.00000000E+00  0.00000000E+00  0.00000000E+00
  0.00000000E+00  0.00000000E+00  0.00000000E+00
  0.00000000E+00  0.00000000E+00  0.00000000E+00
  0.00000000E+00  0.00000000E+00  0.00000000E+00
  0.00000000E+00  0.00000000E+00  0.00000000E+00
  0.00000000E+00  0.00000000E+00  0.00000000E+00
  0.00000000E+00  0.00000000E+00  0.00000000E+00
  0.00000000E+00  0.00000000E+00  0.00000000E+00
  0.00000000E+00  0.00000000E+00  0.00000000E+00
  0.00000000E+00  0.00000000E+00  0.00000000E+00
  0.00000000E+00  0.00000000E+00  0.00000000E+00
  0.00000000E+00  0.00000000E+00  0.00000000E+00
  0.00000000E+00  0.00000000E+00  0.00000000E+00
  0.00000000E+00  0.00000000E+00  0.00000000E+00
  0.00000000E+00  0.00000000E+00  0.00000000E+00
  0.00000000E+00  0.00000000E+00  0.00000000E+00
  0.00000000E+00  0.00000000E+00  0.00000000E+00
  0.00000000E+00  0.00000000E+00  0.00000000E+00
  0.00000000E+00  0.00000000E+00  0.00000000E+00
  0.00000000E+00  0.00000000E+00  0.00000000E+00
  0.00000000E+00  0.00000000E+00  0.00000000E+00
  0.00000000E+00  0.00000000E+00  0.00000000E+00
  0.00000000E+00  0.00000000E+00  0.00000000E+00
  0.00000000E+00  0.00000000E+00  0.00000000E+00
  0.00000000E+00  0.00000000E+00  0.00000000E+00
  0.00000000E+00  0.00000000E+00  0.00000000E+00
  0.00000000E+00  0.00000000E+00  0.00000000E+00
  0.00000000E+00  0.00000000E+00  0.00000000E+00
  0.00000000E+00  0.00000000E+00  0.00000000E+00
  0.00000000E+00  0.00000000E+00  0.00000000E+00
  0.00000000E+00  0.00000000E+00  0.00000000E+00
  0.00000000E+00  0.00000000E+00  0.00000000E+00
  0.00000000E+00  0.00000000E+00  0.00000000E+00
  0.00000000E+00  0.00000000E+00  0.00000000E+00
  0.00000000E+00  0.00000000E+00  0.00000000E+00
  0.00000000E+00  0.00000000E+00  0.00000000E+00
  0.00000000E+00  0.00000000E+00  0.00000000E+00
  0.00000000E+00  0.00000000E+00  0.00000000E+00
  0.00000000E+00  0.00000000E+00  0.00000000E+00
  0.00000000E+00  0.00000000E+00  0.00000000E+00
  0.00000000E+00  0.00000000E+00  0.00000000E+00
  0.00000000E+00  0.00000000E+00  0.00000000E+00
  0.00000000E+00  0.00000000E+00  0.00000000E+00
  0.00000000E+00  0.00000000E+00  0.00000000E+00
  0.00000000E+00  0.00000000E+00  0.00000000E+00
  0.00000000E+00  0.00000000E+00  0.00000000E+00
  0.00000000E+00  0.00000000E+00  0.00000000E+00
  0.00000000E+00  0.00000000E+00  0.00000000E+00
