Generated by VASPKIT code               
   1.00000000000000     
    11.8570561377244825   -0.0000817634677216    0.0000000000000000
    -0.0000817235455001   11.8570186507561299    0.0000000000000000
     0.0000000000000013    0.0000000000000013   19.7146262053772787
   C 
    64
Direct
  0.7013751949879818  0.5466651866863472  0.5266077367722914
  0.7009244877162146  0.4500808856353231  0.4734468182656215
  0.6443779894222601  0.6421309366006724  0.4837207265791150
  0.6118977334337288  0.4697768729770431  0.4228937475043608
  0.5885066018604022  0.5870381997427927  0.4279108165095735
  0.5499231849554747  0.7009175324906849  0.5265519622716894
  0.4533365720700431  0.7013768853108502  0.4733914294468917
  0.4715938681349741  0.6121959564306110  0.4228649934147484
  0.5302263187822618  0.6118981827640155  0.5771059819372795
  0.6121828271643039  0.5284092069218218  0.5771362743572084
  0.5870373863658429  0.4114856785124275  0.5720946277412438
  0.4129549560853292  0.5885145568888177  0.5720924284679043
  0.3878061949298441  0.4715861097822724  0.5771295836707679
  0.4697651443279796  0.3881001869310481  0.5770963381590946
  0.3578697941783062  0.6443791962292309  0.5162787716287554
  0.5466564704478998  0.2986133157551905  0.4733858460439819
  0.6421196226980186  0.3556252160217213  0.5162753844578347
  0.4500706968168871  0.2990687384049764  0.5265466116289090
  0.3556213920580547  0.3578761677799562  0.4837165408046573
  0.2986129368300681  0.4533395502547677  0.5266066815331882
  0.2990768876839454  0.5499270908061291  0.4734449608041658
  0.5283995941404385  0.3878105161598668  0.4228630254321715
  0.4114780262680284  0.4129585551888155  0.4278929697260452
  0.3880954731955129  0.5302235771075061  0.4228960452637409
  0.5113954651487518  0.1747964056137334  0.4593523643765565
  0.8251721418237992  0.4854232980737123  0.4595364899898158
  0.6023106495130506  0.0956838552250900  0.4407805835450773
  0.8931761467514931  0.5943432001594289  0.4403033882579095
  0.4854181186476012  0.1748255025623919  0.5404609796767872
  0.8251988378431818  0.5113926837460667  0.5406432679135165
  0.5943386815859100  0.1068356270955846  0.5596979769964250
  0.9043209987183758  0.6023020079411481  0.5592200360355974
  0.6560748628449744  0.0639642640448557  0.5002801829858328
  0.9360461948045540  0.6560740100767433  0.4997260250114053
  0.3959066636808046  0.0940590585334604  0.5589590198891088
  0.8947983076462975  0.4037572567728986  0.5599806374286800
  0.4398945045130347  0.9944785581163629  0.5928199532802267
  0.9954618224510341  0.4398084582262314  0.5931303233091185
  0.5600999335400587  0.0055278528060043  0.5928238083699924
  0.0045479235686869  0.5601792939387593  0.5931337802858252
  0.3427881130278934  0.0613283281461747  0.4994266034682298
  0.9386688801017939  0.3427900978913669  0.5005601102921204
  0.3439286832132922  0.9360371898452371  0.5002730550517143
  0.0639605160012877  0.3439256688250154  0.4997145282944544
  0.4056589588636044  0.8931722571321643  0.5596943032202049
  0.0956864590475703  0.3976909112369711  0.5592144520165405
  0.4037658387485479  0.1051997039177124  0.4400114537611444
  0.9059384225112623  0.3959120291820284  0.4410318207293713
  0.4398230642341048  0.0045382619804712  0.4068629866419471
  0.0055250285513040  0.4399032387753863  0.4071729374625974
  0.3977009281388462  0.9043124664566875  0.4407769832940929
  0.1068310301786397  0.4056625606256645  0.4402965389225244
  0.5601919925920527  0.9954537903069323  0.4068661661967212
  0.9944783036328531  0.5601088946895132  0.4071763831834616
  0.5962464791552406  0.8947926359586305  0.4400166948154833
  0.0940638300108319  0.6040950364011479  0.4410366000306141
  0.4886127976044108  0.8251993064791279  0.4593560845693077
  0.1748250369606836  0.5145835944990367  0.4595338887474938
  0.5145818957130643  0.8251724510643754  0.5404633171622777
  0.1747977045374540  0.4886076114694902  0.5406425005608071
  0.6040933646236866  0.9059432360279303  0.5589666067347565
  0.1052102543439091  0.5962358745253482  0.5599841866952886
  0.6572138995801353  0.9386704328408797  0.4994363453290376
  0.0613379109921368  0.6572147874073551  0.5005707181878449
 
  0.00000000E+00  0.00000000E+00  0.00000000E+00
  0.00000000E+00  0.00000000E+00  0.00000000E+00
  0.00000000E+00  0.00000000E+00  0.00000000E+00
  0.00000000E+00  0.00000000E+00  0.00000000E+00
  0.00000000E+00  0.00000000E+00  0.00000000E+00
  0.00000000E+00  0.00000000E+00  0.00000000E+00
  0.00000000E+00  0.00000000E+00  0.00000000E+00
  0.00000000E+00  0.00000000E+00  0.00000000E+00
  0.00000000E+00  0.00000000E+00  0.00000000E+00
  0.00000000E+00  0.00000000E+00  0.00000000E+00
  0.00000000E+00  0.00000000E+00  0.00000000E+00
  0.00000000E+00  0.00000000E+00  0.00000000E+00
  0.00000000E+00  0.00000000E+00  0.00000000E+00
  0.00000000E+00  0.00000000E+00  0.00000000E+00
  0.00000000E+00  0.00000000E+00  0.00000000E+00
  0.00000000E+00  0.00000000E+00  0.00000000E+00
  0.00000000E+00  0.00000000E+00  0.00000000E+00
  0.00000000E+00  0.00000000E+00  0.00000000E+00
  0.00000000E+00  0.00000000E+00  0.00000000E+00
  0.00000000E+00  0.00000000E+00  0.00000000E+00
  0.00000000E+00  0.00000000E+00  0.00000000E+00
  0.00000000E+00  0.00000000E+00  0.00000000E+00
  0.00000000E+00  0.00000000E+00  0.00000000E+00
  0.00000000E+00  0.00000000E+00  0.00000000E+00
  0.00000000E+00  0.00000000E+00  0.00000000E+00
  0.00000000E+00  0.00000000E+00  0.00000000E+00
  0.00000000E+00  0.00000000E+00  0.00000000E+00
  0.00000000E+00  0.00000000E+00  0.00000000E+00
  0.00000000E+00  0.00000000E+00  0.00000000E+00
  0.00000000E+00  0.00000000E+00  0.00000000E+00
  0.00000000E+00  0.00000000E+00  0.00000000E+00
  0.00000000E+00  0.00000000E+00  0.00000000E+00
  0.00000000E+00  0.00000000E+00  0.00000000E+00
  0.00000000E+00  0.00000000E+00  0.00000000E+00
  0.00000000E+00  0.00000000E+00  0.00000000E+00
  0.00000000E+00  0.00000000E+00  0.00000000E+00
  0.00000000E+00  0.00000000E+00  0.00000000E+00
  0.00000000E+00  0.00000000E+00  0.00000000E+00
  0.00000000E+00  0.00000000E+00  0.00000000E+00
  0.00000000E+00  0.00000000E+00  0.00000000E+00
  0.00000000E+00  0.00000000E+00  0.00000000E+00
  0.00000000E+00  0.00000000E+00  0.00000000E+00
  0.00000000E+00  0.00000000E+00  0.00000000E+00
  0.00000000E+00  0.00000000E+00  0.00000000E+00
  0.00000000E+00  0.00000000E+00  0.00000000E+00
  0.00000000E+00  0.00000000E+00  0.00000000E+00
  0.00000000E+00  0.00000000E+00  0.00000000E+00
  0.00000000E+00  0.00000000E+00  0.00000000E+00
  0.00000000E+00  0.00000000E+00  0.00000000E+00
  0.00000000E+00  0.00000000E+00  0.00000000E+00
  0.00000000E+00  0.00000000E+00  0.00000000E+00
  0.00000000E+00  0.00000000E+00  0.00000000E+00
  0.00000000E+00  0.00000000E+00  0.00000000E+00
  0.00000000E+00  0.00000000E+00  0.00000000E+00
  0.00000000E+00  0.00000000E+00  0.00000000E+00
  0.00000000E+00  0.00000000E+00  0.00000000E+00
  0.00000000E+00  0.00000000E+00  0.00000000E+00
  0.00000000E+00  0.00000000E+00  0.00000000E+00
  0.00000000E+00  0.00000000E+00  0.00000000E+00
  0.00000000E+00  0.00000000E+00  0.00000000E+00
  0.00000000E+00  0.00000000E+00  0.00000000E+00
  0.00000000E+00  0.00000000E+00  0.00000000E+00
  0.00000000E+00  0.00000000E+00  0.00000000E+00
  0.00000000E+00  0.00000000E+00  0.00000000E+00
