C 
 1.0000000000000000
     9.5301911768634291    0.0000000000000000    0.0000000000000000
     0.0000000000000000    9.5301911768634309    0.0000000000000000
     0.0000000000000000    0.0000000000000000   16.0000000000000000
 C  
  84
Direct
  0.7281093682389336  0.5440909702182626  0.4445359703528254
  0.7444235123481349  0.4516379270378855  0.5145067502483204
  0.6473446668522480  0.4787252541868248  0.3798487122718565
  0.6458805956392386  0.3335700180851630  0.4999068533137075
  0.5864717280291099  0.3501530930505509  0.4177758468205698
  0.5304707100413659  0.5649960026214307  0.3571063051013991
  0.4016960027137303  0.4879105540458099  0.3630506815200034
  0.4364855843066382  0.3557073614203415  0.4073766354397065
  0.5219939042335588  0.6766163257088794  0.4215739451244771
  0.6428940682216981  0.6638124771722181  0.4750375401369220
  0.6250597503811761  0.6479425552540270  0.5639284876745668
  0.3831298347708669  0.6736001466878329  0.4569707921030223
  0.3652893207592098  0.6577780349258321  0.5458269036818550
  0.4861967444784032  0.6449428736754671  0.5993019556472989
  0.3028499239652067  0.5600853883350861  0.4149707850195405
  0.5963107012483789  0.4338032333602135  0.6317889376380647
  0.6991875997614281  0.5180806978815319  0.5900904703280934
  0.4715341075890919  0.5132043127608586  0.6479552733400907
  0.3506868974828090  0.4430977321569943  0.6150162261020363
  0.2739122494867894  0.5342045961605140  0.5604920585801304
  0.2535027214050089  0.4701659407676215  0.4803455107609864
  0.5553110839459612  0.3226512714506730  0.5716564040499685
  0.4053238003209985  0.3283467737261686  0.5613054577794310
  0.3459351237800153  0.3448764593098151  0.4791489820901951
  0.2194592861154857 -0.2026688811522653  0.5142439906786156
  0.1413400098904497 -0.0717361168933194  0.5136988726127046
  0.2046519436110845 -0.2655367160730037  0.4332056171554151
  0.1174140900523380 -0.1731120601461260  0.3830222308174682
  0.0809940018797920 -0.0474761493445029  0.4308784513709417
  0.1373847721332595 -0.4027604197593404  0.4417464352912965
  0.0019984237599635 -0.3869351185228087  0.3997377662223376
 -0.0082565637465177 -0.2484014751551554  0.3622576816732008
  0.1024150693534356 -0.4131113796337550  0.5301497369721458
 -0.0485255355341746 -0.4235560287846781  0.5428375719812494
 -0.1088459989792625 -0.3993348541372075  0.4600177092505112
  0.1622479840552802 -0.2973117797573380  0.5776394276039271
  0.0407403813593997 -0.2226709831435011  0.6114608727820678
 -0.0849521718199831 -0.2979458700802485  0.5907088962756530
  0.0305147368079548 -0.0841569846638954  0.5739886105002482
 -0.1048717536406587 -0.0683254566450410  0.5319878359119445
 -0.1721673479515307 -0.2055336441126299  0.5405134496550579
 -0.1869675870870122 -0.2684068495399607  0.4594698341005844
 -0.1297595959879913 -0.1737408642374490  0.3960721600095503
 -0.0699445413852488 -0.0579333142284491  0.4435764669544719
  0.5816297593429171 -0.1877054231434646  0.5295266997580522
  0.6244752915563261 -0.0742602944295916  0.5845749972844142
  0.6492481462056486 -0.1662759227686965  0.4503928996098808
  0.7334952269216073 -0.0396593399990708  0.4569656757406165
  0.7246704345677372  0.0171471214385909  0.5417497588735020
  0.5427396824095450 -0.1492523916545418  0.3853429914183615
  0.5594455582560380 -0.0044266262031077  0.3567746655974945
  0.6778159871170768  0.0607087950643700  0.3989011111557119
  0.4098585999031347 -0.1496375801700913  0.4303142641561539
  0.3359751767128252 -0.0168722543624405  0.4207004943038201
  0.4361579307161878  0.0744991869884283  0.3778593775051322
  0.4293754613754862 -0.1852099550763199  0.5180570202404479
  0.3828103770877953 -0.0604615539137692  0.5635329108412772
  0.3271148544497416  0.0399272250687398  0.5054809096589425
  0.5011703205709230  0.0046378726573798  0.6056571409223278
  0.5178691192301624  0.1494630548377205  0.5770964436893183
  0.4113789210391349  0.1665229206101508  0.5120424798488985
  0.4790037625772708  0.1879459110321288  0.4329036006788335
  0.6312720027937521  0.1854614411532999  0.4443825598789825
  0.6507678356689560  0.1499032276093344  0.5321363248163437
  0.1381396646833763  0.4216521761942981  0.5561165433644890
  0.0236294691426044  0.4065969666648485  0.6154044255571673
  0.0776147241899587  0.4398302912449314  0.4746896595223354
 -0.0739956124206792  0.4358691668677815  0.4841021051940605
 -0.1110568419990390  0.4210855554089075  0.5723970649649032
  0.1239419725504112  0.3258582623762209  0.4200175010322695
 -0.0040162206861186  0.2471482487523610  0.4013194444100018
 -0.1246241441254850  0.3163862662777917  0.4385933662356445
  0.2045281827787550  0.2334007957746696  0.4743330371257330
  0.1405359326014650  0.0950123943770677  0.4802758137064564
  0.0058852940383297  0.1095071784265308  0.4372511142609005
  0.2254401932535002  0.2954126076641366  0.5565730131507621
  0.1541361986752678  0.1997074869962176  0.6140629629616616
  0.1035011390695157  0.0802033971569702  0.5685693465309787
  0.0335634191445469  0.2689572650249268  0.6513328453186198
 -0.0943898065519014  0.1902441977562833  0.6326427901260181
 -0.0481028304986493  0.0762645640361754  0.5779679342011358
 -0.1086265382189716  0.0944500835955739  0.4965350819013009
 -0.1959437747553648  0.2206971627552260  0.4960874968805767
 -0.1750303264351091  0.2826872835834332  0.5783409477211252
