C 
 1.0000000000000000
     9.9489255953961244    0.0000000000000000    0.0000000000000000
     0.0000000000000000    9.9489255953961226    0.0000000000000000
     0.0000000000000000    0.0000000000000000   16.0000000000000000
 C  
  88
Direct
  0.0139640510506504  0.0253641728312408  0.6479661076660123
 -0.1242380854079841  0.0417601898156614  0.6248560541244289
  0.0600917108615368 -0.1072759634042524  0.6282314907059988
 -0.1586406870927919 -0.0771478352049024  0.5730910411982850
 -0.0461094474430774 -0.1680543823961115  0.5750445066098553
  0.1782063876782408 -0.1015640201699173  0.5772689060982730
  0.1604330354050373 -0.1781658162432126  0.5021958989017230
  0.0152631483913329 -0.2115267751921846  0.4981471474127134
  0.1917174000733164  0.0405393302314400  0.5503689676277475
  0.0912551365775261  0.1181531550034952  0.5936233526075670
 -0.0033116640094837  0.1981735193745679  0.5470369812465238
  0.1977181152445178  0.0429157044392725  0.4604722062173673
  0.1032207229232444  0.1229295699570587  0.4138984498349089
  0.0027234198243226  0.2005362813220719  0.4571509524597011
  0.1882228041366855 -0.0978137422352913  0.4299787705008262
 -0.2077433499936254  0.1194442798990096  0.4959315473411900
 -0.1409890355347733  0.1564449583140532  0.5718348018625393
 -0.1309394520528296  0.1602107816301869  0.4245280372703011
 -0.1073612579745003  0.0486610790123301  0.3699030525630095
  0.0333959406206115  0.0333149775860260  0.3538571194266434
  0.0770014345221327 -0.1004268639310894  0.3732258480141792
 -0.2097449978252312 -0.0296186476917025  0.4942411641920525
 -0.1483248184849266 -0.0729445279363042  0.4173285826386537
 -0.0358105114899292 -0.1639094250114458  0.4193014730603697
  0.2340571788944708  0.2033620863542847  0.5795417460447887
  0.2958071019743281  0.2729551363848610  0.6479228546618765
  0.1388018177656444  0.2879596690402351  0.5378384149888107
  0.2572068612976475  0.4162289994463825  0.6383763291634258
  0.1615190689569697  0.4254608226556451  0.5711296870359596
  0.1677812668614206  0.2952056315542274  0.4503232401599361
  0.1811080716648958  0.4322380589426745  0.4239069912384654
  0.1871270549706263  0.5135635319225434  0.5015199337506211
  0.3024255791057214  0.2335348597518830  0.4392866113735312
  0.3429350669117521  0.1773594957023124  0.5183291166412354
  0.4682785027886307  0.2174249477278848  0.5558600218484591
  0.3872674484621275  0.3298153456501802  0.3976905190525548
  0.5125802974650621  0.3698436691859292  0.4351876099917512
  0.5530928261122514  0.3136883715564195  0.5142485152097399
  0.3066399361015471  0.4529702310876556  0.3820593186005435
  0.4942035075664106  0.4017801016054645  0.6439871591595564
  0.4392201077675897  0.2688080936345765  0.6411228794227040
  0.5781000848293859  0.4265688369785846  0.5728341789660542
  0.5365792506878693  0.5459699046829738  0.5300419638429181
  0.5118068236370763  0.5183271976721135  0.4435766533682722
  0.3795759077595783  0.5610516872791922  0.4199137318303179
  0.3785660494680869  0.4950199195635904  0.6359885772783102
  0.4042945267567867  0.5830320087393351  0.5663539572815830
  0.3085458429362334  0.5922842626061190  0.4991217934051378
  0.4603878134924377 -0.1839645803145587  0.5856653222980600
  0.5113916734105817 -0.0478669096964828  0.5946161744917894
  0.5629279141424198 -0.2624473315099636  0.5456613753094688
  0.6767450185234616 -0.1743945323147940  0.5300856933654698
  0.6494085670566857 -0.0402279427724260  0.5634330129794077
  0.5112946715168638 -0.3154551298516438  0.4666563721677080
  0.5921496174605581 -0.2491159566258878  0.4024123975266619
  0.6948792453812598 -0.1661378534319521  0.4412494298400199
  0.3782692586220954 -0.2558162937445481  0.4583004824101225
  0.3697390033501282 -0.1699662890918619  0.3847821615148439
  0.5077399668541621 -0.1623688088532711  0.3535975385843800
  0.3393509173031751 -0.1838484140814645  0.5337634870154856
  0.3242498853646746 -0.0440920234266950  0.5069591930793486
  0.3423720088944745 -0.0358059701287175  0.4181193458879082
  0.4269585968310163  0.0388596716081428  0.5458042739324782
  0.5078037338777605  0.1052074694358441  0.4815634812702397
  0.4562010629302311  0.0522187493438730  0.4025484231209374
  0.5587466228492129 -0.0262746074813921  0.3625452509028764
  0.6797947620456549 -0.0263739030502249  0.4144533369142065
  0.6408587140416899  0.0456175167135265  0.4899126330302565
 -0.0630350862637443  0.5944359784757105  0.5809928349152315
 -0.1684733233102395  0.6810611952190804  0.5486227797713130
  0.0332122310946027  0.5745015869628891  0.5153278415182772
 -0.0133026367606192  0.6489007005301174  0.4427167069227428
 -0.1369479734069399  0.7215527928980769  0.4629383325058053
  0.0418746789754961  0.4311895955772642  0.4956064357652706
 -0.0097905523033078  0.4205038261952289  0.4102814698371302
 -0.0399567357719892  0.5534015230692160  0.3775671723615305
 -0.0612304661983391  0.3687818617815004  0.5472866231763710
 -0.1642531377303036  0.3044944351331086  0.4964824868429489
 -0.1326954181204314  0.3449609620529446  0.4108088829046115
 -0.1195125742100768  0.4646502569851742  0.6057328134359103
 -0.2612197038804379  0.4726150927415109  0.5818618917662302
 -0.2879060734350204  0.3771151826274255  0.5167128537625512
 -0.2913664323948757  0.6055018604363809  0.5491652309360542
 -0.3430420842022795  0.5948176028151761  0.4638460284712110
 -0.3343895831878152  0.4515168317664436  0.4441019011124924
 -0.2381303877779803  0.4315826702838574  0.3784358870241612
 -0.1816628159680435  0.5613881050161963  0.3536927910322142
 -0.2399737754005261  0.6572504919910718  0.4121426457168924
