Generated by VASPKIT code               
   1.00000000000000     
    18.4515556087279542   -0.1876681050176612    0.0000000000000000
    -9.3950449207136160   15.3321089953017466    0.0000000000000000
     0.0000000000000012    0.0000000000000020   19.7119397443892694
   C 
   168
Direct
  0.5041878037613401  0.8096894033315465  0.4346782545382553
  0.4958142092662214  0.1902986203098180  0.4346693596133164
  0.4411544993054264  0.7280651520734622  0.3918659281600156
  0.5588468856537432  0.2719115200742905  0.3918458225668999
  0.5001549098584448  0.7637610946988715  0.5000217781515701
  0.4998451839348945  0.2362399458017208  0.5000062991433225
  0.4091871546173209  0.6465263910280612  0.4344360114618482
  0.5908164651243837  0.3534598822643034  0.4344077267559641
  0.4504349389284457  0.6735996423111175  0.5000440005082467
  0.5495676081437395  0.3264030760326406  0.5000164150579494
  0.5042091167774458  0.8097299411533925  0.5653544457361832
  0.4957942945227245  0.1902835084063241  0.5653479526939051
  0.4412144415182198  0.7281691407993449  0.6081885410331722
  0.5587895458166443  0.2718566789463779  0.6081724959376444
  0.4092204295064974  0.6465861639741490  0.5656614395660071
  0.5907796490868407  0.3534279965183345  0.5656329376994265
  0.4410557516277507  0.8352811798328901  0.5365706437946400
  0.5589438620726668  0.1647256113569711  0.5365724689129934
  0.4410477972954823  0.8352513484378505  0.4634368318330644
  0.5589531165579871  0.1647424005186338  0.4634395266725662
  0.3637076813956313  0.7936103334547084  0.4269752959317046
  0.6362929280742549  0.2063755687627093  0.4269763459327365
  0.3637483867440920  0.7936941436106366  0.5730694620531409
  0.6362530086804270  0.2063215786458841  0.5730708690582063
  0.2852117151020082  0.7484543992027639  0.5361853707271749
  0.7147892279227079  0.2515510187992405  0.5361846123750027
  0.2851954834680299  0.7484211946320585  0.4638943248335252
  0.7148069866772744  0.2515707105150753  0.4638981173873091
  0.3657194889308926  0.7271840099629756  0.6189465190153527
  0.6342851473798348  0.2728421454095411  0.6189341786963496
  0.2895745371118039  0.6425370217209903  0.3948533147087048
  0.7104263189893913  0.3574411432052429  0.3948376814326622
  0.3656450393310493  0.7270583223723079  0.3811283065529167
  0.6343530100543049  0.2729147681149584  0.3811193114522808
  0.2392529004418904  0.6551903226907427  0.4410961018764326
  0.7607448382819086  0.3447969043149826  0.4410847007463374
  0.2168879243561221  0.6001286976847737  0.5000783276200806
  0.7831133940023491  0.3998719914843392  0.5000598261004185
  0.2392850037657368  0.6552475465275407  0.5590314645252619
  0.7607142033644010  0.3447625196297537  0.5590197574424494
  0.2896456846775166  0.6426395891303400  0.6052745819949621
  0.7103577702998365  0.3573825256653222  0.6052572563158307
  0.3191099107913473  0.5917366772118910  0.4347064299717260
  0.6808951186178689  0.4082518146911767  0.4346779459345882
  0.2754009671731126  0.5692491399965576  0.5000875996828071
  0.7246000922564804  0.4307516934690696  0.5000580185811785
  0.3191456408321613  0.5918005012804812  0.5654475507002630
  0.6808609361854039  0.4082146476827688  0.5654154253631987
  0.7649191825593888  0.7469957862265559  0.4022832210106415
  0.2435266602923676  0.0180442532968783  0.4015311820357610
  0.9932708364059621  0.2359340396041532  0.4017756992534558
  0.2350727672962947  0.2529879017018359  0.4022638831022434
  0.7564706650335253  0.9819424252394526  0.4015241038214299
  0.0067178760884161  0.7640453275825720  0.4018022497172780
  0.6872730855672557  0.6636828322320980  0.4072313244245862
  0.3226494012539547  0.0237825808624166  0.4031924363134465
  0.9907381722936321  0.3133255263112460  0.4074377212872591
  0.3127236699723071  0.3363026944570322  0.4072102543049496
  0.6773484084367993  0.9762045349327551  0.4031837633364361
  0.0092582854615628  0.6866612716878535  0.4074706120035785
  0.7528947789774421  0.8138940931333067  0.4359774703868453
  0.1743263897634719  0.9342230414648185  0.4355206759187240
  0.0724575116279951  0.2521855758770855  0.4359916090764884
  0.2471044620236853  0.1860979762262787  0.4359691175045839
  0.8256708183387076  0.0657666969245199  0.4355075461639686
  0.9275411360501451  0.7478029733692040  0.4360170997557589
  0.6579326619769077  0.7632084455507595  0.4604436982916766
  0.2219981090849785  0.8891368858455309  0.4600551728692253
  0.1209672043569583  0.3498851632139903  0.4604683899898845
  0.3420658043636777  0.2367881859467218  0.4604307690504044
  0.7779999430063498  0.1108591708756848  0.4600337816401918
  0.8790291440680349  0.6501042031364079  0.4605022029728616
  0.6196091592869166  0.6691556313457667  0.4398943820719055
  0.3131543848196259  0.9469159213870810  0.4374830541096273
  0.0668056376801189  0.3855837983495363  0.4398821118600722
  0.3803870481516540  0.3308373899258967  0.4398756320387207
  0.6868461140920274  0.0530733170307656  0.4374651214806775
  0.9331939787272177  0.6144056227800547  0.4399185472427405
  0.8131191607764165  0.8499183977701037  0.5000640310665858
  0.1420800174779515  0.9607622180069058  0.5000765115426304
  0.0452318924461252  0.1902882923775238  0.5000617249537598
  0.1868793636996742  0.1500812719725531  0.5000573964007486
  0.8579222590767230  0.0392376199995326  0.5000679206935104
  0.9547637928246786  0.8097071811990446  0.5000804960695930
  0.7528087625434310  0.8138109465914027  0.5640996311155888
  0.1743549178961246  0.9342347490340259  0.5645984853224775
  0.0724906406387689  0.2522598474386442  0.5640967425312127
  0.2471933402296713  0.1861958898627378  0.5640888994543118
  0.8256459638730007  0.0657760922172486  0.5645846988383312
  0.9275065059902587  0.7477468311636954  0.5641225821451670
  0.6578858489296238  0.7631595427662035  0.5395580274057465
  0.2220132646102400  0.8891411033622205  0.5400448810669971
  0.1210069671915122  0.3499434801963375  0.5395636376586452
  0.3421142383731706  0.2368505309544844  0.5395437043854798
  0.7779894148143001  0.1108669073613129  0.5400239284262511
  0.8789930496756995  0.6500643689403915  0.5395978004769972
  0.8650390180690906  0.8036774786617897  0.5000735152565952
  0.1897271584790943  0.0625018907514772  0.5000712745730596
  0.9453799186485838  0.1332903620103494  0.5000587450962115
  0.1349583605443669  0.1963170929634259  0.5000587076715277
  0.8102768825895694  0.9375005375779679  0.5000728487286210
  0.0546194358806744  0.8667092204639673  0.5000773304827035
  0.8341237753104735  0.7415346763828694  0.5640370307595077
  0.2503908477451375  0.0948544785773251  0.5641613290771872
  0.9147381771403147  0.1615195938321179  0.5645119581767517
  0.1658739342089675  0.2584715680250866  0.5640172690734389
  0.7496119944599613  0.9051534564052446  0.5641631029681946
  0.0852632350316611  0.8384910370711793  0.5645343817316046
  0.7647549795149047  0.7468453424335451  0.5977603559210110
  0.2435831744319117  0.0180834543236585  0.5985556704728054
  0.9932859462816808  0.2360150845560085  0.5982897336236448
  0.2352445904131883  0.2531652335673442  0.5977423071099537
  0.7564243377104063  0.9819329003897366  0.5985509301830518
  0.0067141532020045  0.7639995897223244  0.5983170701422793
  0.8342208526207386  0.7416247668430316  0.4360706024235625
  0.2503414204406909  0.0948033075880303  0.4359408180456299
  0.9147355888078224  0.1614796497355044  0.4355779457097171
  0.1657741211762342  0.2583647890281995  0.4360516955999216
  0.7496567683894355  0.9051865205087353  0.4359432720486680
  0.0852594460950797  0.8385111407206125  0.4355999200266396
  0.7911444003005030  0.6440411662776668  0.4604771661318168
  0.3439222965243474  0.1508441570665084  0.4603874296228696
  0.8629699814416512  0.2027765897431735  0.4604759365244249
  0.2088491356236446  0.3559500491028658  0.4604520479137832
  0.6560790084539363  0.8491520734954676  0.4603925419066286
  0.1370279641971734  0.7972207402715696  0.4605055194480556
  0.7910915471205300  0.6439887956040735  0.5395545987063599
  0.3439519737120804  0.1508821103725921  0.5396622589259934
  0.8629714350790252  0.2027993614150958  0.5395676820173421
  0.2089071744776021  0.3560129120881683  0.5395274602884612
  0.6560502340780587  0.8491230308089115  0.5396667207551289
  0.1370300263238420  0.7972096899198533  0.5395956156209749
  0.6987591500210186  0.5979877772485125  0.4398309018721065
  0.3969226276178830  0.1125972716338666  0.4357169957371738
  0.9132384885398821  0.2978065123737466  0.4399209505320130
  0.3012363396083444  0.4020029458476415  0.4398018634810725
  0.6030769678302477  0.8873943633346286  0.4357172810327654
  0.0867648126811105  0.7021895998794605  0.4399559397735686
  0.6476704697128852  0.5733381719576300  0.4999242562193160
  0.4023621060824070  0.0703942695308655  0.5000114062098291
  0.9414906301709536  0.3504097150728427  0.4999903878543890
  0.3523244494777487  0.4266598853799195  0.4998955707696950
  0.5976402721712546  0.9296073881444471  0.5000074151187945
  0.0585113310235883  0.6495940703787326  0.5000282322097078
  0.6986516299549592  0.5978934843733583  0.5600732659886134
  0.3969450828958969  0.1126210349368222  0.5643113022950246
  0.9132404244618115  0.2978450018509591  0.5600730998724970
  0.3013460967690733  0.4021121504522611  0.5600460486335805
  0.6030600157055588  0.8873904140365738  0.5643124814188312
  0.0867613920765038  0.7021670618992459  0.5601080593064012
  0.6871179497884512  0.6635339126390463  0.5926980508907391
  0.3226959943797496  0.0238206164499246  0.5968680266700659
  0.9907500849494468  0.3133976652232917  0.5925740789561758
  0.3128828935598094  0.3364752166451055  0.5926778636565970
  0.6773116398410579  0.9761959881802511  0.5968619679584037
  0.0092525313821525  0.6866185498127777  0.5926071937658293
  0.6195098393214593  0.6690613132215830  0.5600075021959867
  0.3131760028144868  0.9469386479486985  0.5625799148007289
  0.0668299330705437  0.3856456086412976  0.5601219453375990
  0.3804879048426670  0.3309452952435947  0.5599864751671362
  0.6868283056072428  0.0530702647463173  0.5625653254958038
  0.9331708855128724  0.6143613452820205  0.5601618738821372
  0.5985583750819643  0.6169220363462742  0.4999232081141400
  0.3611368009932860  0.9803031488883107  0.5000284312171175
  0.0362235663935166  0.4046164579790670  0.4999900130916828
  0.4014369184119531  0.3830765521436703  0.4999019688957134
  0.6388631085443137  0.0196977991750700  0.5000140764786920
  0.9637779777707038  0.5953864493251899  0.5000312901303587
 
  0.00000000E+00  0.00000000E+00  0.00000000E+00
  0.00000000E+00  0.00000000E+00  0.00000000E+00
  0.00000000E+00  0.00000000E+00  0.00000000E+00
  0.00000000E+00  0.00000000E+00  0.00000000E+00
  0.00000000E+00  0.00000000E+00  0.00000000E+00
  0.00000000E+00  0.00000000E+00  0.00000000E+00
  0.00000000E+00  0.00000000E+00  0.00000000E+00
  0.00000000E+00  0.00000000E+00  0.00000000E+00
  0.00000000E+00  0.00000000E+00  0.00000000E+00
  0.00000000E+00  0.00000000E+00  0.00000000E+00
  0.00000000E+00  0.00000000E+00  0.00000000E+00
  0.00000000E+00  0.00000000E+00  0.00000000E+00
  0.00000000E+00  0.00000000E+00  0.00000000E+00
  0.00000000E+00  0.00000000E+00  0.00000000E+00
  0.00000000E+00  0.00000000E+00  0.00000000E+00
  0.00000000E+00  0.00000000E+00  0.00000000E+00
  0.00000000E+00  0.00000000E+00  0.00000000E+00
  0.00000000E+00  0.00000000E+00  0.00000000E+00
  0.00000000E+00  0.00000000E+00  0.00000000E+00
  0.00000000E+00  0.00000000E+00  0.00000000E+00
  0.00000000E+00  0.00000000E+00  0.00000000E+00
  0.00000000E+00  0.00000000E+00  0.00000000E+00
  0.00000000E+00  0.00000000E+00  0.00000000E+00
  0.00000000E+00  0.00000000E+00  0.00000000E+00
  0.00000000E+00  0.00000000E+00  0.00000000E+00
  0.00000000E+00  0.00000000E+00  0.00000000E+00
  0.00000000E+00  0.00000000E+00  0.00000000E+00
  0.00000000E+00  0.00000000E+00  0.00000000E+00
  0.00000000E+00  0.00000000E+00  0.00000000E+00
  0.00000000E+00  0.00000000E+00  0.00000000E+00
  0.00000000E+00  0.00000000E+00  0.00000000E+00
  0.00000000E+00  0.00000000E+00  0.00000000E+00
  0.00000000E+00  0.00000000E+00  0.00000000E+00
  0.00000000E+00  0.00000000E+00  0.00000000E+00
  0.00000000E+00  0.00000000E+00  0.00000000E+00
  0.00000000E+00  0.00000000E+00  0.00000000E+00
  0.00000000E+00  0.00000000E+00  0.00000000E+00
  0.00000000E+00  0.00000000E+00  0.00000000E+00
  0.00000000E+00  0.00000000E+00  0.00000000E+00
  0.00000000E+00  0.00000000E+00  0.00000000E+00
  0.00000000E+00  0.00000000E+00  0.00000000E+00
  0.00000000E+00  0.00000000E+00  0.00000000E+00
  0.00000000E+00  0.00000000E+00  0.00000000E+00
  0.00000000E+00  0.00000000E+00  0.00000000E+00
  0.00000000E+00  0.00000000E+00  0.00000000E+00
  0.00000000E+00  0.00000000E+00  0.00000000E+00
  0.00000000E+00  0.00000000E+00  0.00000000E+00
  0.00000000E+00  0.00000000E+00  0.00000000E+00
  0.00000000E+00  0.00000000E+00  0.00000000E+00
  0.00000000E+00  0.00000000E+00  0.00000000E+00
  0.00000000E+00  0.00000000E+00  0.00000000E+00
  0.00000000E+00  0.00000000E+00  0.00000000E+00
  0.00000000E+00  0.00000000E+00  0.00000000E+00
  0.00000000E+00  0.00000000E+00  0.00000000E+00
  0.00000000E+00  0.00000000E+00  0.00000000E+00
  0.00000000E+00  0.00000000E+00  0.00000000E+00
  0.00000000E+00  0.00000000E+00  0.00000000E+00
  0.00000000E+00  0.00000000E+00  0.00000000E+00
  0.00000000E+00  0.00000000E+00  0.00000000E+00
  0.00000000E+00  0.00000000E+00  0.00000000E+00
  0.00000000E+00  0.00000000E+00  0.00000000E+00
  0.00000000E+00  0.00000000E+00  0.00000000E+00
  0.00000000E+00  0.00000000E+00  0.00000000E+00
  0.00000000E+00  0.00000000E+00  0.00000000E+00
  0.00000000E+00  0.00000000E+00  0.00000000E+00
  0.00000000E+00  0.00000000E+00  0.00000000E+00
  0.00000000E+00  0.00000000E+00  0.00000000E+00
  0.00000000E+00  0.00000000E+00  0.00000000E+00
  0.00000000E+00  0.00000000E+00  0.00000000E+00
  0.00000000E+00  0.00000000E+00  0.00000000E+00
  0.00000000E+00  0.00000000E+00  0.00000000E+00
  0.00000000E+00  0.00000000E+00  0.00000000E+00
  0.00000000E+00  0.00000000E+00  0.00000000E+00
  0.00000000E+00  0.00000000E+00  0.00000000E+00
  0.00000000E+00  0.00000000E+00  0.00000000E+00
  0.00000000E+00  0.00000000E+00  0.00000000E+00
  0.00000000E+00  0.00000000E+00  0.00000000E+00
  0.00000000E+00  0.00000000E+00  0.00000000E+00
  0.00000000E+00  0.00000000E+00  0.00000000E+00
  0.00000000E+00  0.00000000E+00  0.00000000E+00
  0.00000000E+00  0.00000000E+00  0.00000000E+00
  0.00000000E+00  0.00000000E+00  0.00000000E+00
  0.00000000E+00  0.00000000E+00  0.00000000E+00
  0.00000000E+00  0.00000000E+00  0.00000000E+00
  0.00000000E+00  0.00000000E+00  0.00000000E+00
  0.00000000E+00  0.00000000E+00  0.00000000E+00
  0.00000000E+00  0.00000000E+00  0.00000000E+00
  0.00000000E+00  0.00000000E+00  0.00000000E+00
  0.00000000E+00  0.00000000E+00  0.00000000E+00
  0.00000000E+00  0.00000000E+00  0.00000000E+00
  0.00000000E+00  0.00000000E+00  0.00000000E+00
  0.00000000E+00  0.00000000E+00  0.00000000E+00
  0.00000000E+00  0.00000000E+00  0.00000000E+00
  0.00000000E+00  0.00000000E+00  0.00000000E+00
  0.00000000E+00  0.00000000E+00  0.00000000E+00
  0.00000000E+00  0.00000000E+00  0.00000000E+00
  0.00000000E+00  0.00000000E+00  0.00000000E+00
  0.00000000E+00  0.00000000E+00  0.00000000E+00
  0.00000000E+00  0.00000000E+00  0.00000000E+00
  0.00000000E+00  0.00000000E+00  0.00000000E+00
  0.00000000E+00  0.00000000E+00  0.00000000E+00
  0.00000000E+00  0.00000000E+00  0.00000000E+00
  0.00000000E+00  0.00000000E+00  0.00000000E+00
  0.00000000E+00  0.00000000E+00  0.00000000E+00
  0.00000000E+00  0.00000000E+00  0.00000000E+00
  0.00000000E+00  0.00000000E+00  0.00000000E+00
  0.00000000E+00  0.00000000E+00  0.00000000E+00
  0.00000000E+00  0.00000000E+00  0.00000000E+00
  0.00000000E+00  0.00000000E+00  0.00000000E+00
  0.00000000E+00  0.00000000E+00  0.00000000E+00
  0.00000000E+00  0.00000000E+00  0.00000000E+00
  0.00000000E+00  0.00000000E+00  0.00000000E+00
  0.00000000E+00  0.00000000E+00  0.00000000E+00
  0.00000000E+00  0.00000000E+00  0.00000000E+00
  0.00000000E+00  0.00000000E+00  0.00000000E+00
  0.00000000E+00  0.00000000E+00  0.00000000E+00
  0.00000000E+00  0.00000000E+00  0.00000000E+00
  0.00000000E+00  0.00000000E+00  0.00000000E+00
  0.00000000E+00  0.00000000E+00  0.00000000E+00
  0.00000000E+00  0.00000000E+00  0.00000000E+00
  0.00000000E+00  0.00000000E+00  0.00000000E+00
  0.00000000E+00  0.00000000E+00  0.00000000E+00
  0.00000000E+00  0.00000000E+00  0.00000000E+00
  0.00000000E+00  0.00000000E+00  0.00000000E+00
  0.00000000E+00  0.00000000E+00  0.00000000E+00
  0.00000000E+00  0.00000000E+00  0.00000000E+00
  0.00000000E+00  0.00000000E+00  0.00000000E+00
  0.00000000E+00  0.00000000E+00  0.00000000E+00
  0.00000000E+00  0.00000000E+00  0.00000000E+00
  0.00000000E+00  0.00000000E+00  0.00000000E+00
  0.00000000E+00  0.00000000E+00  0.00000000E+00
  0.00000000E+00  0.00000000E+00  0.00000000E+00
  0.00000000E+00  0.00000000E+00  0.00000000E+00
  0.00000000E+00  0.00000000E+00  0.00000000E+00
  0.00000000E+00  0.00000000E+00  0.00000000E+00
  0.00000000E+00  0.00000000E+00  0.00000000E+00
  0.00000000E+00  0.00000000E+00  0.00000000E+00
  0.00000000E+00  0.00000000E+00  0.00000000E+00
  0.00000000E+00  0.00000000E+00  0.00000000E+00
  0.00000000E+00  0.00000000E+00  0.00000000E+00
  0.00000000E+00  0.00000000E+00  0.00000000E+00
  0.00000000E+00  0.00000000E+00  0.00000000E+00
  0.00000000E+00  0.00000000E+00  0.00000000E+00
  0.00000000E+00  0.00000000E+00  0.00000000E+00
  0.00000000E+00  0.00000000E+00  0.00000000E+00
  0.00000000E+00  0.00000000E+00  0.00000000E+00
  0.00000000E+00  0.00000000E+00  0.00000000E+00
  0.00000000E+00  0.00000000E+00  0.00000000E+00
  0.00000000E+00  0.00000000E+00  0.00000000E+00
  0.00000000E+00  0.00000000E+00  0.00000000E+00
  0.00000000E+00  0.00000000E+00  0.00000000E+00
  0.00000000E+00  0.00000000E+00  0.00000000E+00
  0.00000000E+00  0.00000000E+00  0.00000000E+00
  0.00000000E+00  0.00000000E+00  0.00000000E+00
  0.00000000E+00  0.00000000E+00  0.00000000E+00
  0.00000000E+00  0.00000000E+00  0.00000000E+00
  0.00000000E+00  0.00000000E+00  0.00000000E+00
  0.00000000E+00  0.00000000E+00  0.00000000E+00
  0.00000000E+00  0.00000000E+00  0.00000000E+00
  0.00000000E+00  0.00000000E+00  0.00000000E+00
  0.00000000E+00  0.00000000E+00  0.00000000E+00
  0.00000000E+00  0.00000000E+00  0.00000000E+00
  0.00000000E+00  0.00000000E+00  0.00000000E+00
  0.00000000E+00  0.00000000E+00  0.00000000E+00
  0.00000000E+00  0.00000000E+00  0.00000000E+00
  0.00000000E+00  0.00000000E+00  0.00000000E+00
  0.00000000E+00  0.00000000E+00  0.00000000E+00
  0.00000000E+00  0.00000000E+00  0.00000000E+00
