C                                       
   1.00000000000000     
    18.3212228263861974    0.0640271643136372    0.0000000000000000
     0.0396889622988357   10.9574786674916425    0.0000000000000000
     0.0000000000000000    0.0000000000000000   16.0000000000000000
  C             
   108
Direct
  0.8134153994382509  0.5871994238051544  0.5671090468199637
  0.8049159951709004  0.7127543932564606  0.5589959104222111
  0.7430724454485369  0.5391325954022166  0.5446319910615254
  0.7301628521700282  0.7440585771368821  0.5259899173008549
  0.6911534255459418  0.6350950004054257  0.5191420584106560
  0.7483592621526668  0.4577398782909681  0.4771431907629667
  0.6867991731736147  0.4691287827454449  0.4163899448961210
  0.6477191123791682  0.5978025490577205  0.4405160039324694
  0.8172693558620402  0.4746326433862182  0.4391353307861399
  0.8705626374062416  0.5425916093195555  0.4987104340403880
  0.8872448776387133  0.6661093291776623  0.4540231561740319
  0.8057157714375039  0.5002669904885656  0.3529527590050015
  0.8353083399730424  0.6089517108987693  0.3134060789589585
  0.8743378661438684  0.6922193937569840  0.3668455137777391
  0.7272617067624220  0.4960507531880906  0.3370073719961573
  0.8166900289022920  0.8441808490811294  0.4432935167794845
  0.8551747560109542  0.7639598869633455  0.5007470503916688
  0.8359492644235154  0.8113955357136591  0.3600719019736758
  0.7700987192607861  0.7889918685238509  0.3138303028952274
  0.7727507743812305  0.6737725539719100  0.2743191657911026
  0.7081668489470175  0.6087891426287604  0.3020489605587728
  0.7388822482954407  0.8262212190866606  0.4552846402486779
  0.7084156958815314  0.7900871772275361  0.3751157892246881
  0.6699092168802203  0.6794733300329655  0.3666200214294975
  0.1875618553280994  0.5817089772228686  0.5681052369119449
  0.1949450531554369  0.7075679275100332  0.5620811586628434
  0.2584371612938075  0.5347003889677270  0.5445984293698304
  0.2691115255232210  0.7398909236674822  0.5290081240370144
  0.3094918983533807  0.6315361557993616  0.5203384055847406
  0.2535077502623760  0.4553409142685239  0.4759287898399500
  0.3145721857327598  0.4690863092910061  0.4147277377717059
  0.3525591221572014  0.5963914619375743  0.4404961639012820
  0.1842111370571946  0.4734308915291594  0.4384229655636369
  0.1306016597909296  0.5392332490811229  0.4990342222259247
  0.1125988761680678  0.6645024315133465  0.4568907672965800
  0.1951181242440091  0.5022387182013517  0.3527416802907717
  0.1640942882311467  0.6120474603800353  0.3149885173364306
  0.1245827238742430  0.6936162977623065  0.3700899205620082
  0.2734378895758897  0.4985219157443240  0.3360216043111405
  0.1810531365159551  0.8431154154919784  0.4488132898682184
  0.1436958461711255  0.7608991128145685  0.5052229045053439
  0.1616942077315844  0.8129895411258830  0.3650254273313377
  0.2276259622321589  0.7921408058442581  0.3180854908678504
  0.2258115215550286  0.6782281006534653  0.2767498579583058
  0.2911608085067249  0.6125222099616235  0.3028241893167201
  0.2590949166551936  0.8246178300474820  0.4598971105177775
  0.2895186355422854  0.7910296036081552  0.3789676810869850
  0.3291613331756224  0.6809874047904997  0.3681982144487248
  0.4426747606357952  0.1138233597313204  0.5466385043096919
  0.4455838825018799  0.9799607704152351  0.5203269846436029
  0.5771849947942624  0.0998061275598160  0.5664285283452540
  0.5747990654957014  0.9695305220880907  0.5389023506641702
  0.5109386578595134  0.9130760226118161  0.5088253683592808
  0.5718403045693515  0.0772508071840256  0.6616218173540787
  0.6001823666511008  0.9559122620254007  0.6807745574348933
  0.6039533242529980  0.8905792052457595  0.6036828386712166
  0.4974211652329983  0.0754770093613740  0.6940300432328896
  0.4892447816757464  0.9643165847443738  0.7471633145816086
  0.5517982739325521  0.8883455807983148  0.7349464710639373
  0.4324082607559711  0.0856950055414161  0.6419067105204280
  0.3944245145912014  0.9720621795546965  0.6531328165598282
  0.4272716238829770  0.8984679901088631  0.7180711191332321
  0.4011135396910879  0.9068160390905432  0.5758776256372565
  0.4365620811386915  0.7912014943607077  0.5937742045501611
  0.4511235805143585  0.7801491590064006  0.6846118622666898
  0.5285733384420025  0.7733677303716285  0.6950567183583057
  0.5602127134097402  0.7814774451362392  0.6110893728241067
  0.5038876588245742  0.7913446729388428  0.5498326553402989
  0.0400056733107630  0.2316520512788243  0.6881799680535355
  0.0658550352609953  0.1488183232909439  0.6237558740887805
  0.9610484519505242  0.2336825188432063  0.6888262706481860
  0.9335423300076647  0.1522608479006530  0.6248909493004083
  0.9992460096721866  0.1114546289589497  0.5818167986461591
  0.9373429134155978  0.3575504832592691  0.6700017511057378
  0.8965134560060073  0.3583488144545802  0.5946194098130715
  0.8978314124296836  0.2352149681118096  0.5647057839259786
  0.0013237078278931  0.4320110333472343  0.6560768020537285
  0.0010355126457868  0.4860082252841188  0.5762622011201275
  0.9287925619710924  0.4518913558161628  0.5302824220985548
  0.0647081229638323  0.3541534644896439  0.6689733516894525
  0.1045901394831371  0.3529923750088527  0.5928959800878806
  0.0724816637807013  0.4486433449673236  0.5294416830164156
  0.1016592662956271  0.2299894311417968  0.5629371312010623
  0.0618290890067446  0.2313814379441621  0.4856335774110971
  0.0382253073910126  0.3565783249866313  0.4688821695545536
  0.9616944503991974  0.3583066531211684  0.4696369880278545
  0.9367642854730649  0.2345383715564250  0.4867506007810313
  0.9989564928878519  0.1549161122734165  0.4954673459695785
  0.6075973530215726  0.3268026496829624  0.5139812756219582
  0.6156648715448895  0.4011583904462326  0.4342786559757751
  0.5775940481638341  0.2015761012465689  0.4989264993915735
  0.5398985209523456  0.2176334621354435  0.4146784837197416
  0.5649388271141242  0.3285903214204567  0.3799472346272520
  0.5116820035553226  0.1868899753858125  0.5575938222401924
  0.4093662681641663  0.1988419014808467  0.4843667612493164
  0.4576861539765845  0.2204793871556774  0.4089606354463962
  0.5012342975119995  0.3088512512529147  0.5934608328364013
  0.4372890315770836  0.3755679601266430  0.5684961184594188
  0.3913056788848072  0.3188380693718416  0.5070526300264965
  0.5623780710513979  0.3857835078475012  0.5702348812365086
  0.5371962211781128  0.5011872230882344  0.5369111923286100
  0.4611918152902272  0.4948923130655420  0.5352173532188896
  0.5721128779643566  0.5264582405002500  0.4526188548526179
  0.5012046088299862  0.5147782101408116  0.4001606468160481
  0.4286369379052431  0.5235151688969120  0.4509601782413897
  0.3868923349758146  0.4005836163131425  0.4290785537326893
  0.4368132707923867  0.3309802106178538  0.3712096939414757
  0.5016886439945403  0.4028484015541578  0.3588119230805728
 
  0.00000000E+00  0.00000000E+00  0.00000000E+00
  0.00000000E+00  0.00000000E+00  0.00000000E+00
  0.00000000E+00  0.00000000E+00  0.00000000E+00
  0.00000000E+00  0.00000000E+00  0.00000000E+00
  0.00000000E+00  0.00000000E+00  0.00000000E+00
  0.00000000E+00  0.00000000E+00  0.00000000E+00
  0.00000000E+00  0.00000000E+00  0.00000000E+00
  0.00000000E+00  0.00000000E+00  0.00000000E+00
  0.00000000E+00  0.00000000E+00  0.00000000E+00
  0.00000000E+00  0.00000000E+00  0.00000000E+00
  0.00000000E+00  0.00000000E+00  0.00000000E+00
  0.00000000E+00  0.00000000E+00  0.00000000E+00
  0.00000000E+00  0.00000000E+00  0.00000000E+00
  0.00000000E+00  0.00000000E+00  0.00000000E+00
  0.00000000E+00  0.00000000E+00  0.00000000E+00
  0.00000000E+00  0.00000000E+00  0.00000000E+00
  0.00000000E+00  0.00000000E+00  0.00000000E+00
  0.00000000E+00  0.00000000E+00  0.00000000E+00
  0.00000000E+00  0.00000000E+00  0.00000000E+00
  0.00000000E+00  0.00000000E+00  0.00000000E+00
  0.00000000E+00  0.00000000E+00  0.00000000E+00
  0.00000000E+00  0.00000000E+00  0.00000000E+00
  0.00000000E+00  0.00000000E+00  0.00000000E+00
  0.00000000E+00  0.00000000E+00  0.00000000E+00
  0.00000000E+00  0.00000000E+00  0.00000000E+00
  0.00000000E+00  0.00000000E+00  0.00000000E+00
  0.00000000E+00  0.00000000E+00  0.00000000E+00
  0.00000000E+00  0.00000000E+00  0.00000000E+00
  0.00000000E+00  0.00000000E+00  0.00000000E+00
  0.00000000E+00  0.00000000E+00  0.00000000E+00
  0.00000000E+00  0.00000000E+00  0.00000000E+00
  0.00000000E+00  0.00000000E+00  0.00000000E+00
  0.00000000E+00  0.00000000E+00  0.00000000E+00
  0.00000000E+00  0.00000000E+00  0.00000000E+00
  0.00000000E+00  0.00000000E+00  0.00000000E+00
  0.00000000E+00  0.00000000E+00  0.00000000E+00
  0.00000000E+00  0.00000000E+00  0.00000000E+00
  0.00000000E+00  0.00000000E+00  0.00000000E+00
  0.00000000E+00  0.00000000E+00  0.00000000E+00
  0.00000000E+00  0.00000000E+00  0.00000000E+00
  0.00000000E+00  0.00000000E+00  0.00000000E+00
  0.00000000E+00  0.00000000E+00  0.00000000E+00
  0.00000000E+00  0.00000000E+00  0.00000000E+00
  0.00000000E+00  0.00000000E+00  0.00000000E+00
  0.00000000E+00  0.00000000E+00  0.00000000E+00
  0.00000000E+00  0.00000000E+00  0.00000000E+00
  0.00000000E+00  0.00000000E+00  0.00000000E+00
  0.00000000E+00  0.00000000E+00  0.00000000E+00
  0.00000000E+00  0.00000000E+00  0.00000000E+00
  0.00000000E+00  0.00000000E+00  0.00000000E+00
  0.00000000E+00  0.00000000E+00  0.00000000E+00
  0.00000000E+00  0.00000000E+00  0.00000000E+00
  0.00000000E+00  0.00000000E+00  0.00000000E+00
  0.00000000E+00  0.00000000E+00  0.00000000E+00
  0.00000000E+00  0.00000000E+00  0.00000000E+00
  0.00000000E+00  0.00000000E+00  0.00000000E+00
  0.00000000E+00  0.00000000E+00  0.00000000E+00
  0.00000000E+00  0.00000000E+00  0.00000000E+00
  0.00000000E+00  0.00000000E+00  0.00000000E+00
  0.00000000E+00  0.00000000E+00  0.00000000E+00
  0.00000000E+00  0.00000000E+00  0.00000000E+00
  0.00000000E+00  0.00000000E+00  0.00000000E+00
  0.00000000E+00  0.00000000E+00  0.00000000E+00
  0.00000000E+00  0.00000000E+00  0.00000000E+00
  0.00000000E+00  0.00000000E+00  0.00000000E+00
  0.00000000E+00  0.00000000E+00  0.00000000E+00
  0.00000000E+00  0.00000000E+00  0.00000000E+00
  0.00000000E+00  0.00000000E+00  0.00000000E+00
  0.00000000E+00  0.00000000E+00  0.00000000E+00
  0.00000000E+00  0.00000000E+00  0.00000000E+00
  0.00000000E+00  0.00000000E+00  0.00000000E+00
  0.00000000E+00  0.00000000E+00  0.00000000E+00
  0.00000000E+00  0.00000000E+00  0.00000000E+00
  0.00000000E+00  0.00000000E+00  0.00000000E+00
  0.00000000E+00  0.00000000E+00  0.00000000E+00
  0.00000000E+00  0.00000000E+00  0.00000000E+00
  0.00000000E+00  0.00000000E+00  0.00000000E+00
  0.00000000E+00  0.00000000E+00  0.00000000E+00
  0.00000000E+00  0.00000000E+00  0.00000000E+00
  0.00000000E+00  0.00000000E+00  0.00000000E+00
  0.00000000E+00  0.00000000E+00  0.00000000E+00
  0.00000000E+00  0.00000000E+00  0.00000000E+00
  0.00000000E+00  0.00000000E+00  0.00000000E+00
  0.00000000E+00  0.00000000E+00  0.00000000E+00
  0.00000000E+00  0.00000000E+00  0.00000000E+00
  0.00000000E+00  0.00000000E+00  0.00000000E+00
  0.00000000E+00  0.00000000E+00  0.00000000E+00
  0.00000000E+00  0.00000000E+00  0.00000000E+00
  0.00000000E+00  0.00000000E+00  0.00000000E+00
  0.00000000E+00  0.00000000E+00  0.00000000E+00
  0.00000000E+00  0.00000000E+00  0.00000000E+00
  0.00000000E+00  0.00000000E+00  0.00000000E+00
  0.00000000E+00  0.00000000E+00  0.00000000E+00
  0.00000000E+00  0.00000000E+00  0.00000000E+00
  0.00000000E+00  0.00000000E+00  0.00000000E+00
  0.00000000E+00  0.00000000E+00  0.00000000E+00
  0.00000000E+00  0.00000000E+00  0.00000000E+00
  0.00000000E+00  0.00000000E+00  0.00000000E+00
  0.00000000E+00  0.00000000E+00  0.00000000E+00
  0.00000000E+00  0.00000000E+00  0.00000000E+00
  0.00000000E+00  0.00000000E+00  0.00000000E+00
  0.00000000E+00  0.00000000E+00  0.00000000E+00
  0.00000000E+00  0.00000000E+00  0.00000000E+00
  0.00000000E+00  0.00000000E+00  0.00000000E+00
  0.00000000E+00  0.00000000E+00  0.00000000E+00
  0.00000000E+00  0.00000000E+00  0.00000000E+00
  0.00000000E+00  0.00000000E+00  0.00000000E+00
  0.00000000E+00  0.00000000E+00  0.00000000E+00
