Generated by VASPKIT code               
   1.00000000000000     
    11.5673891416584986   -0.7547650714427088    0.0000000000000000
    -0.7445913790287521   11.5938897926466868    0.0000000000000000
     0.0000000000000012    0.0000000000000012   19.7195834148218871
   C 
    84
Direct
  0.4840844436529608  0.5130357583723040  0.5986758636025158
  0.4607780224643463  0.3915776611904960  0.5782730621691954
  0.6031301173552635  0.5556520933953379  0.5799921738716733
  0.5573137757155280  0.3696188082959964  0.5368110083180966
  0.6397769108439988  0.4671773518355309  0.5374457918347275
  0.6051148304726937  0.6572443511440440  0.5409946777046528
  0.6634560835022540  0.6459102994932024  0.4798694958515242
  0.6983334561234571  0.5226527385768094  0.4739170145963527
  0.4802190712835923  0.6816062789114525  0.5292930695711817
  0.4103499421811208  0.5756587723975173  0.5627436935010834
  0.3172109160333960  0.4909327015887257  0.5285497889029216
  0.4739542599482078  0.6929224426010308  0.4463280584473921
  0.3963421457018015  0.5926559572883718  0.4106669889127659
  0.3070924076284598  0.5008001231648507  0.4448700242512160
  0.5958943178661968  0.6691242420635746  0.4242682583554611
  0.3814863088601754  0.3240175217924630  0.4772199815854066
  0.3584597167070029  0.3736426986561767  0.5395318041332686
  0.3481063291784423  0.3869370254874411  0.4219311401851940
  0.4439111781810610  0.4120923092782576  0.3782318274655339
  0.4640443200056907  0.5366143218288428  0.3663943984190823
  0.5864323721194324  0.5747344558184793  0.3788690637731094
  0.5118902117187787  0.3059469867261271  0.4724309117781544
  0.5478306810779259  0.3792724084804533  0.4089616834480054
  0.6326733807640181  0.4779790574649638  0.4097746162264073
  0.9022970916773829  0.0773560375441846  0.5736903866854064
  0.4061904926569326  0.0813100098081989  0.5739003369469984
  0.9039941164110559  0.3996923795608751  0.5703584003958824
  0.0147684213095758  0.1369416240719730  0.5605466476487990
  0.5147140020725232  0.1404878905523432  0.5534419706272402
  0.8572573424878343  0.5084475620594660  0.5576177344437880
  0.9242394094509123  0.9635436491109388  0.5951510980756112
  0.4321221649259215  0.9711948485431208  0.5978594709925886
  0.0183449420566788  0.4258611499244580  0.5984353407688587
  0.0524137962943243  0.9631157050129175  0.5980342020352936
  0.5610395481467592  0.9732841453149632  0.5966137543340864
  0.0380279725350547  0.5507130556990916  0.6057369723196331
  0.1087473734338573  0.0758151755990255  0.5778327399064622
  0.6118785745560871  0.0832180617836684  0.5705683731005564
  0.9366334880458069  0.5997086845567949  0.5791688627734501
  0.8736013742760136  0.8774200976768185  0.5521670484549688
  0.3773864256280461  0.8779951603921177  0.5610364735994651
  0.1054131390451971  0.3844954989293896  0.5559673150528397
  0.9703661324441768  0.8121994737896472  0.5253931967579817
  0.4732808116624412  0.8119648077989368  0.5360954924744803
  0.1877073411396424  0.4902586486282132  0.5352351598107958
  0.0820493223936509  0.8779812086638472  0.5554523232578319
  0.5885195557944556  0.8823148981074453  0.5570131792043043
  0.1336826629211600  0.5899836327050423  0.5637904235439564
  0.8039422619892065  0.9294826871857396  0.4976253828005355
  0.3025515706692019  0.9217091886822573  0.5046804784881260
  0.0417615940243081  0.3215483435688355  0.4940072002496692
  0.8861568914251663  0.9238730571736582  0.4383102660748435
  0.3763310841293830  0.9016605949924354  0.4434199822949196
  0.0806416270575170  0.4052710833885698  0.4347994128239776
  0.9801639419080459  0.8628767185126947  0.4549824746771520
  0.4715524310188783  0.8268126581450375  0.4556982938055683
  0.1755660517120035  0.5025899878775775  0.4542602559252629
  0.8220659870561065  0.0702470467118417  0.5126456722088477
  0.3215851223441319  0.0628927396020487  0.5159426306121659
  0.9178993789384577  0.3500716349509219  0.5058161062613280
  0.9123528217347143  0.1233562111542383  0.4607139483565774
  0.4018893308501674  0.1047894472556692  0.4579066962117651
  0.8785330376869993  0.4141991359171229  0.4532120051673019
  0.9422821157788164  0.0371690204133586  0.4185705563904634
  0.4305234864731915  0.0099894390130117  0.4205542508526534
  0.9817045722181490  0.4545841385409162  0.4143495228267682
  0.0280492769705987  0.1892640710589362  0.4905450552252191
  0.5165261223806397  0.1769910810181941  0.4796745887150067
  0.8251126212226509  0.5172209101717371  0.4819544186992317
  0.1218487166334796  0.1197281314337459  0.4639219631664346
  0.6134051893112797  0.1098207237780429  0.4545874789195707
  0.9135637909161289  0.6178438637390755  0.4605174875316393
  0.0704300030809861  0.0353122303020541  0.4203708846968226
  0.5576650197261444  0.0129805799876124  0.4196282371123843
  0.9995497376354407  0.5797800633964627  0.4196843129684780
  0.0920568699469655  0.9211012453780185  0.4412285656918513
  0.5863383494313013  0.9041052683824162  0.4405624944995523
  0.1148309739929232  0.6099288185053737  0.4478712731433347
  0.1705059230599346  0.9262827756432657  0.5030770596890832
  0.6707167891029613  0.9257650236074113  0.4990940596347215
  0.0983020853562095  0.6594719490234127  0.5110996895936992
  0.1904399136940995  0.0662303254254013  0.5182757552071351
  0.6885876021015136  0.0679824607554735  0.5103394008731925
  0.9720070076710172  0.6839575736215053  0.5214511186236166
 
  0.00000000E+00  0.00000000E+00  0.00000000E+00
  0.00000000E+00  0.00000000E+00  0.00000000E+00
  0.00000000E+00  0.00000000E+00  0.00000000E+00
  0.00000000E+00  0.00000000E+00  0.00000000E+00
  0.00000000E+00  0.00000000E+00  0.00000000E+00
  0.00000000E+00  0.00000000E+00  0.00000000E+00
  0.00000000E+00  0.00000000E+00  0.00000000E+00
  0.00000000E+00  0.00000000E+00  0.00000000E+00
  0.00000000E+00  0.00000000E+00  0.00000000E+00
  0.00000000E+00  0.00000000E+00  0.00000000E+00
  0.00000000E+00  0.00000000E+00  0.00000000E+00
  0.00000000E+00  0.00000000E+00  0.00000000E+00
  0.00000000E+00  0.00000000E+00  0.00000000E+00
  0.00000000E+00  0.00000000E+00  0.00000000E+00
  0.00000000E+00  0.00000000E+00  0.00000000E+00
  0.00000000E+00  0.00000000E+00  0.00000000E+00
  0.00000000E+00  0.00000000E+00  0.00000000E+00
  0.00000000E+00  0.00000000E+00  0.00000000E+00
  0.00000000E+00  0.00000000E+00  0.00000000E+00
  0.00000000E+00  0.00000000E+00  0.00000000E+00
  0.00000000E+00  0.00000000E+00  0.00000000E+00
  0.00000000E+00  0.00000000E+00  0.00000000E+00
  0.00000000E+00  0.00000000E+00  0.00000000E+00
  0.00000000E+00  0.00000000E+00  0.00000000E+00
  0.00000000E+00  0.00000000E+00  0.00000000E+00
  0.00000000E+00  0.00000000E+00  0.00000000E+00
  0.00000000E+00  0.00000000E+00  0.00000000E+00
  0.00000000E+00  0.00000000E+00  0.00000000E+00
  0.00000000E+00  0.00000000E+00  0.00000000E+00
  0.00000000E+00  0.00000000E+00  0.00000000E+00
  0.00000000E+00  0.00000000E+00  0.00000000E+00
  0.00000000E+00  0.00000000E+00  0.00000000E+00
  0.00000000E+00  0.00000000E+00  0.00000000E+00
  0.00000000E+00  0.00000000E+00  0.00000000E+00
  0.00000000E+00  0.00000000E+00  0.00000000E+00
  0.00000000E+00  0.00000000E+00  0.00000000E+00
  0.00000000E+00  0.00000000E+00  0.00000000E+00
  0.00000000E+00  0.00000000E+00  0.00000000E+00
  0.00000000E+00  0.00000000E+00  0.00000000E+00
  0.00000000E+00  0.00000000E+00  0.00000000E+00
  0.00000000E+00  0.00000000E+00  0.00000000E+00
  0.00000000E+00  0.00000000E+00  0.00000000E+00
  0.00000000E+00  0.00000000E+00  0.00000000E+00
  0.00000000E+00  0.00000000E+00  0.00000000E+00
  0.00000000E+00  0.00000000E+00  0.00000000E+00
  0.00000000E+00  0.00000000E+00  0.00000000E+00
  0.00000000E+00  0.00000000E+00  0.00000000E+00
  0.00000000E+00  0.00000000E+00  0.00000000E+00
  0.00000000E+00  0.00000000E+00  0.00000000E+00
  0.00000000E+00  0.00000000E+00  0.00000000E+00
  0.00000000E+00  0.00000000E+00  0.00000000E+00
  0.00000000E+00  0.00000000E+00  0.00000000E+00
  0.00000000E+00  0.00000000E+00  0.00000000E+00
  0.00000000E+00  0.00000000E+00  0.00000000E+00
  0.00000000E+00  0.00000000E+00  0.00000000E+00
  0.00000000E+00  0.00000000E+00  0.00000000E+00
  0.00000000E+00  0.00000000E+00  0.00000000E+00
  0.00000000E+00  0.00000000E+00  0.00000000E+00
  0.00000000E+00  0.00000000E+00  0.00000000E+00
  0.00000000E+00  0.00000000E+00  0.00000000E+00
  0.00000000E+00  0.00000000E+00  0.00000000E+00
  0.00000000E+00  0.00000000E+00  0.00000000E+00
  0.00000000E+00  0.00000000E+00  0.00000000E+00
  0.00000000E+00  0.00000000E+00  0.00000000E+00
  0.00000000E+00  0.00000000E+00  0.00000000E+00
  0.00000000E+00  0.00000000E+00  0.00000000E+00
  0.00000000E+00  0.00000000E+00  0.00000000E+00
  0.00000000E+00  0.00000000E+00  0.00000000E+00
  0.00000000E+00  0.00000000E+00  0.00000000E+00
  0.00000000E+00  0.00000000E+00  0.00000000E+00
  0.00000000E+00  0.00000000E+00  0.00000000E+00
  0.00000000E+00  0.00000000E+00  0.00000000E+00
  0.00000000E+00  0.00000000E+00  0.00000000E+00
  0.00000000E+00  0.00000000E+00  0.00000000E+00
  0.00000000E+00  0.00000000E+00  0.00000000E+00
  0.00000000E+00  0.00000000E+00  0.00000000E+00
  0.00000000E+00  0.00000000E+00  0.00000000E+00
  0.00000000E+00  0.00000000E+00  0.00000000E+00
  0.00000000E+00  0.00000000E+00  0.00000000E+00
  0.00000000E+00  0.00000000E+00  0.00000000E+00
  0.00000000E+00  0.00000000E+00  0.00000000E+00
  0.00000000E+00  0.00000000E+00  0.00000000E+00
  0.00000000E+00  0.00000000E+00  0.00000000E+00
  0.00000000E+00  0.00000000E+00  0.00000000E+00
