Generated by VASPKIT code               
   1.00000000000000     
     8.4628565936559177    0.2140623106880817    0.0000000000000000
    -4.0692973264717427    8.5659163154805729    0.0000000000000000
     0.0000000000000011    0.0000000000000023   19.7137903988366325
   C 
    44
Direct
  0.9436569284451082  0.1200672078073666  0.6054507850608957
  0.0331897219927768  0.0199570765111261  0.6201734449450313
  0.0581718581362836  0.2633282706687226  0.5632518893476117
  0.1945377909044197  0.0790964129468250  0.5806614723162937
  0.1837126310852710  0.1932108185384465  0.5358563883828609
  0.9508366672094652  0.2388215982221666  0.5000415145974557
  0.0581356950976826  0.2633425735977823  0.4368192503945920
  0.1836982226533479  0.1931869215366291  0.4642016763625989
  0.8088132842529703  0.1011088102152300  0.5000504937071426
  0.8074884563736404  0.0275007723365803  0.5650614160508312
  0.7793258162712817  0.8563104034727687  0.5668727485152800
  0.8074411754460940  0.0275018998567162  0.4350337391696470
  0.7793218690114685  0.8562977755890060  0.4332015684355426
  0.8440180061225107  0.8270952535547949  0.5000304966178888
  0.9436077735492105  0.1200667035200311  0.3946309442363898
  0.0691124370291689  0.8071683094157152  0.5683390674659279
  0.9428385094060658  0.8621386922339767  0.6110533074070261
  0.9842058582727091  0.7958128316310251  0.5000260311790896
  0.0690812327954333  0.8071550282913478  0.4317103653778673
  0.9428021976840597  0.8621454216435396  0.3890126988410003
  0.0331421502927256  0.0199607591496829  0.3798905082890442
  0.2306750537815745  0.9580725362871831  0.5583414801465310
  0.2306682549621684  0.9580728383294854  0.4416997770569537
  0.1945132087995560  0.0791156967428535  0.4194030304683878
  0.3237275595753744  0.5593165648649503  0.6012170591836110
  0.3016348318619677  0.6993315347269728  0.5975141381322189
  0.4929759738659669  0.5930625085960344  0.5686056743819137
  0.5911385142818872  0.7572632698848665  0.5736936267028838
  0.4630164640437968  0.8183858506174815  0.5681753539032641
  0.4531088062563953  0.5267054185812654  0.5000250991093509
  0.4929318255141766  0.5930704792473804  0.4314516914038649
  0.5911507022384797  0.7572811638239969  0.4263636363091337
  0.2725581513408954  0.4459497085792705  0.5000270746398172
  0.1717317642333995  0.4429198159171435  0.4373713706819515
  0.3236854781404972  0.5593078664694531  0.3988384011771302
  0.1717395208957413  0.4429251464339288  0.5626913209858344
  0.0752169486660677  0.5428693920827143  0.5373408664440049
  0.0752160916683025  0.5428679817930941  0.4627229260188628
  0.1242487254286431  0.6759049865194129  0.5783103061901826
  0.3344901204630020  0.9570418680574306  0.5000276620385478
  0.1242447589389073  0.6759049160467328  0.4217448204613987
  0.3016005763538345  0.6993098608840072  0.4025504132081252
  0.4630324344917298  0.8183615640015489  0.4318936061047296
  0.4462159521659359  0.8890254907732853  0.5000311460308140
 
  0.00000000E+00  0.00000000E+00  0.00000000E+00
  0.00000000E+00  0.00000000E+00  0.00000000E+00
  0.00000000E+00  0.00000000E+00  0.00000000E+00
  0.00000000E+00  0.00000000E+00  0.00000000E+00
  0.00000000E+00  0.00000000E+00  0.00000000E+00
  0.00000000E+00  0.00000000E+00  0.00000000E+00
  0.00000000E+00  0.00000000E+00  0.00000000E+00
  0.00000000E+00  0.00000000E+00  0.00000000E+00
  0.00000000E+00  0.00000000E+00  0.00000000E+00
  0.00000000E+00  0.00000000E+00  0.00000000E+00
  0.00000000E+00  0.00000000E+00  0.00000000E+00
  0.00000000E+00  0.00000000E+00  0.00000000E+00
  0.00000000E+00  0.00000000E+00  0.00000000E+00
  0.00000000E+00  0.00000000E+00  0.00000000E+00
  0.00000000E+00  0.00000000E+00  0.00000000E+00
  0.00000000E+00  0.00000000E+00  0.00000000E+00
  0.00000000E+00  0.00000000E+00  0.00000000E+00
  0.00000000E+00  0.00000000E+00  0.00000000E+00
  0.00000000E+00  0.00000000E+00  0.00000000E+00
  0.00000000E+00  0.00000000E+00  0.00000000E+00
  0.00000000E+00  0.00000000E+00  0.00000000E+00
  0.00000000E+00  0.00000000E+00  0.00000000E+00
  0.00000000E+00  0.00000000E+00  0.00000000E+00
  0.00000000E+00  0.00000000E+00  0.00000000E+00
  0.00000000E+00  0.00000000E+00  0.00000000E+00
  0.00000000E+00  0.00000000E+00  0.00000000E+00
  0.00000000E+00  0.00000000E+00  0.00000000E+00
  0.00000000E+00  0.00000000E+00  0.00000000E+00
  0.00000000E+00  0.00000000E+00  0.00000000E+00
  0.00000000E+00  0.00000000E+00  0.00000000E+00
  0.00000000E+00  0.00000000E+00  0.00000000E+00
  0.00000000E+00  0.00000000E+00  0.00000000E+00
  0.00000000E+00  0.00000000E+00  0.00000000E+00
  0.00000000E+00  0.00000000E+00  0.00000000E+00
  0.00000000E+00  0.00000000E+00  0.00000000E+00
  0.00000000E+00  0.00000000E+00  0.00000000E+00
  0.00000000E+00  0.00000000E+00  0.00000000E+00
  0.00000000E+00  0.00000000E+00  0.00000000E+00
  0.00000000E+00  0.00000000E+00  0.00000000E+00
  0.00000000E+00  0.00000000E+00  0.00000000E+00
  0.00000000E+00  0.00000000E+00  0.00000000E+00
  0.00000000E+00  0.00000000E+00  0.00000000E+00
  0.00000000E+00  0.00000000E+00  0.00000000E+00
  0.00000000E+00  0.00000000E+00  0.00000000E+00
