Generated by VASPKIT code               
   1.00000000000000     
    10.0399663254518750   -0.0010987968120927    0.0000000000000000
    -5.0208748960338392    9.0439069809184911    0.0000000000000000
     0.0000000000000012    0.0000000000000023   19.7123719166288431
  C             
    64
Direct
  0.8915950372160396  0.7475626625587025  0.5556097252548969
  0.9037058753888966  0.7268856879481469  0.4779473154912110
  0.0535748523888835  0.8712480109746572  0.5748156539152480
  0.0687580312119419  0.8233456459962735  0.4518771984634607
  0.1328037831900682  0.9242236119070844  0.5120432204526283
  0.0820965917880668  0.0000456071079049  0.6159812841760383
  0.1823400310131345  0.1288349913130087  0.5748130836941712
  0.2086047662032829  0.0758702730556153  0.5120408251283116
  0.9421421592768520  0.9999983245543832  0.5933485239784266
  0.8424064181770563  0.8645276320336841  0.5606516679066521
  0.7460405217094470  0.8524914042826655  0.5020505309882455
  0.9778013519330194  0.1354285705144582  0.5606427706142185
  0.8934505373923102  0.1474471927977787  0.5020440272817199
  0.7970256353059202  0.9999511872316794  0.4662006697428258
  0.1439829553239692  0.2524472876493498  0.5555971105224422
  0.8797823230477856  0.8728050334582920  0.3968417635894056
  0.8052999413380565  0.7808287686599392  0.4491199277588604
  0.8576362451077095  0.9999439084590678  0.4034668713727495
  0.0069357683923422  0.1271659536601473  0.3968315115183855
  0.0244026142129732  0.2191215951208937  0.4491085312068653
  0.1767732187371339  0.2731239399896561  0.4779365927486091
  0.0453789041956538  0.9221310906880962  0.3973959023245840
  0.1232450260749110  0.0779091790228461  0.3973947309398230
  0.2453978523580447  0.1767326366372089  0.4518713393389395
  0.2566023471397381  0.4365754420330054  0.4719100014179907
  0.4266449130643863  0.2665839751361203  0.4561463125821265
  0.2075240906306076  0.4380312786806418  0.5493736556769063
  0.4618397321835845  0.2247448701884443  0.5261599198121427
  0.4317061657630261  0.5224554321877158  0.4633833442347836
  0.5248839525822120  0.4422187511566403  0.4629216885864538
  0.4992597301487272  0.5887079221891999  0.5364015387549068
  0.5855216055800931  0.4911343441811589  0.5418227079251592
  0.3572202180369472  0.5532897605158817  0.5782447328448251
  0.5380611310162624  0.3386269623182003  0.5719522223567284
  0.4497031163626666  0.6434255333884820  0.4156903160881825
  0.6757876210119061  0.4869458048422004  0.4283203384898076
  0.5187539082134267  0.7732203011592608  0.4498616889353023
  0.8200547497516315  0.5634231038958453  0.4719225514100518
  0.5759394716442763  0.7630747685188091  0.5192305560345827
  0.7695236004335015  0.5619559852527403  0.5493855658378997
  0.3040992118873458  0.6326333142148118  0.3963610677040811
  0.6714589821055381  0.3674130104245950  0.3963503618805311
  0.2989435417631461  0.7679341101935653  0.4123851263612592
  0.8062371123866591  0.3565858299081404  0.4156886377751411
  0.4337717041984304  0.8528793072229753  0.4483655899153065
  0.9092339171075563  0.4775394924372731  0.4633884406535368
  0.1888426131539576  0.5130735947313930  0.4283191198823237
  0.5309284681498631  0.2320854124280658  0.4123513678110822
  0.0826849378974261  0.5578044243836516  0.4629328126692105
  0.5807704072781763  0.1471218194214663  0.4483230047363878
  0.1601427790773267  0.7334756060285763  0.4561687184700670
  0.7454591859270071  0.2267545594306387  0.4498303508883527
  0.0943802044717837  0.5088513115313110  0.5418219082647048
  0.5357729256845342  0.1327410720508553  0.5196032122343822
  0.1994602893155771  0.6613507524462966  0.5719669406150673
  0.6663463562608004  0.1914941553913408  0.5609669984771363
  0.2371711081394396  0.7752587620961764  0.5261928114421454
  0.8127747939249136  0.2368643662746242  0.5192021669692134
  0.4031608853030282  0.8672613566280081  0.5196461386206094
  0.9105238562702967  0.4112641037162869  0.5363929981430676
  0.4749486737668421  0.8084879167698114  0.5610046528473965
  0.8039360604177960  0.4466918562740776  0.5782445506772579
  0.3489813692283094  0.6791443035191445  0.5914554515202025
  0.6697638217377483  0.3208051312110374  0.5914370340109874
 
  0.00000000E+00  0.00000000E+00  0.00000000E+00
  0.00000000E+00  0.00000000E+00  0.00000000E+00
  0.00000000E+00  0.00000000E+00  0.00000000E+00
  0.00000000E+00  0.00000000E+00  0.00000000E+00
  0.00000000E+00  0.00000000E+00  0.00000000E+00
  0.00000000E+00  0.00000000E+00  0.00000000E+00
  0.00000000E+00  0.00000000E+00  0.00000000E+00
  0.00000000E+00  0.00000000E+00  0.00000000E+00
  0.00000000E+00  0.00000000E+00  0.00000000E+00
  0.00000000E+00  0.00000000E+00  0.00000000E+00
  0.00000000E+00  0.00000000E+00  0.00000000E+00
  0.00000000E+00  0.00000000E+00  0.00000000E+00
  0.00000000E+00  0.00000000E+00  0.00000000E+00
  0.00000000E+00  0.00000000E+00  0.00000000E+00
  0.00000000E+00  0.00000000E+00  0.00000000E+00
  0.00000000E+00  0.00000000E+00  0.00000000E+00
  0.00000000E+00  0.00000000E+00  0.00000000E+00
  0.00000000E+00  0.00000000E+00  0.00000000E+00
  0.00000000E+00  0.00000000E+00  0.00000000E+00
  0.00000000E+00  0.00000000E+00  0.00000000E+00
  0.00000000E+00  0.00000000E+00  0.00000000E+00
  0.00000000E+00  0.00000000E+00  0.00000000E+00
  0.00000000E+00  0.00000000E+00  0.00000000E+00
  0.00000000E+00  0.00000000E+00  0.00000000E+00
  0.00000000E+00  0.00000000E+00  0.00000000E+00
  0.00000000E+00  0.00000000E+00  0.00000000E+00
  0.00000000E+00  0.00000000E+00  0.00000000E+00
  0.00000000E+00  0.00000000E+00  0.00000000E+00
  0.00000000E+00  0.00000000E+00  0.00000000E+00
  0.00000000E+00  0.00000000E+00  0.00000000E+00
  0.00000000E+00  0.00000000E+00  0.00000000E+00
  0.00000000E+00  0.00000000E+00  0.00000000E+00
  0.00000000E+00  0.00000000E+00  0.00000000E+00
  0.00000000E+00  0.00000000E+00  0.00000000E+00
  0.00000000E+00  0.00000000E+00  0.00000000E+00
  0.00000000E+00  0.00000000E+00  0.00000000E+00
  0.00000000E+00  0.00000000E+00  0.00000000E+00
  0.00000000E+00  0.00000000E+00  0.00000000E+00
  0.00000000E+00  0.00000000E+00  0.00000000E+00
  0.00000000E+00  0.00000000E+00  0.00000000E+00
  0.00000000E+00  0.00000000E+00  0.00000000E+00
  0.00000000E+00  0.00000000E+00  0.00000000E+00
  0.00000000E+00  0.00000000E+00  0.00000000E+00
  0.00000000E+00  0.00000000E+00  0.00000000E+00
  0.00000000E+00  0.00000000E+00  0.00000000E+00
  0.00000000E+00  0.00000000E+00  0.00000000E+00
  0.00000000E+00  0.00000000E+00  0.00000000E+00
  0.00000000E+00  0.00000000E+00  0.00000000E+00
  0.00000000E+00  0.00000000E+00  0.00000000E+00
  0.00000000E+00  0.00000000E+00  0.00000000E+00
  0.00000000E+00  0.00000000E+00  0.00000000E+00
  0.00000000E+00  0.00000000E+00  0.00000000E+00
  0.00000000E+00  0.00000000E+00  0.00000000E+00
  0.00000000E+00  0.00000000E+00  0.00000000E+00
  0.00000000E+00  0.00000000E+00  0.00000000E+00
  0.00000000E+00  0.00000000E+00  0.00000000E+00
  0.00000000E+00  0.00000000E+00  0.00000000E+00
  0.00000000E+00  0.00000000E+00  0.00000000E+00
  0.00000000E+00  0.00000000E+00  0.00000000E+00
  0.00000000E+00  0.00000000E+00  0.00000000E+00
  0.00000000E+00  0.00000000E+00  0.00000000E+00
  0.00000000E+00  0.00000000E+00  0.00000000E+00
  0.00000000E+00  0.00000000E+00  0.00000000E+00
  0.00000000E+00  0.00000000E+00  0.00000000E+00
