C 
 1.0000000000000000
    15.9064063857776592    0.0000000000000000    0.0000000000000000
     0.0000000000000000    8.9155984075982051    0.0000000000000000
     0.0000000000000000    0.0000000000000000   16.0000000000000000
 C  
 128
Direct
  0.0831250021580843  0.4484441537902167  0.4046794508765350
  0.1364094022404391  0.3545015140635331  0.4544442508284382
  0.0218192782629359  0.3607987444029571  0.3609207347615669
  0.0960967948986869  0.2043791118948480  0.4549430807159013
  0.0260944094286185  0.2082225418167814  0.3979563630642784
 -0.0612051335822373  0.4146897497128006  0.3779355192801953
 -0.1138076972670508  0.2959793839356409  0.4082093395678300
 -0.0567720202569138  0.1685992066579105  0.4266967396255100
 -0.0527396204886958  0.5223469348453893  0.4481659225766093
  0.0355441398878537  0.5429803493795550  0.4645071982815830
  0.0686317176080928  0.5157849419555026  0.5469216276971508
 -0.1080236117864873  0.4745313596480601  0.5142489130704733
 -0.0749618266658592  0.4473851358000658  0.5966382520727981
  0.0133353681024322  0.4679880204650858  0.6129850081522834
 -0.1518999194288075  0.3363561023377565  0.4861193674228729
  0.1153386345009545  0.2836295301799119  0.5946319775855299
  0.1374527467592315  0.4039744985785174  0.5395564230894098
  0.0467362751007897  0.3256658425355529  0.6477519576631985
 -0.0202799372703682  0.2189279798105794  0.6419472586519842
 -0.0976140798761984  0.2920161401688026  0.6209827935075075
 -0.1349273401156370  0.2251741573556965  0.5484369589017258
  0.0832288065362491  0.1610262676919326  0.5406944480179242
  0.0003630500252734  0.1215441455790637  0.5694915228397305
 -0.0696326448546181  0.1253406939112600  0.5124719735292171
  0.4999883856209940  0.8466096021346080  0.3528331407963698
  0.5741259391739710  0.7623264196167281  0.3724526846380755
  0.4258248345111750  0.7624782304866877  0.3723454482620761
  0.5452195669444643  0.6313742116219848  0.4219866919162066
  0.4547166355571443  0.6315271255251180  0.4220291501611390
  0.3717983409344454  0.8465413901924255  0.4264279726076367
  0.3519726774813068  0.7622606263554156  0.5001357495017164
  0.4094969466202092  0.6313093413218722  0.4999987444265667
  0.4217367003921522  0.9773234511739870  0.4551739723090554
  0.5001369569592142  0.9773447459638053  0.4101469412550218
  0.5786197752642135  0.9771343580903102  0.4550477465215317
  0.4217574848455084  0.9771353401531677  0.5451602061470672
  0.5002037299306950  0.9769688589055908  0.5900501690462380
  0.5786182606582513  0.9769592953663773  0.5450240191170848
  0.3716862975421079  0.8462383083851901  0.5738680372696685
  0.6481473474836906  0.7619296654046368  0.4998720035031551
  0.6285678166010333  0.8462472432890837  0.4262023662824482
  0.6284461388461640  0.8459796916136560  0.5736600825510971
  0.5743171764492837  0.7618336370739553  0.6276574287690804
  0.5002230217961308  0.8460066658750899  0.6472314561124363
  0.4259808803469047  0.7619598034201912  0.6276030919419248
  0.5905137678287760  0.6311240768666464  0.4999153282640496
  0.5453289310711125  0.6310656132556856  0.5779029480491555
  0.4548108410665893  0.6311574497409939  0.5779249320464869
  0.4336172655280750  0.4680113690033323  0.4551243668268808
  0.4420477831528568  0.3134110270984909  0.4276285981019318
  0.4335656398189967  0.4679872309907851  0.5448307619146611
  0.4419425040574237  0.3133383951527270  0.5722854524826495
  0.4510169745325195  0.2142872499510526  0.4999452156983278
  0.3542923721769986  0.5309206589973861  0.5751337868076639
  0.3124425755645016  0.4056931731118278  0.6170427720872729
  0.3668321013650784  0.2747089085744672  0.6170770349631880
  0.3047829737744268  0.5562686416857500  0.4998680987595500
  0.2284299322336746  0.4661630901494068  0.4997916366708998
  0.2373975797083122  0.3670869590198942  0.5721159022897422
  0.3544024506278014  0.5309639976530940  0.4246971012626000
  0.3126074633214571  0.4057841166010916  0.3826666464623776
  0.2374876761423466  0.3671342852706102  0.4274445343552113
  0.3670010834693123  0.2748388343467388  0.3826970145844785
  0.3251506066066102  0.1496101796068127  0.4245973278179559
  0.2458748037560535  0.2125049612051930  0.4549118898573947
  0.2458263995974804  0.2124873807191173  0.5446239421632918
  0.3250481827693298  0.1495137016022418  0.5750476845837359
  0.3746572154120056  0.1241975057719420  0.4998625454090278
  0.5664186258840417  0.4678754247020859  0.4552203953537400
  0.5579289176524411  0.3132924034653070  0.4277123916309058
  0.5663389716907603  0.4678513153813585  0.5449267701741523
  0.5578224784416242  0.3132197727071144  0.5723692451727452
  0.5487901669899506  0.2141871628111797  0.5000159153930662
  0.6456082405637726  0.5306224487074939  0.5753444370119761
  0.6873160952431112  0.4053094276550652  0.6173138427431517
  0.6328423637976828  0.2744366027851752  0.6172693867099048
  0.6952439914623680  0.5558689398297504  0.5001504407191809
  0.7715390580805583  0.4656071275416753  0.5001843583202799
  0.7624018707751966  0.3665495297246735  0.5724955323517448
  0.6457183190145757  0.5306657873632018  0.4249077514669122
  0.6874942208021303  0.4054003575932348  0.3829377266904974
  0.7625234975819536  0.3665968236988039  0.4278241872167939
  0.6330164257888529  0.2745665233573369  0.3828893700044564
  0.6747249726549310  0.1492523320456227  0.4248501046819083
  0.7539967349929322  0.2119848138158529  0.4552793123023966
  0.7539138551944528  0.2119672686213342  0.5449913396789940
  0.6746071854199728  0.1491558697680470  0.5753004503384311
  0.6250919704278856  0.1239411441075192  0.5000436345223779
  0.1836802593467623  0.8914105997713087  0.6215550318067413
  0.2613125852142922  0.8623988075262932  0.5765019882244105
  0.1315594627190825  0.7607638084793539  0.6136453432130966
  0.1772668849636875  0.6517259748075800  0.5637184197736388
  0.2605280178002620  0.7101026420014293  0.5424777564338442
  0.0529984165026687  0.8015643464671212  0.5719049420520126
  0.0555862045223907  0.7210474684555033  0.4922997172950990
  0.1301477759715728  0.6270801685582367  0.4884690038988987
  0.0638508180174723  0.9585900569133773  0.5492201111509242
  0.0614092489484855  0.9793421510326635  0.4589808201267297
  0.0606017343314085  0.8270553396421148  0.4249713574340587
  0.1404144925469367  1.0206411977036900  0.5851885043750841
  0.1917661285351472  1.0623775027187186  0.5129982170053530
  0.1446581266754616  1.0377504199497400  0.4377356740281445
  0.2663173552946947  0.9684286302064169  0.5091846026715999
  0.2689102948395008  0.8879244201128662  0.4295792061111664
  0.1903557661607800  0.9286943660560977  0.3878223540505655
  0.1382307604106204  0.7980395814498271  0.3799169391510112
  0.1815097214433911  0.6688003505147007  0.4162817950583312
  0.2580809814239128  0.7308752289369073  0.4522393529797796
  0.8435895750959497  0.8598306105523407  0.6049309275086353
  0.7584279469846693  0.8531933092972390  0.5722810607146990
  0.8865974628767799  0.7268268854269722  0.5779790578751800
  0.8277740208565356  0.6387279283873797  0.5287921779115763
  0.7455938585718119  0.7123569283808326  0.5271312475960096
  0.9590608005823277  0.7689030178389050  0.5267970653926346
  0.9392232118371389  0.7118039832062654  0.4433985762609655
  0.8604137710550093  0.6293946069601738  0.4453331173521208
  0.9529574871089866  0.9312752786039100  0.5187999837819464
  0.9416523427282176  0.9763137927187201  0.4320440964031576
  0.9288437061995360  0.8354797408231778  0.3869054098498709
  0.8869294212948957  0.9919286255212257  0.5720141493126997
  0.8268574711795160  1.0592835548112365  0.5138475861407009
  0.8594851468934734  1.0499736737699119  0.4303791232125630
  0.7480619651082919  0.9768863570854619  0.5157984249265042
  0.7282199562714301  0.9198004897650174  0.4324016512528476
  0.8006725832754963  0.9618518037690560  0.3812023796231376
  0.8436848845156745  0.8288385039151672  0.3542533200952733
  0.8003313507891973  0.6967340610490295  0.3871700945159173
  0.7342953092776286  0.7574147263272559  0.4403768683535609
