Generated by VASPKIT code               
   1.00000000000000     
    19.0566762920005566   -0.0030238035763934    0.0000000000000000
    -9.5309560949481984   16.5025537672741862    0.0000000000000000
     0.0000000000000012    0.0000000000000021   19.7127104382044323
   C 
   168
Direct
  0.4748615457859771  0.7475865406573092  0.3903466526889332
  0.5251617615391666  0.2523856423970656  0.3902527980246404
  0.4769230913210265  0.6820777332100150  0.4304921866956946
  0.5230747592691500  0.3178853579617993  0.4304215343596951
  0.4653787688234772  0.8068165869738948  0.4362550450052325
  0.5345952400788789  0.1931306554934409  0.4361824366009230
  0.4101285174528968  0.6728012729130413  0.4808572306093311
  0.5898546648738119  0.3271479397561876  0.4808094965661596
  0.4018550402329524  0.7420263419067652  0.4804908392886631
  0.5981143778410427  0.2579164324635315  0.4804463682655893
  0.3986505954728230  0.8167755030329999  0.3913413279528442
  0.6014285656011324  0.1832533671921226  0.3912866249181874
  0.3179013177942096  0.7948584998944952  0.4305791855522685
  0.6821240487554121  0.2051531193741027  0.4305645580665143
  0.3271090145123594  0.7372725781774818  0.4809243020508234
  0.6728712803768033  0.2626932968935805  0.4809083534234020
  0.3723134911038741  0.7564941442243551  0.3406225213073597
  0.6278075232828328  0.2435534118504705  0.3405915905598675
  0.4202395382403168  0.7162257803945309  0.3385331172064880
  0.5798522303145077  0.2837857912200477  0.3384889344672430
  0.3841018262867948  0.6276971315794526  0.3405616091123989
  0.6160059467118160  0.3723127930872323  0.3405408242769496
  0.2837794496143076  0.7040710665728867  0.3385565915028081
  0.7163482007001036  0.2959836189720875  0.3385933693491339
  0.2434968078033961  0.6158513042933365  0.3405943639129916
  0.7566374358485888  0.3842029683657202  0.3406441411891521
  0.2958815264126571  0.5797357934991254  0.3385066610402347
  0.7042303509721819  0.4202984827074872  0.3385352704015006
  0.2524059431797738  0.7272964621276898  0.3903693994473727
  0.7476697994886905  0.2727394490183102  0.3904172326430171
  0.3413624515480009  0.5345436710806695  0.4361545520622343
  0.6586599262607962  0.4654288848755712  0.4361608991585797
  0.4180604639336138  0.6013546706279698  0.3912382067802014
  0.5819960278311243  0.3986382608655319  0.3911959161419105
  0.2726184223059178  0.5250676834334769  0.3902759321116633
  0.7274419001478449  0.4749280606942179  0.3903309873200058
  0.2050546549263572  0.5229835467864916  0.4304738398796601
  0.7949806632113336  0.4770235606326452  0.4305678267039710
  0.1831698098880423  0.5818454259382904  0.3912772320739037
  0.8169006386961115  0.4181844372619778  0.3913756214666435
  0.1931169321375492  0.6585490986906706  0.4362513361958520
  0.8069156145762122  0.3414835591914525  0.4363336970719374
  0.3401191964443697  0.5980367833249929  0.4804371007756600
  0.6598577425238261  0.4019094810153589  0.4804330747768262
  0.2626180675897700  0.5897642728604211  0.4808438517946669
  0.7373688676193382  0.4102083332614086  0.4809080383147659
  0.2578643076678944  0.6597557029782877  0.4804860929088122
  0.7421155086716311  0.3402122189901675  0.4805333403113536
  0.0890727068962605  0.8359659031616715  0.4848061421085745
  0.1639451369228127  0.2530387417246942  0.4847892406886842
  0.7468469244967366  0.9109500112310371  0.4846876938055615
  0.9109204391763299  0.1641020994958566  0.4847887703409413
  0.8360084845608853  0.7469366889207407  0.4847988799961058
  0.2530690926335666  0.0890754491154695  0.4846995397586582
  0.1517655788773737  0.9100534629816011  0.5116114269366605
  0.0898914177639440  0.2416740245406004  0.5116291166482796
  0.7583038994025557  0.8483001964640948  0.5114503083886106
  0.8482431896228135  0.0899909618191685  0.5115336603160756
  0.9100606792916537  0.7583498258207442  0.5116706667188140
  0.2416815684712574  0.1517618421650226  0.5114823262188324
  0.1256034486436519  0.7947317704310777  0.4466360522714012
  0.2051784839146578  0.3308124603933820  0.4465969509868017
  0.6690452616599032  0.8743676856052005  0.4465461849900692
  0.8743883934927439  0.2053544131491378  0.4466454539749094
  0.7948191441342090  0.6691612278573658  0.4466012266013095
  0.3308568571643136  0.1256040220234027  0.4465432056490641
  0.2150270381674133  0.8524921793256794  0.4450881079193962
  0.1474201459704503  0.3624575401272239  0.4450511161359785
  0.6374430530052351  0.7849614491966648  0.4449738746470260
  0.7849709008774681  0.1475327753336728  0.4450428443126810
  0.8526126362989572  0.6375606623022989  0.4450907589885844
  0.3625333095860341  0.2150230373229647  0.4449799111369046
  0.2238176097287692  0.9170898452974399  0.4866514696924824
  0.0828398799298071  0.3066679071859610  0.4866590169613403
  0.6933198777682748  0.7762032218344856  0.4864829585784136
  0.7761650853735773  0.0828867535023079  0.4865513831491626
  0.9171577625997855  0.6933807806502656  0.4867043230637762
  0.3067046646540561  0.2238219485631632  0.4865216190044634
  0.0925120228856926  0.7147911757896424  0.4707886781698321
  0.2851486348251413  0.3776864279415122  0.4706931319931584
  0.6221940653937281  0.9074285665447732  0.4707427480873818
  0.9074866428010750  0.2852819046346085  0.4708515650538914
  0.7148450698620223  0.6222666021225081  0.4706905456798367
  0.3776990347373044  0.0925232171430750  0.4707062792229024
  0.1478713219035015  0.6834510682902390  0.4841226428155068
  0.3165561624924393  0.4644096181288546  0.4840193618356068
  0.5354921041775711  0.8521047900430361  0.4841249216198520
  0.8522124407788922  0.3166913977195236  0.4842184859241740
  0.6834512736385179  0.5355517469970650  0.4840302295947296
  0.4644351001645290  0.1478399196382796  0.4840299607696252
  0.2859765505418679  0.8437027100494348  0.4596132245211351
  0.1562193812755979  0.4422118964211919  0.4595302412370899
  0.5577139980784551  0.7139551017836254  0.4594854438679050
  0.7139823605218609  0.1562576424116173  0.4595606302559574
  0.8438414935728034  0.5578119190458537  0.4595957117844236
  0.4423032755576983  0.2859874459874590  0.4594636213363543
  0.0383077688478508  0.7029725450992999  0.5363213699634812
  0.2970191111228146  0.3353150377567573  0.5362107792578357
  0.6646050429706847  0.9616600211151010  0.5362456323522409
  0.9616972309979985  0.2970720937334193  0.5363707707093823
  0.7029458101712223  0.6646371640052635  0.5361959364364495
  0.3352896331704400  0.0383009283722799  0.5362365185041611
  0.1041635423934011  0.7146894849569279  0.5878269420252735
  0.2853477492247194  0.3894716643353675  0.5877275986511776
  0.6105026561619837  0.8958001372856828  0.5877918133618536
  0.8958446299107479  0.2853189820770510  0.5879048772665030
  0.7146004954043121  0.6104802765282216  0.5877423789467002
  0.3894250304896403  0.1041575818656426  0.5877426780283486
  0.1733585164326996  0.7207797439754131  0.5530306837151997
  0.2792687694403426  0.4525806575154050  0.5529469361313772
  0.5473720834050866  0.8265911920098716  0.5530046602055165
  0.8266598770792939  0.2792479192188395  0.5531064708578626
  0.7207347450993424  0.5473950354197115  0.5529672833853638
  0.4525711595163173  0.1733511632712919  0.5529444438490785
  0.0538945617925819  0.7898528747231524  0.5426943019013990
  0.2101191565775338  0.2639918872447282  0.5426483409257443
  0.7359267540806300  0.9461150000106926  0.5425962917217291
  0.9460914211104097  0.2101768390882910  0.5427034296868101
  0.7898211387486995  0.7359554912261856  0.5426461106017584
  0.2639675763397520  0.0538660021114410  0.5425958723597617
  0.0875224869773632  0.8295831901526896  0.6056854828523441
  0.1704016525249088  0.2579185776903046  0.6056475109390149
  0.7420801129855334  0.9124959193990776  0.6055619324443740
  0.9124547636470126  0.1703853847495722  0.6056659888536942
  0.8295079822544693  0.7420631603703072  0.6056636732365988
  0.2578732758628988  0.0875161019935717  0.6055694596252224
  0.1258345260005456  0.7833222427421589  0.6299842555933139
  0.2167303980608395  0.3425269149838215  0.6299106897226352
  0.6575058688762780  0.8741428231304624  0.6298986230734798
  0.8741265482303930  0.2166204795869433  0.6299915105047020
  0.7832037722881680  0.6574561135466297  0.6299302475726449
  0.3424682422919929  0.1258356451679603  0.6298791399911892
  0.1516550750996402  0.9083378074210486  0.5871785028293246
  0.0916463144114843  0.2432946558992057  0.5871733436317612
  0.7567200086069974  0.8484026810113363  0.5870118318383888
  0.8483247657964128  0.0916419241479645  0.5870939770506567
  0.9082866054972101  0.7567341294088124  0.5872204779878487
  0.2432841637444270  0.1516568057717862  0.5870558724727744
  0.2270385317675121  0.9113819256854327  0.6028798763798804
  0.0886638132827073  0.3156619183953069  0.6028813352562636
  0.6843924647684076  0.7730058560646427  0.6027262050609465
  0.7729456777243939  0.0885783598055241  0.6027918285694724
  0.9113227358751956  0.6843892775819569  0.6029403765499666
  0.3156586219686446  0.2270253039973937  0.6027498186629145
  0.2117059225658124  0.8353108731528494  0.6265152796694622
  0.1647723541654074  0.3764194606465026  0.6264690425872601
  0.6236367330781931  0.7882893749094109  0.6263899630189513
  0.7882630644870545  0.1646303936155320  0.6264692386846846
  0.8352054025961380  0.6236092299480589  0.6264997496891596
  0.3763976553295549  0.2116996354502518  0.6264031264628258
  0.2443932689319936  0.8018886333672768  0.5760744343220239
  0.1981879306319030  0.4425229687993664  0.5760014933683948
  0.5574975661498840  0.7555850832708302  0.5759695877110431
  0.7556114025211400  0.1980931287595098  0.5760477955218448
  0.8018223446390991  0.5575034419935321  0.5760398867818779
  0.4425166158025249  0.2443759899139408  0.5759468950348392
  0.2964557506162606  0.8649830657958901  0.5316923398914284
  0.1350749091729710  0.4314752206083057  0.5316463514120002
  0.5685376982943779  0.7035508516180329  0.5315676837014891
  0.7035596330710518  0.1350208360521137  0.5316369028383079
  0.8649582408256862  0.5685769255918345  0.5317056317459929
  0.4315021499490541  0.2964252252008848  0.5315510294940253
  0.2872504030608738  0.9419418189907987  0.5429558068226754
  0.0580886314791016  0.3453182812630331  0.5429886169533944
  0.6547168982807960  0.7127723677336633  0.5428098624923265
  0.7127371967414788  0.0580363212864938  0.5428806467718061
  0.9419178939516897  0.6547459777853817  0.5430327407849873
  0.3453300046611503  0.2872592156417184  0.5428368487605013
 
  0.00000000E+00  0.00000000E+00  0.00000000E+00
  0.00000000E+00  0.00000000E+00  0.00000000E+00
  0.00000000E+00  0.00000000E+00  0.00000000E+00
  0.00000000E+00  0.00000000E+00  0.00000000E+00
  0.00000000E+00  0.00000000E+00  0.00000000E+00
  0.00000000E+00  0.00000000E+00  0.00000000E+00
  0.00000000E+00  0.00000000E+00  0.00000000E+00
  0.00000000E+00  0.00000000E+00  0.00000000E+00
  0.00000000E+00  0.00000000E+00  0.00000000E+00
  0.00000000E+00  0.00000000E+00  0.00000000E+00
  0.00000000E+00  0.00000000E+00  0.00000000E+00
  0.00000000E+00  0.00000000E+00  0.00000000E+00
  0.00000000E+00  0.00000000E+00  0.00000000E+00
  0.00000000E+00  0.00000000E+00  0.00000000E+00
  0.00000000E+00  0.00000000E+00  0.00000000E+00
  0.00000000E+00  0.00000000E+00  0.00000000E+00
  0.00000000E+00  0.00000000E+00  0.00000000E+00
  0.00000000E+00  0.00000000E+00  0.00000000E+00
  0.00000000E+00  0.00000000E+00  0.00000000E+00
  0.00000000E+00  0.00000000E+00  0.00000000E+00
  0.00000000E+00  0.00000000E+00  0.00000000E+00
  0.00000000E+00  0.00000000E+00  0.00000000E+00
  0.00000000E+00  0.00000000E+00  0.00000000E+00
  0.00000000E+00  0.00000000E+00  0.00000000E+00
  0.00000000E+00  0.00000000E+00  0.00000000E+00
  0.00000000E+00  0.00000000E+00  0.00000000E+00
  0.00000000E+00  0.00000000E+00  0.00000000E+00
  0.00000000E+00  0.00000000E+00  0.00000000E+00
  0.00000000E+00  0.00000000E+00  0.00000000E+00
  0.00000000E+00  0.00000000E+00  0.00000000E+00
  0.00000000E+00  0.00000000E+00  0.00000000E+00
  0.00000000E+00  0.00000000E+00  0.00000000E+00
  0.00000000E+00  0.00000000E+00  0.00000000E+00
  0.00000000E+00  0.00000000E+00  0.00000000E+00
  0.00000000E+00  0.00000000E+00  0.00000000E+00
  0.00000000E+00  0.00000000E+00  0.00000000E+00
  0.00000000E+00  0.00000000E+00  0.00000000E+00
  0.00000000E+00  0.00000000E+00  0.00000000E+00
  0.00000000E+00  0.00000000E+00  0.00000000E+00
  0.00000000E+00  0.00000000E+00  0.00000000E+00
  0.00000000E+00  0.00000000E+00  0.00000000E+00
  0.00000000E+00  0.00000000E+00  0.00000000E+00
  0.00000000E+00  0.00000000E+00  0.00000000E+00
  0.00000000E+00  0.00000000E+00  0.00000000E+00
  0.00000000E+00  0.00000000E+00  0.00000000E+00
  0.00000000E+00  0.00000000E+00  0.00000000E+00
  0.00000000E+00  0.00000000E+00  0.00000000E+00
  0.00000000E+00  0.00000000E+00  0.00000000E+00
  0.00000000E+00  0.00000000E+00  0.00000000E+00
  0.00000000E+00  0.00000000E+00  0.00000000E+00
  0.00000000E+00  0.00000000E+00  0.00000000E+00
  0.00000000E+00  0.00000000E+00  0.00000000E+00
  0.00000000E+00  0.00000000E+00  0.00000000E+00
  0.00000000E+00  0.00000000E+00  0.00000000E+00
  0.00000000E+00  0.00000000E+00  0.00000000E+00
  0.00000000E+00  0.00000000E+00  0.00000000E+00
  0.00000000E+00  0.00000000E+00  0.00000000E+00
  0.00000000E+00  0.00000000E+00  0.00000000E+00
  0.00000000E+00  0.00000000E+00  0.00000000E+00
  0.00000000E+00  0.00000000E+00  0.00000000E+00
  0.00000000E+00  0.00000000E+00  0.00000000E+00
  0.00000000E+00  0.00000000E+00  0.00000000E+00
  0.00000000E+00  0.00000000E+00  0.00000000E+00
  0.00000000E+00  0.00000000E+00  0.00000000E+00
  0.00000000E+00  0.00000000E+00  0.00000000E+00
  0.00000000E+00  0.00000000E+00  0.00000000E+00
  0.00000000E+00  0.00000000E+00  0.00000000E+00
  0.00000000E+00  0.00000000E+00  0.00000000E+00
  0.00000000E+00  0.00000000E+00  0.00000000E+00
  0.00000000E+00  0.00000000E+00  0.00000000E+00
  0.00000000E+00  0.00000000E+00  0.00000000E+00
  0.00000000E+00  0.00000000E+00  0.00000000E+00
  0.00000000E+00  0.00000000E+00  0.00000000E+00
  0.00000000E+00  0.00000000E+00  0.00000000E+00
  0.00000000E+00  0.00000000E+00  0.00000000E+00
  0.00000000E+00  0.00000000E+00  0.00000000E+00
  0.00000000E+00  0.00000000E+00  0.00000000E+00
  0.00000000E+00  0.00000000E+00  0.00000000E+00
  0.00000000E+00  0.00000000E+00  0.00000000E+00
  0.00000000E+00  0.00000000E+00  0.00000000E+00
  0.00000000E+00  0.00000000E+00  0.00000000E+00
  0.00000000E+00  0.00000000E+00  0.00000000E+00
  0.00000000E+00  0.00000000E+00  0.00000000E+00
  0.00000000E+00  0.00000000E+00  0.00000000E+00
  0.00000000E+00  0.00000000E+00  0.00000000E+00
  0.00000000E+00  0.00000000E+00  0.00000000E+00
  0.00000000E+00  0.00000000E+00  0.00000000E+00
  0.00000000E+00  0.00000000E+00  0.00000000E+00
  0.00000000E+00  0.00000000E+00  0.00000000E+00
  0.00000000E+00  0.00000000E+00  0.00000000E+00
  0.00000000E+00  0.00000000E+00  0.00000000E+00
  0.00000000E+00  0.00000000E+00  0.00000000E+00
  0.00000000E+00  0.00000000E+00  0.00000000E+00
  0.00000000E+00  0.00000000E+00  0.00000000E+00
  0.00000000E+00  0.00000000E+00  0.00000000E+00
  0.00000000E+00  0.00000000E+00  0.00000000E+00
  0.00000000E+00  0.00000000E+00  0.00000000E+00
  0.00000000E+00  0.00000000E+00  0.00000000E+00
  0.00000000E+00  0.00000000E+00  0.00000000E+00
  0.00000000E+00  0.00000000E+00  0.00000000E+00
  0.00000000E+00  0.00000000E+00  0.00000000E+00
  0.00000000E+00  0.00000000E+00  0.00000000E+00
  0.00000000E+00  0.00000000E+00  0.00000000E+00
  0.00000000E+00  0.00000000E+00  0.00000000E+00
  0.00000000E+00  0.00000000E+00  0.00000000E+00
  0.00000000E+00  0.00000000E+00  0.00000000E+00
  0.00000000E+00  0.00000000E+00  0.00000000E+00
  0.00000000E+00  0.00000000E+00  0.00000000E+00
  0.00000000E+00  0.00000000E+00  0.00000000E+00
  0.00000000E+00  0.00000000E+00  0.00000000E+00
  0.00000000E+00  0.00000000E+00  0.00000000E+00
  0.00000000E+00  0.00000000E+00  0.00000000E+00
  0.00000000E+00  0.00000000E+00  0.00000000E+00
  0.00000000E+00  0.00000000E+00  0.00000000E+00
  0.00000000E+00  0.00000000E+00  0.00000000E+00
  0.00000000E+00  0.00000000E+00  0.00000000E+00
  0.00000000E+00  0.00000000E+00  0.00000000E+00
  0.00000000E+00  0.00000000E+00  0.00000000E+00
  0.00000000E+00  0.00000000E+00  0.00000000E+00
  0.00000000E+00  0.00000000E+00  0.00000000E+00
  0.00000000E+00  0.00000000E+00  0.00000000E+00
  0.00000000E+00  0.00000000E+00  0.00000000E+00
  0.00000000E+00  0.00000000E+00  0.00000000E+00
  0.00000000E+00  0.00000000E+00  0.00000000E+00
  0.00000000E+00  0.00000000E+00  0.00000000E+00
  0.00000000E+00  0.00000000E+00  0.00000000E+00
  0.00000000E+00  0.00000000E+00  0.00000000E+00
  0.00000000E+00  0.00000000E+00  0.00000000E+00
  0.00000000E+00  0.00000000E+00  0.00000000E+00
  0.00000000E+00  0.00000000E+00  0.00000000E+00
  0.00000000E+00  0.00000000E+00  0.00000000E+00
  0.00000000E+00  0.00000000E+00  0.00000000E+00
  0.00000000E+00  0.00000000E+00  0.00000000E+00
  0.00000000E+00  0.00000000E+00  0.00000000E+00
  0.00000000E+00  0.00000000E+00  0.00000000E+00
  0.00000000E+00  0.00000000E+00  0.00000000E+00
  0.00000000E+00  0.00000000E+00  0.00000000E+00
  0.00000000E+00  0.00000000E+00  0.00000000E+00
  0.00000000E+00  0.00000000E+00  0.00000000E+00
  0.00000000E+00  0.00000000E+00  0.00000000E+00
  0.00000000E+00  0.00000000E+00  0.00000000E+00
  0.00000000E+00  0.00000000E+00  0.00000000E+00
  0.00000000E+00  0.00000000E+00  0.00000000E+00
  0.00000000E+00  0.00000000E+00  0.00000000E+00
  0.00000000E+00  0.00000000E+00  0.00000000E+00
  0.00000000E+00  0.00000000E+00  0.00000000E+00
  0.00000000E+00  0.00000000E+00  0.00000000E+00
  0.00000000E+00  0.00000000E+00  0.00000000E+00
  0.00000000E+00  0.00000000E+00  0.00000000E+00
  0.00000000E+00  0.00000000E+00  0.00000000E+00
  0.00000000E+00  0.00000000E+00  0.00000000E+00
  0.00000000E+00  0.00000000E+00  0.00000000E+00
  0.00000000E+00  0.00000000E+00  0.00000000E+00
  0.00000000E+00  0.00000000E+00  0.00000000E+00
  0.00000000E+00  0.00000000E+00  0.00000000E+00
  0.00000000E+00  0.00000000E+00  0.00000000E+00
  0.00000000E+00  0.00000000E+00  0.00000000E+00
  0.00000000E+00  0.00000000E+00  0.00000000E+00
  0.00000000E+00  0.00000000E+00  0.00000000E+00
  0.00000000E+00  0.00000000E+00  0.00000000E+00
  0.00000000E+00  0.00000000E+00  0.00000000E+00
  0.00000000E+00  0.00000000E+00  0.00000000E+00
  0.00000000E+00  0.00000000E+00  0.00000000E+00
  0.00000000E+00  0.00000000E+00  0.00000000E+00
  0.00000000E+00  0.00000000E+00  0.00000000E+00
  0.00000000E+00  0.00000000E+00  0.00000000E+00
  0.00000000E+00  0.00000000E+00  0.00000000E+00
  0.00000000E+00  0.00000000E+00  0.00000000E+00
