C                                       
   1.00000000000000     
    11.2667404044330990   -0.0968045103679925    0.0000000000000000
    -0.0953492859505708   11.2354285026086202    0.0000000000000000
     0.0000000000000000    0.0000000000000000   16.0000000000000000
  C             
    84
Direct
  0.2033331665840809  0.0451329253460450  0.5147971688965960
  0.1790900403871944  0.9631453289209160  0.4367263438902000
  0.1385159405784599  0.1673558330654129  0.5033486376095667
  0.0727317106163612  0.0193841544623778  0.3941762084825848
  0.0475133306074227  0.1227617282004989  0.4379206908029030
  0.0597824826756288  0.1824679656966920  0.5843185195423567
  0.9293692533458829  0.1978213434511376  0.5557783061115045
  0.9309601244715335  0.1434143210808482  0.4676060293624217
  0.0549567122823238  0.0614476026724260  0.6263348736435846
  0.1290491280336935  0.9864678995954418  0.5832881975828589
  0.0930157642142708  0.8697665855129153  0.5583530844410974
  0.9322943035885476  0.0138265799680103  0.6303931390162445
  0.8956497539528775  0.8934179548624540  0.6123962875660743
  0.9809703813060181  0.8049362562992564  0.5788159793850413
  0.8559426302363834  0.1002866704103731  0.5948307950506725
  0.0148277626606017  0.8241151415445169  0.4292891518679467
  0.1170076917796777  0.8587066393984401  0.4733389837517173
  0.9217181558843982  0.7743159505068929  0.4868146241862681
  0.8133800758898317  0.8430844157537962  0.4673856794427727
  0.7916367739242831  0.9043194188326903  0.5532476321275608
  0.7737422296003497  0.0364726971122254  0.5336801083389680
  0.9786504139742066  0.9298472409476820  0.3865115813260381
  0.8619348886801547  0.9487955821102900  0.4136610142928148
  0.8434911979817893  0.0566564822631526  0.4556869534979762
  0.4434494515757297  0.2196899908656165  0.5052154939929280
  0.5641954521839629  0.1907895088872687  0.5494574622444440
  0.4707377305074642  0.2827046794145804  0.4240522488989806
  0.5930524607980729  0.2754076170568272  0.4050533610720718
  0.6501808873377016  0.2304527246408439  0.4785060433016368
  0.4410910316328125  0.4031914070371839  0.4233426300123008
  0.5460625363869589  0.4750391808143676  0.4038655487762783
  0.6380759007383530  0.3942376977783746  0.3882613862952613
  0.3749085452219720  0.4335695696695243  0.5012916056782711
  0.4752081971532556  0.5256814357941643  0.5326374041302703
  0.5723350949703697  0.5725446986749512  0.4688899773499417
  0.4048514694343715  0.3261103599527160  0.5571350764429736
  0.4891480853237836  0.3573976454567346  0.6182487066222188
  0.5339875954458815  0.4778601347743007  0.6014431584559248
  0.5887614419377352  0.2813254203982516  0.6137708864146314
  0.6902401710620178  0.3496263407728594  0.5897423065741749
  0.6580532007657159  0.4713975936366094  0.5858483733919359
  0.7018808534984620  0.5247811507304757  0.5065384282258923
  0.7403478708349035  0.4162737709435997  0.4443646708000831
  0.7315838031175986  0.3130936983163070  0.5072953071841539
  0.4844158950205132  0.0413364484154668  0.4120280444311794
  0.6047060550049210  0.0012712285095382  0.4234176510856817
  0.4327332219345347  0.0843937746102514  0.4932533456236960
  0.5361834291427289  0.0564408170278115  0.5566030630700289
  0.6418657503128516  0.0061049179768757  0.5131326019374117
  0.3297762030416911  0.0028433471823821  0.5110543806860396
  0.3750195730179336  0.9173984562136958  0.5749505952546439
  0.4862438834190327  0.9491980092290185  0.6054761194788802
  0.3119881615485338  0.9258679837943234  0.4280712240511313
  0.3539067834224717  0.8010761950707198  0.4552882874280176
  0.3812727060442936  0.7983282042715159  0.5398582252133060
  0.4157220781266962  0.9570771686075148  0.3714605874213727
  0.4971287255816602  0.8547954404494108  0.3626771736320555
  0.4589077277479468  0.7598107263539426  0.4109885977284404
  0.6144385533230358  0.8869797067804234  0.3926790705594011
  0.6687748537682344  0.8058542273898178  0.4572728284037872
  0.5582173632033844  0.7078425122044030  0.4680297526985536
  0.4999266889198280  0.7514322595562368  0.5522843322688119
  0.5605193109101505  0.8425700851718833  0.5923624144189243
  0.6606203684243802  0.8757518741687879  0.5410707158822262
  0.9516228175173990  0.3624175149969191  0.4641966536044688
  0.8731250899609523  0.4553993459018329  0.4322425451880096
  0.9448968861030461  0.3391132301854684  0.5542809637538630
  0.9028897185182716  0.4642448396954031  0.5815394091099984
  0.8462635256501576  0.5397024157215198  0.5098913178548949
  0.0789340627492208  0.3283079081375998  0.5821157797017614
  0.1037140398151970  0.4507386782156296  0.6171368749300850
  0.9956674467620947  0.5251527157098623  0.6175277689469533
  0.1535657815610479  0.3163491681999972  0.4985857633335087
  0.2401857406174859  0.4411761095724888  0.4938124488056368
  0.1837158764040592  0.5107716986161426  0.5653778682266770
  0.0640519608374504  0.3504980342527449  0.4328771285163671
  0.0881420764363312  0.4477439759586688  0.3803720523767242
  0.1861709714453521  0.5075141128012748  0.4173052375352977
  0.9727320067750701  0.5175137031355698  0.3782465471209544
  0.0079217419953889  0.6135019598914943  0.4245454080571997
  0.1326868843331385  0.6134615794309034  0.4487984470367076
  0.1357988937584867  0.6202128990432736  0.5363728338218516
  0.0153236970440357  0.6477164898403568  0.5754088694952103
  0.9325932023537532  0.6443203219134643  0.4977559298146221
 
  0.00000000E+00  0.00000000E+00  0.00000000E+00
  0.00000000E+00  0.00000000E+00  0.00000000E+00
  0.00000000E+00  0.00000000E+00  0.00000000E+00
  0.00000000E+00  0.00000000E+00  0.00000000E+00
  0.00000000E+00  0.00000000E+00  0.00000000E+00
  0.00000000E+00  0.00000000E+00  0.00000000E+00
  0.00000000E+00  0.00000000E+00  0.00000000E+00
  0.00000000E+00  0.00000000E+00  0.00000000E+00
  0.00000000E+00  0.00000000E+00  0.00000000E+00
  0.00000000E+00  0.00000000E+00  0.00000000E+00
  0.00000000E+00  0.00000000E+00  0.00000000E+00
  0.00000000E+00  0.00000000E+00  0.00000000E+00
  0.00000000E+00  0.00000000E+00  0.00000000E+00
  0.00000000E+00  0.00000000E+00  0.00000000E+00
  0.00000000E+00  0.00000000E+00  0.00000000E+00
  0.00000000E+00  0.00000000E+00  0.00000000E+00
  0.00000000E+00  0.00000000E+00  0.00000000E+00
  0.00000000E+00  0.00000000E+00  0.00000000E+00
  0.00000000E+00  0.00000000E+00  0.00000000E+00
  0.00000000E+00  0.00000000E+00  0.00000000E+00
  0.00000000E+00  0.00000000E+00  0.00000000E+00
  0.00000000E+00  0.00000000E+00  0.00000000E+00
  0.00000000E+00  0.00000000E+00  0.00000000E+00
  0.00000000E+00  0.00000000E+00  0.00000000E+00
  0.00000000E+00  0.00000000E+00  0.00000000E+00
  0.00000000E+00  0.00000000E+00  0.00000000E+00
  0.00000000E+00  0.00000000E+00  0.00000000E+00
  0.00000000E+00  0.00000000E+00  0.00000000E+00
  0.00000000E+00  0.00000000E+00  0.00000000E+00
  0.00000000E+00  0.00000000E+00  0.00000000E+00
  0.00000000E+00  0.00000000E+00  0.00000000E+00
  0.00000000E+00  0.00000000E+00  0.00000000E+00
  0.00000000E+00  0.00000000E+00  0.00000000E+00
  0.00000000E+00  0.00000000E+00  0.00000000E+00
  0.00000000E+00  0.00000000E+00  0.00000000E+00
  0.00000000E+00  0.00000000E+00  0.00000000E+00
  0.00000000E+00  0.00000000E+00  0.00000000E+00
  0.00000000E+00  0.00000000E+00  0.00000000E+00
  0.00000000E+00  0.00000000E+00  0.00000000E+00
  0.00000000E+00  0.00000000E+00  0.00000000E+00
  0.00000000E+00  0.00000000E+00  0.00000000E+00
  0.00000000E+00  0.00000000E+00  0.00000000E+00
  0.00000000E+00  0.00000000E+00  0.00000000E+00
  0.00000000E+00  0.00000000E+00  0.00000000E+00
  0.00000000E+00  0.00000000E+00  0.00000000E+00
  0.00000000E+00  0.00000000E+00  0.00000000E+00
  0.00000000E+00  0.00000000E+00  0.00000000E+00
  0.00000000E+00  0.00000000E+00  0.00000000E+00
  0.00000000E+00  0.00000000E+00  0.00000000E+00
  0.00000000E+00  0.00000000E+00  0.00000000E+00
  0.00000000E+00  0.00000000E+00  0.00000000E+00
  0.00000000E+00  0.00000000E+00  0.00000000E+00
  0.00000000E+00  0.00000000E+00  0.00000000E+00
  0.00000000E+00  0.00000000E+00  0.00000000E+00
  0.00000000E+00  0.00000000E+00  0.00000000E+00
  0.00000000E+00  0.00000000E+00  0.00000000E+00
  0.00000000E+00  0.00000000E+00  0.00000000E+00
  0.00000000E+00  0.00000000E+00  0.00000000E+00
  0.00000000E+00  0.00000000E+00  0.00000000E+00
  0.00000000E+00  0.00000000E+00  0.00000000E+00
  0.00000000E+00  0.00000000E+00  0.00000000E+00
  0.00000000E+00  0.00000000E+00  0.00000000E+00
  0.00000000E+00  0.00000000E+00  0.00000000E+00
  0.00000000E+00  0.00000000E+00  0.00000000E+00
  0.00000000E+00  0.00000000E+00  0.00000000E+00
  0.00000000E+00  0.00000000E+00  0.00000000E+00
  0.00000000E+00  0.00000000E+00  0.00000000E+00
  0.00000000E+00  0.00000000E+00  0.00000000E+00
  0.00000000E+00  0.00000000E+00  0.00000000E+00
  0.00000000E+00  0.00000000E+00  0.00000000E+00
  0.00000000E+00  0.00000000E+00  0.00000000E+00
  0.00000000E+00  0.00000000E+00  0.00000000E+00
  0.00000000E+00  0.00000000E+00  0.00000000E+00
  0.00000000E+00  0.00000000E+00  0.00000000E+00
  0.00000000E+00  0.00000000E+00  0.00000000E+00
  0.00000000E+00  0.00000000E+00  0.00000000E+00
  0.00000000E+00  0.00000000E+00  0.00000000E+00
  0.00000000E+00  0.00000000E+00  0.00000000E+00
  0.00000000E+00  0.00000000E+00  0.00000000E+00
  0.00000000E+00  0.00000000E+00  0.00000000E+00
  0.00000000E+00  0.00000000E+00  0.00000000E+00
  0.00000000E+00  0.00000000E+00  0.00000000E+00
  0.00000000E+00  0.00000000E+00  0.00000000E+00
  0.00000000E+00  0.00000000E+00  0.00000000E+00
