C                                       
   1.00000000000000     
    11.7164598678227705    0.4367416592955332    0.0000000000000000
     0.3549125317995449    9.6829076899938169    0.0000000000000000
     0.0000000000000000    0.0000000000000000   16.0000000000000000
  C             
    84
Direct
  0.0644893133967934  0.8854849695176287  0.6376744844807058
  0.0900728552527130  0.0290854023621362  0.6448807283342887
  0.9458805039495789  0.8783836748092869  0.6310883447983889
  0.9872545843021712  0.1110499543475646  0.6247388010213951
  0.8961655048057328  0.0192879192620997  0.6152566343812227
  0.9130530782664935  0.7867957687867182  0.5610952099363125
  0.8527820010168546  0.8854119721609445  0.5022355110058199
  0.8414579715541453  0.0192565677020815  0.5363317932534608
  0.0260785386721805  0.7571147093798580  0.5115395427731418
  0.1270816180442700  0.8136680284549912  0.5621324505627296
  0.1920219432645205  0.9322340391853433  0.5257678252406425
  0.0120802979593872  0.8069840198881304  0.4166035577991545
  0.0714377754784951  0.9354572098556260  0.3930893970392416
  0.1564689521992559  0.9907087211339418  0.4387763949593795
  0.8882988666510544  0.8816910227239239  0.4194147112835332
  0.1230738218403068  0.1667302489732616  0.5282387081748795
  0.1807996549763761  0.0651622883027975  0.5840884522982170
  0.1440248180881462  0.1545851881758060  0.4349053849047768
  0.0241880172066232  0.1720273647911508  0.4018160740718505
  0.9876929547633579  0.0477660806917825  0.3650878633816366
  0.8748223634523539  0.0193611194739893  0.3864461407178644
  0.0111078362690060  0.1886552899364710  0.5498159564718949
  0.9538957304573306  0.1834526726791373  0.4712479349467956
  0.8411892657759460  0.1219568780715391  0.4647237968907363
  0.5050881289822096  0.8138300860988041  0.5431819946065813
  0.6223720882651960  0.8473225511870244  0.5778447510599860
  0.4899571331112927  0.8557224959922400  0.4573297132216266
  0.5761706214953775  0.9496378750672841  0.4365434656587997
  0.6424144256171598  0.9541150896656451  0.5107339823165881
  0.3844402225772559  0.9361748892283320  0.4597408146340196
  0.3987176496166018  0.0761803435464791  0.4414909823705310
  0.5173759350751643  0.0870908341105855  0.4272703870087753
  0.3222382912909484  0.9221618512354941  0.5398709465061473
  0.3103652814768678  0.0687911251707381  0.5813782768710902
  0.3480870937080172  0.1674852665362861  0.5134168824532408
  0.4112753181911287  0.8426193253446385  0.5958057307153478
  0.4590336341454058  0.9364974139923066  0.6564951260919294
  0.3998065687048195  0.0744337746944175  0.6461674322903563
  0.5802230646057607  0.9404416089082240  0.6545723559402421
  0.5876140235404723  0.0823512074805488  0.6271269451864981
  0.4793007399413107  0.1698967482973847  0.6264360831441207
  0.4549273337066461  0.2397458789920094  0.5375449199219577
  0.5631210857598504  0.1872992194378791  0.4884615072096961
  0.6290437803212591  0.0868663454259822  0.5460575492802264
  0.8353118895070503  0.6712235650331290  0.5630461045429156
  0.8503287060967225  0.6056876928055990  0.4753728767708160
  0.8496322714021403  0.5394693661372320  0.6157237918105529
  0.8868501909682167  0.4226095114825424  0.5647769561148687
  0.8881534443315521  0.4633645141001396  0.4798577712814550
  0.7441311848273299  0.5037220677148748  0.6494895500063756
  0.7220524142405376  0.3612793840965040  0.6221121825712334
  0.8114200907743424  0.3120506001397761  0.5702417575521845
  0.6545248801890703  0.5947725289631079  0.6195834023177860
  0.5830687105080929  0.5110612587159942  0.5705645254190747
  0.6228302420303019  0.3694542558359501  0.5734426508802245
  0.6964776454415357  0.7116470819442231  0.5672858226493555
  0.6615042571793885  0.6609004340499733  0.4793249544952315
  0.5891868653188813  0.5507947747244798  0.4854670067475766
  0.7511190121072606  0.6130407678196000  0.4269557886241568
  0.7292632992347209  0.4704009204843252  0.3994253219672985
  0.6239155577081268  0.4345854691259681  0.4329302150229705
  0.6388381182805786  0.3038683359348817  0.4849034550498080
  0.7728668414957999  0.2624733150991936  0.4816675511045106
  0.8179052412084957  0.3794743053069548  0.4303537790774252
  0.2045019249663458  0.4221688594688641  0.5454628903074212
  0.1073401615249774  0.4689843271880837  0.4976782787199755
  0.2670572525115983  0.5407460841031758  0.5623635492778517
  0.2024626548290385  0.6756482718896875  0.5312736654641972
  0.0953483809783323  0.6233181056666806  0.4885433946066945
  0.3720219579212896  0.5182433248033878  0.5195122200471118
  0.3780097982139471  0.6145817639711574  0.4536092860845108
  0.2755876034334737  0.7067774619111811  0.4557067309656990
  0.3914189939573622  0.3728987614011656  0.4877281523636540
  0.3845061816439588  0.3989079180636826  0.3905902220849284
  0.3887041929927441  0.5471460006246213  0.3742169909545988
  0.2766917856566173  0.3055932751382326  0.4970598513102278
  0.2093541388534353  0.2883461126260231  0.4151946537949567
  0.2871209021278138  0.3517094645797527  0.3513202965510585
  0.1132715170627002  0.4061723520159254  0.4181817213540880
  0.1150882321030625  0.5064424065159824  0.3539582303069319
  0.2246341290184387  0.4787806435009627  0.3156199205501125
  0.2902471875152384  0.5965715628033449  0.3268766231095021
  0.2211364305158161  0.6939639581156453  0.3801429151490902
  0.0989518514244292  0.6563310932514291  0.3926801425290066
 
  0.00000000E+00  0.00000000E+00  0.00000000E+00
  0.00000000E+00  0.00000000E+00  0.00000000E+00
  0.00000000E+00  0.00000000E+00  0.00000000E+00
  0.00000000E+00  0.00000000E+00  0.00000000E+00
  0.00000000E+00  0.00000000E+00  0.00000000E+00
  0.00000000E+00  0.00000000E+00  0.00000000E+00
  0.00000000E+00  0.00000000E+00  0.00000000E+00
  0.00000000E+00  0.00000000E+00  0.00000000E+00
  0.00000000E+00  0.00000000E+00  0.00000000E+00
  0.00000000E+00  0.00000000E+00  0.00000000E+00
  0.00000000E+00  0.00000000E+00  0.00000000E+00
  0.00000000E+00  0.00000000E+00  0.00000000E+00
  0.00000000E+00  0.00000000E+00  0.00000000E+00
  0.00000000E+00  0.00000000E+00  0.00000000E+00
  0.00000000E+00  0.00000000E+00  0.00000000E+00
  0.00000000E+00  0.00000000E+00  0.00000000E+00
  0.00000000E+00  0.00000000E+00  0.00000000E+00
  0.00000000E+00  0.00000000E+00  0.00000000E+00
  0.00000000E+00  0.00000000E+00  0.00000000E+00
  0.00000000E+00  0.00000000E+00  0.00000000E+00
  0.00000000E+00  0.00000000E+00  0.00000000E+00
  0.00000000E+00  0.00000000E+00  0.00000000E+00
  0.00000000E+00  0.00000000E+00  0.00000000E+00
  0.00000000E+00  0.00000000E+00  0.00000000E+00
  0.00000000E+00  0.00000000E+00  0.00000000E+00
  0.00000000E+00  0.00000000E+00  0.00000000E+00
  0.00000000E+00  0.00000000E+00  0.00000000E+00
  0.00000000E+00  0.00000000E+00  0.00000000E+00
  0.00000000E+00  0.00000000E+00  0.00000000E+00
  0.00000000E+00  0.00000000E+00  0.00000000E+00
  0.00000000E+00  0.00000000E+00  0.00000000E+00
  0.00000000E+00  0.00000000E+00  0.00000000E+00
  0.00000000E+00  0.00000000E+00  0.00000000E+00
  0.00000000E+00  0.00000000E+00  0.00000000E+00
  0.00000000E+00  0.00000000E+00  0.00000000E+00
  0.00000000E+00  0.00000000E+00  0.00000000E+00
  0.00000000E+00  0.00000000E+00  0.00000000E+00
  0.00000000E+00  0.00000000E+00  0.00000000E+00
  0.00000000E+00  0.00000000E+00  0.00000000E+00
  0.00000000E+00  0.00000000E+00  0.00000000E+00
  0.00000000E+00  0.00000000E+00  0.00000000E+00
  0.00000000E+00  0.00000000E+00  0.00000000E+00
  0.00000000E+00  0.00000000E+00  0.00000000E+00
  0.00000000E+00  0.00000000E+00  0.00000000E+00
  0.00000000E+00  0.00000000E+00  0.00000000E+00
  0.00000000E+00  0.00000000E+00  0.00000000E+00
  0.00000000E+00  0.00000000E+00  0.00000000E+00
  0.00000000E+00  0.00000000E+00  0.00000000E+00
  0.00000000E+00  0.00000000E+00  0.00000000E+00
  0.00000000E+00  0.00000000E+00  0.00000000E+00
  0.00000000E+00  0.00000000E+00  0.00000000E+00
  0.00000000E+00  0.00000000E+00  0.00000000E+00
  0.00000000E+00  0.00000000E+00  0.00000000E+00
  0.00000000E+00  0.00000000E+00  0.00000000E+00
  0.00000000E+00  0.00000000E+00  0.00000000E+00
  0.00000000E+00  0.00000000E+00  0.00000000E+00
  0.00000000E+00  0.00000000E+00  0.00000000E+00
  0.00000000E+00  0.00000000E+00  0.00000000E+00
  0.00000000E+00  0.00000000E+00  0.00000000E+00
  0.00000000E+00  0.00000000E+00  0.00000000E+00
  0.00000000E+00  0.00000000E+00  0.00000000E+00
  0.00000000E+00  0.00000000E+00  0.00000000E+00
  0.00000000E+00  0.00000000E+00  0.00000000E+00
  0.00000000E+00  0.00000000E+00  0.00000000E+00
  0.00000000E+00  0.00000000E+00  0.00000000E+00
  0.00000000E+00  0.00000000E+00  0.00000000E+00
  0.00000000E+00  0.00000000E+00  0.00000000E+00
  0.00000000E+00  0.00000000E+00  0.00000000E+00
  0.00000000E+00  0.00000000E+00  0.00000000E+00
  0.00000000E+00  0.00000000E+00  0.00000000E+00
  0.00000000E+00  0.00000000E+00  0.00000000E+00
  0.00000000E+00  0.00000000E+00  0.00000000E+00
  0.00000000E+00  0.00000000E+00  0.00000000E+00
  0.00000000E+00  0.00000000E+00  0.00000000E+00
  0.00000000E+00  0.00000000E+00  0.00000000E+00
  0.00000000E+00  0.00000000E+00  0.00000000E+00
  0.00000000E+00  0.00000000E+00  0.00000000E+00
  0.00000000E+00  0.00000000E+00  0.00000000E+00
  0.00000000E+00  0.00000000E+00  0.00000000E+00
  0.00000000E+00  0.00000000E+00  0.00000000E+00
  0.00000000E+00  0.00000000E+00  0.00000000E+00
  0.00000000E+00  0.00000000E+00  0.00000000E+00
  0.00000000E+00  0.00000000E+00  0.00000000E+00
  0.00000000E+00  0.00000000E+00  0.00000000E+00
