Generated by VASPKIT code               
   1.00000000000000     
     9.7377743263644554   -0.0248803807733849    0.0000000000000000
    -4.8932859660440311    8.9138465630528412    0.0000000000000000
     0.0000000000000013    0.0000000000000023   19.7150802273495955
  C             
    64
Direct
  0.7072897510341689  0.4173516855197539  0.6137287493647947
  0.5481429885706784  0.3373731409741628  0.5983384059418299
  0.7625978822021082  0.3103293823032511  0.5996082280724694
  0.5149362353456540  0.1942432335387729  0.5620501146712815
  0.6435700697660131  0.1717345062849504  0.5630269463950118
  0.8705370405736033  0.3722705254614098  0.5511595935311128
  0.8794663856730668  0.2781954370174445  0.4989684468866943
  0.7164871458945226  0.1410867722702251  0.4944733486926691
  0.9090188242895909  0.5194269194310905  0.5252432954465136
  0.8017843749145858  0.5686788469027190  0.5643115167828974
  0.6549563209348448  0.5225161462456471  0.5215205937622326
  0.8650648271787124  0.4870803066250544  0.4525141674341478
  0.7531469052205069  0.4971858064305029  0.4130764098182623
  0.6350300474738706  0.5079072438298353  0.4534157753851408
  0.9155729414297513  0.3759415475696036  0.4328109604772170
  0.4002216120762345  0.3143604521005211  0.5005744640183587
  0.4974934489622265  0.4289579936460653  0.5555427469683858
  0.4646497843058947  0.3993654172129029  0.4306971785800792
  0.5184427352814330  0.2986155606984752  0.3898078268918926
  0.6830886585167347  0.3715240971568146  0.3681594921166473
  0.7618850616162518  0.2829659151014233  0.3890828335735778
  0.4244393849599073  0.1752604419409312  0.4971895420866445
  0.5106454025883750  0.1852973750681687  0.4332995828702380
  0.6500354652315724  0.1726742801761200  0.4319518667034382
  0.2449252737259068  0.0763473004338173  0.4943305051783124
  0.1922603065788339  0.4017637887112636  0.4659014177628967
  0.1659248887304633  0.9556163645016860  0.5453977044733305
  0.0972837211056480  0.4819209502298345  0.4438873442848464
  0.2234060774034872  0.2090788954824558  0.5185746304266363
  0.2449818439141729  0.4640423346842411  0.5396517096171886
  0.1359199083059398  0.1495145363102833  0.5865402516220135
  0.1851613928340047  0.5505162670226763  0.5649447138187595
  0.1119180362067348  0.9982704628378050  0.6001671033455191
  0.0851973034708997  0.5752607672164880  0.5146083934516145
  0.1064518438308634  0.2310860521882591  0.4737802257930514
  0.4185965145010661  0.5312454827677607  0.5574907479738859
  0.9570800280475756  0.1850079592729665  0.5170602668870490
  0.4605496455541371  0.6891318124894390  0.5878340181519990
  0.9850937993258214  0.1316282527071320  0.5840071854976704
  0.3155903789911546  0.6893275375647211  0.5891744677351114
  0.0462947242094048  0.0997287867806925  0.4252882263537501
  0.4477836608660827  0.5850888262149075  0.4866815352352791
  0.8841943296548872  0.0015532098459892  0.4326529483593223
  0.5336288232698744  0.7316601464432630  0.4732386926791738
  0.8065349775821167  0.0430590226459654  0.4903541980303520
  0.5664950802629027  0.8206265682246475  0.5379775803711170
  0.1329381483705254  0.0169430575969480  0.4349770498665126
  0.3600385574204211  0.4855923208548930  0.4284299568923537
  0.0245232277145704  0.8672372852091559  0.4483420621597017
  0.3569867897039183  0.6184323706193093  0.3897512719058807
  0.8731681868814777  0.8577319826055104  0.4493589413079953
  0.4843381504979234  0.7678541066687664  0.4095933442810142
  0.0602388641490792  0.8095094749111313  0.5133429276129697
  0.2137665048376030  0.6171523843989151  0.4048293942719956
  0.8971239913848085  0.7520135083109000  0.5589250548909442
  0.2460378388145220  0.7578144252280047  0.4331321447013787
  0.8082070005129925  0.8069852363079627  0.5120205295146059
  0.4141057433966979  0.8505382128574326  0.4383863305705933
  0.7465652038739177  0.9093499090596113  0.5413727891506772
  0.4513953461919473  0.8752479522080325  0.5118153688728831
  0.8682567199605908  0.9736617997737465  0.5973160389407295
  0.3117875146980240  0.8056135645555009  0.5483634912043885
  0.9464121522978349  0.8888618764395128  0.6074903756949095
  0.1670022068809042  0.7409741743125232  0.5013369323021495
 
  0.00000000E+00  0.00000000E+00  0.00000000E+00
  0.00000000E+00  0.00000000E+00  0.00000000E+00
  0.00000000E+00  0.00000000E+00  0.00000000E+00
  0.00000000E+00  0.00000000E+00  0.00000000E+00
  0.00000000E+00  0.00000000E+00  0.00000000E+00
  0.00000000E+00  0.00000000E+00  0.00000000E+00
  0.00000000E+00  0.00000000E+00  0.00000000E+00
  0.00000000E+00  0.00000000E+00  0.00000000E+00
  0.00000000E+00  0.00000000E+00  0.00000000E+00
  0.00000000E+00  0.00000000E+00  0.00000000E+00
  0.00000000E+00  0.00000000E+00  0.00000000E+00
  0.00000000E+00  0.00000000E+00  0.00000000E+00
  0.00000000E+00  0.00000000E+00  0.00000000E+00
  0.00000000E+00  0.00000000E+00  0.00000000E+00
  0.00000000E+00  0.00000000E+00  0.00000000E+00
  0.00000000E+00  0.00000000E+00  0.00000000E+00
  0.00000000E+00  0.00000000E+00  0.00000000E+00
  0.00000000E+00  0.00000000E+00  0.00000000E+00
  0.00000000E+00  0.00000000E+00  0.00000000E+00
  0.00000000E+00  0.00000000E+00  0.00000000E+00
  0.00000000E+00  0.00000000E+00  0.00000000E+00
  0.00000000E+00  0.00000000E+00  0.00000000E+00
  0.00000000E+00  0.00000000E+00  0.00000000E+00
  0.00000000E+00  0.00000000E+00  0.00000000E+00
  0.00000000E+00  0.00000000E+00  0.00000000E+00
  0.00000000E+00  0.00000000E+00  0.00000000E+00
  0.00000000E+00  0.00000000E+00  0.00000000E+00
  0.00000000E+00  0.00000000E+00  0.00000000E+00
  0.00000000E+00  0.00000000E+00  0.00000000E+00
  0.00000000E+00  0.00000000E+00  0.00000000E+00
  0.00000000E+00  0.00000000E+00  0.00000000E+00
  0.00000000E+00  0.00000000E+00  0.00000000E+00
  0.00000000E+00  0.00000000E+00  0.00000000E+00
  0.00000000E+00  0.00000000E+00  0.00000000E+00
  0.00000000E+00  0.00000000E+00  0.00000000E+00
  0.00000000E+00  0.00000000E+00  0.00000000E+00
  0.00000000E+00  0.00000000E+00  0.00000000E+00
  0.00000000E+00  0.00000000E+00  0.00000000E+00
  0.00000000E+00  0.00000000E+00  0.00000000E+00
  0.00000000E+00  0.00000000E+00  0.00000000E+00
  0.00000000E+00  0.00000000E+00  0.00000000E+00
  0.00000000E+00  0.00000000E+00  0.00000000E+00
  0.00000000E+00  0.00000000E+00  0.00000000E+00
  0.00000000E+00  0.00000000E+00  0.00000000E+00
  0.00000000E+00  0.00000000E+00  0.00000000E+00
  0.00000000E+00  0.00000000E+00  0.00000000E+00
  0.00000000E+00  0.00000000E+00  0.00000000E+00
  0.00000000E+00  0.00000000E+00  0.00000000E+00
  0.00000000E+00  0.00000000E+00  0.00000000E+00
  0.00000000E+00  0.00000000E+00  0.00000000E+00
  0.00000000E+00  0.00000000E+00  0.00000000E+00
  0.00000000E+00  0.00000000E+00  0.00000000E+00
  0.00000000E+00  0.00000000E+00  0.00000000E+00
  0.00000000E+00  0.00000000E+00  0.00000000E+00
  0.00000000E+00  0.00000000E+00  0.00000000E+00
  0.00000000E+00  0.00000000E+00  0.00000000E+00
  0.00000000E+00  0.00000000E+00  0.00000000E+00
  0.00000000E+00  0.00000000E+00  0.00000000E+00
  0.00000000E+00  0.00000000E+00  0.00000000E+00
  0.00000000E+00  0.00000000E+00  0.00000000E+00
  0.00000000E+00  0.00000000E+00  0.00000000E+00
  0.00000000E+00  0.00000000E+00  0.00000000E+00
  0.00000000E+00  0.00000000E+00  0.00000000E+00
  0.00000000E+00  0.00000000E+00  0.00000000E+00
