C                                       
   1.00000000000000     
    11.2141711297701487   -0.3938862457956480    0.0000000000000000
    -5.9146129183583964   10.1092366544530030    0.0000000000000000
     0.0000000000000000    0.0000000000000000   16.0000000000000000
  C             
    84
Direct
  0.7661998546332837  0.8981065339616149  0.4505317558606317
  0.8458323561269681  0.8716121034661622  0.3856407425880686
  0.7453535089357244  0.8122013306141854  0.5252576150948322
  0.9114659476025054  0.8163267058558078  0.4288344027615592
  0.8380471995800528  0.7549063782965515  0.5093366679995941
  0.8224400800404059  0.9229881108047161  0.5882713402550631
  0.9119438977626464  0.9085774255253350  0.6430935159569576
  0.9420732355818155  0.8272265006760603  0.5849498676776872
  0.8954728409793067  0.0561623836377420  0.5508632844825658
  0.8626622671806666  0.0536847259949786  0.4586632854833977
  0.9834001047307491  0.1006520499820921  0.4004095754838412
  0.0278561881938142  0.1277452908878725  0.5869931675754595
  0.1522731513277441  0.2045086690694168  0.5295099756547373
  0.1277734819326997  0.1867830904161235  0.4312416006625201
  0.0402320892195765  0.0414557640450221  0.6494736242061594
  0.0958525800529865  0.9940930186587253  0.3591795160400824
  0.9658925338910173  0.9956109448668374  0.3517896596741857
  0.2104393186321162  0.1243969436223376  0.3979172969170547
  0.2530113422581787  0.0773253833678867  0.4732246417138653
  0.2486370863009810  0.1507783337981012  0.5515952573847166
  0.1496721457831512  0.0352059081313045  0.6097844491176136
  0.0597665582425536  0.8852710291442931  0.4127360652681669
  0.1577335947954754  0.9242021181129544  0.4877304785296566
  0.0866902090841590  0.9082805805991276  0.5682091109463633
  0.5160660578823629  0.8138180818314180  0.4230925251477393
  0.6449117639707106  0.9165358589527844  0.4694980189103417
  0.5159190790164708  0.9055079940681521  0.3555407232126651
  0.6390620603226436  0.0454133158393336  0.3643316212355547
  0.7326128091577585  0.0626608212142141  0.4389065166580535
  0.3912442339771210  0.9071322437991051  0.3652370174041010
  0.4377814818086095  0.0488234163003916  0.3793269434050547
  0.5891735996895050  0.1319231402416837  0.3774864140753111
  0.2921683692989527  0.8126968556146394  0.4380646138464369
  0.2902585844966802  0.9175094950182767  0.4934476584298517
  0.3805300749452559  0.0683323739406284  0.4573204656439042
  0.4031057998182686  0.8006803824174592  0.4773372540162792
  0.4418742998497890  0.8520663594336101  0.5558666002853450
  0.3845416486783285  0.9362466189309359  0.5665488442762000
  0.5947177258914553  0.9292815269325433  0.5570353266335965
  0.6301563309099404  0.0605314811347841  0.5692976250324993
  0.5075144667913557  0.0702623219440184  0.5736943069314370
  0.5135733790366003  0.1530289507401465  0.5078655651853812
  0.6501687270291334  0.2158571540845003  0.4572774391662522
  0.7230182765400578  0.1525123814077411  0.5026248545018951
  0.9583242361840731  0.5625593344356485  0.6568384310620100
  0.0130943833529771  0.6542803039289272  0.5881052515853665
  0.0637162625740888  0.5317523842354721  0.6735809628849634
  0.1855572304381865  0.6099168706904929  0.6155134911934704
  0.1516586588511781  0.6826953469551169  0.5642871409661890
  0.9996967998541185  0.3936038642582400  0.6496897715149230
  0.0778849552232261  0.3874289193939064  0.5829052681551020
  0.2144421491104358  0.5183178130211101  0.5627278775079414
  0.8529199626446119  0.3365249484256770  0.6208135590018350
  0.8426133826968167  0.2857655136780660  0.5323415414581504
  0.9928932142635555  0.3365989634042103  0.5116475825261997
  0.8295551039695933  0.4409407230280782  0.6229702471381301
  0.7845461004924581  0.4689146864114587  0.5370852753626845
  0.7954248181771482  0.3653014012877912  0.4775255290768539
  0.9249425026010418  0.5995142053698086  0.5175376915097353
  0.0020199625556200  0.5951398437963736  0.4492793104577851
  0.9394514957820627  0.4582486702260604  0.4279208332876219
  0.0459835540080607  0.4286883271642560  0.4452743552500781
  0.1957039648670336  0.5536309788194282  0.4684237891959949
  0.1629262912178283  0.6693437222453202  0.4684872404543733
  0.2596900452632522  0.3280513944767419  0.4166098433455604
  0.2810137516335258  0.3487417947231568  0.5137892571905220
  0.3478125939871218  0.2724274251097004  0.3819361352966846
  0.4423462890814434  0.2988012674902693  0.4560078380952084
  0.3866592710065245  0.3093006193100328  0.5384455576506371
  0.4575861723239435  0.3861485607194479  0.3212939571810657
  0.5916540208055361  0.4501411521753999  0.3614822127486023
  0.5793939575797324  0.3906117693429754  0.4416788980980619
  0.4303256404045037  0.4937981536178578  0.3277387503726458
  0.5491917814022421  0.6181762670172420  0.3627550577004849
  0.6511151271532307  0.5911325581594443  0.3849370718005297
  0.3166273049881012  0.4613399278679418  0.3786222753615324
  0.3413841893063506  0.5616496162931676  0.4437157189181099
  0.5036768977918130  0.6774353706041627  0.4294884674069915
  0.3365948477203988  0.4973661016093495  0.5337475702199710
  0.4883735273613248  0.5478915746057960  0.5591325418910453
  0.5986087125892743  0.6706380230277955  0.5093003674003654
  0.6952460046951665  0.6189802993057034  0.4781733299634844
  0.6530904318949651  0.4801556431693318  0.5156234764917542
  0.5170148479586054  0.4465681985589358  0.5648284046135423
 
  0.00000000E+00  0.00000000E+00  0.00000000E+00
  0.00000000E+00  0.00000000E+00  0.00000000E+00
  0.00000000E+00  0.00000000E+00  0.00000000E+00
  0.00000000E+00  0.00000000E+00  0.00000000E+00
  0.00000000E+00  0.00000000E+00  0.00000000E+00
  0.00000000E+00  0.00000000E+00  0.00000000E+00
  0.00000000E+00  0.00000000E+00  0.00000000E+00
  0.00000000E+00  0.00000000E+00  0.00000000E+00
  0.00000000E+00  0.00000000E+00  0.00000000E+00
  0.00000000E+00  0.00000000E+00  0.00000000E+00
  0.00000000E+00  0.00000000E+00  0.00000000E+00
  0.00000000E+00  0.00000000E+00  0.00000000E+00
  0.00000000E+00  0.00000000E+00  0.00000000E+00
  0.00000000E+00  0.00000000E+00  0.00000000E+00
  0.00000000E+00  0.00000000E+00  0.00000000E+00
  0.00000000E+00  0.00000000E+00  0.00000000E+00
  0.00000000E+00  0.00000000E+00  0.00000000E+00
  0.00000000E+00  0.00000000E+00  0.00000000E+00
  0.00000000E+00  0.00000000E+00  0.00000000E+00
  0.00000000E+00  0.00000000E+00  0.00000000E+00
  0.00000000E+00  0.00000000E+00  0.00000000E+00
  0.00000000E+00  0.00000000E+00  0.00000000E+00
  0.00000000E+00  0.00000000E+00  0.00000000E+00
  0.00000000E+00  0.00000000E+00  0.00000000E+00
  0.00000000E+00  0.00000000E+00  0.00000000E+00
  0.00000000E+00  0.00000000E+00  0.00000000E+00
  0.00000000E+00  0.00000000E+00  0.00000000E+00
  0.00000000E+00  0.00000000E+00  0.00000000E+00
  0.00000000E+00  0.00000000E+00  0.00000000E+00
  0.00000000E+00  0.00000000E+00  0.00000000E+00
  0.00000000E+00  0.00000000E+00  0.00000000E+00
  0.00000000E+00  0.00000000E+00  0.00000000E+00
  0.00000000E+00  0.00000000E+00  0.00000000E+00
  0.00000000E+00  0.00000000E+00  0.00000000E+00
  0.00000000E+00  0.00000000E+00  0.00000000E+00
  0.00000000E+00  0.00000000E+00  0.00000000E+00
  0.00000000E+00  0.00000000E+00  0.00000000E+00
  0.00000000E+00  0.00000000E+00  0.00000000E+00
  0.00000000E+00  0.00000000E+00  0.00000000E+00
  0.00000000E+00  0.00000000E+00  0.00000000E+00
  0.00000000E+00  0.00000000E+00  0.00000000E+00
  0.00000000E+00  0.00000000E+00  0.00000000E+00
  0.00000000E+00  0.00000000E+00  0.00000000E+00
  0.00000000E+00  0.00000000E+00  0.00000000E+00
  0.00000000E+00  0.00000000E+00  0.00000000E+00
  0.00000000E+00  0.00000000E+00  0.00000000E+00
  0.00000000E+00  0.00000000E+00  0.00000000E+00
  0.00000000E+00  0.00000000E+00  0.00000000E+00
  0.00000000E+00  0.00000000E+00  0.00000000E+00
  0.00000000E+00  0.00000000E+00  0.00000000E+00
  0.00000000E+00  0.00000000E+00  0.00000000E+00
  0.00000000E+00  0.00000000E+00  0.00000000E+00
  0.00000000E+00  0.00000000E+00  0.00000000E+00
  0.00000000E+00  0.00000000E+00  0.00000000E+00
  0.00000000E+00  0.00000000E+00  0.00000000E+00
  0.00000000E+00  0.00000000E+00  0.00000000E+00
  0.00000000E+00  0.00000000E+00  0.00000000E+00
  0.00000000E+00  0.00000000E+00  0.00000000E+00
  0.00000000E+00  0.00000000E+00  0.00000000E+00
  0.00000000E+00  0.00000000E+00  0.00000000E+00
  0.00000000E+00  0.00000000E+00  0.00000000E+00
  0.00000000E+00  0.00000000E+00  0.00000000E+00
  0.00000000E+00  0.00000000E+00  0.00000000E+00
  0.00000000E+00  0.00000000E+00  0.00000000E+00
  0.00000000E+00  0.00000000E+00  0.00000000E+00
  0.00000000E+00  0.00000000E+00  0.00000000E+00
  0.00000000E+00  0.00000000E+00  0.00000000E+00
  0.00000000E+00  0.00000000E+00  0.00000000E+00
  0.00000000E+00  0.00000000E+00  0.00000000E+00
  0.00000000E+00  0.00000000E+00  0.00000000E+00
  0.00000000E+00  0.00000000E+00  0.00000000E+00
  0.00000000E+00  0.00000000E+00  0.00000000E+00
  0.00000000E+00  0.00000000E+00  0.00000000E+00
  0.00000000E+00  0.00000000E+00  0.00000000E+00
  0.00000000E+00  0.00000000E+00  0.00000000E+00
  0.00000000E+00  0.00000000E+00  0.00000000E+00
  0.00000000E+00  0.00000000E+00  0.00000000E+00
  0.00000000E+00  0.00000000E+00  0.00000000E+00
  0.00000000E+00  0.00000000E+00  0.00000000E+00
  0.00000000E+00  0.00000000E+00  0.00000000E+00
  0.00000000E+00  0.00000000E+00  0.00000000E+00
  0.00000000E+00  0.00000000E+00  0.00000000E+00
  0.00000000E+00  0.00000000E+00  0.00000000E+00
  0.00000000E+00  0.00000000E+00  0.00000000E+00
