Generated by VASPKIT code               
   1.00000000000000     
    11.8146841835132133    0.3539847030487012    0.0000000000000000
     0.3174460943856144   11.5057925252789293    0.0000000000000000
     0.0000000000000013    0.0000000000000013   19.7156779836783826
   C 
    88
Direct
  0.5699468162845420  0.1488905286030686  0.5569428531542684
  0.8477574692088865  0.5820442783657001  0.5680051063257920
  0.5452923449245120  0.0587189302051812  0.6005244423235965
  0.9409460015085855  0.6113127409814183  0.6089331542949523
  0.6522089479258284  0.0990720969583236  0.5108194360621710
  0.8444908512184028  0.6396452688279410  0.5068530363912700
  0.6020780467943752  0.9486185367115212  0.5798855347103071
  0.0128015065821998  0.6911382543185596  0.5673231110934012
  0.6918425289032726  0.9689863822171816  0.5264972536999295
  0.9502852001225861  0.7037043196046540  0.4926083509643036
  0.6193931965506181  0.1131768212495956  0.4451306596415847
  0.8082336124773448  0.5602219927399830  0.4512487224873851
  0.6276032564570286  0.0010902156272792  0.4126885481254092
  0.9068730955070237  0.5683077050772809  0.4009019342543922
  0.6626275383620879  0.9085023159051602  0.4554469757545192
  0.9929495713787304  0.6390554185586055  0.4322026656083580
  0.5003382381796655  0.1713398796844956  0.4391209282741997
  0.8446710432201314  0.4391850281261966  0.4840161390850923
  0.4580066408926129  0.1883206071240622  0.5177341985044279
  0.8539440507374678  0.4531743168268889  0.5570500004555896
  0.3788637117047173  0.1059246841181363  0.5462367824524961
  0.9436878762476582  0.4050146117648126  0.5944365564349496
  0.4410666990386574  0.0754597319108044  0.4024337633377115
  0.9233080551633037  0.3796383122283586  0.4454766775336552
  0.3542669059775818  0.0153788826779859  0.4315181035740281
  0.0222928002282430  0.3150678273271836  0.4775404998535038
  0.3034894380788913  0.0337885292469906  0.5032727427064501
  0.0352064759612887  0.3258290212853225  0.5619200910405198
  0.5250639386743288  0.9850027303568041  0.3762330154685145
  0.9617162099134973  0.4592488289533421  0.3919429600554523
  0.4071538015526670  0.9224491442093523  0.5894829354645879
  0.1095340975852324  0.5031939772339484  0.6017990723047646
  0.4230993474339400  0.0438949000178184  0.6012954346596615
  0.9965043398647566  0.5056657531573663  0.6268205963893365
  0.3312937616752265  0.9116024629174504  0.5343141884225702
  0.1403674064575711  0.3996337051689309  0.5693874906978706
  0.3860598503020043  0.8418852728780237  0.4852245201635981
  0.1988094908983840  0.4293166129111512  0.5033585080265013
  0.3844789743115911  0.8896261148867737  0.4207328402078829
  0.1204252324923019  0.3814366315667499  0.4506160051739840
  0.4930888047326079  0.8728091195355319  0.3910599014037572
  0.0817656061082914  0.4653323867995809  0.4053804241455339
  0.5171661929485651  0.8703079570321179  0.5709746014931696
  0.1220200856605373  0.6114163407726139  0.5597242457416769
  0.5033993074409295  0.7978869391533223  0.5083360291371335
  0.1572906166342634  0.5652436806961987  0.4978158129862464
  0.5791835843084030  0.8100096988105889  0.4419288951864289
  0.1006600434775891  0.5831144163477475  0.4329394695422764
  0.0143909733277994  0.1848464361783897  0.4835704013208684
  0.4977129156008147  0.3076691999149261  0.4337235326398314
  0.0297855972540972  0.1904277827573040  0.5654425672187173
  0.4337557795626168  0.3206683888170332  0.5054796601802209
  0.9032892603179903  0.1276268209460625  0.4748185741642885
  0.6113913214638984  0.3604065947099073  0.4480744069264873
  0.8562474049190385  0.0997435218718010  0.5384519513622479
  0.6184477120952465  0.3941273521284288  0.5167418165613711
  0.9252879062752726  0.1299214539349975  0.5922824475666388
  0.5139745778079359  0.3823777099647572  0.5502653311983465
  0.9230230101100929  0.0175928892162815  0.4414206709941411
  0.6322779536553256  0.4581237228816448  0.4070163700368994
  0.8810374443814553  0.9247652982842709  0.4774391344129825
  0.6777878843935170  0.5601746169518691  0.4478226284738369
  0.8216937495698033  0.9705176534888338  0.5410993986992096
  0.6435849039048804  0.5158845100433354  0.5184171505484017
  0.0435601032543786  0.9961927775250388  0.4324327184915902
  0.5333358572826938  0.4893921061916870  0.3707804861165869
  0.0767964504051051  0.8856988759160132  0.4630434971588286
  0.4969749588954713  0.6048909892013015  0.3897155366310017
  0.9700600011555025  0.8325951168316195  0.4916072189275837
  0.5819852081433368  0.6649609370485905  0.4373566096569164
  0.0980347233026109  0.0925559319075191  0.4579401391268476
  0.4473598007495880  0.4029041243791056  0.3880521608730589
  0.1761304950897653  0.0476775235839639  0.5128584789291963
  0.3623033002611677  0.4653540442297768  0.4212129082619214
  0.1479506048995987  0.9174155750913044  0.5177338629154846
  0.3917582532288009  0.5877372080776553  0.4228481427933488
  0.1221671487360467  0.0979298751971385  0.5785436427816677
  0.3299625302695617  0.4215961247318845  0.4928223848883633
  0.0795468043350027  0.0036904887648248  0.6137278418402943
  0.3781808879420154  0.5225079992421158  0.5329360241741909
  0.1006954190449818  0.8940020866135967  0.5812819937347413
  0.3984438536425046  0.6189631817926937  0.4914989484597072
  0.9965989991873627  0.8287401425388197  0.5724253861791340
  0.5115049159076648  0.6684249280301344  0.5064074644054628
  0.9032799705044567  0.9203894982597376  0.5979782548359935
  0.5621048199327845  0.5790915565754631  0.5534630910757343
  0.9579852545896372  0.0178271274977178  0.6227101321268691
  0.4760386324911607  0.4949039170043363  0.5706879562599667
 
  0.00000000E+00  0.00000000E+00  0.00000000E+00
  0.00000000E+00  0.00000000E+00  0.00000000E+00
  0.00000000E+00  0.00000000E+00  0.00000000E+00
  0.00000000E+00  0.00000000E+00  0.00000000E+00
  0.00000000E+00  0.00000000E+00  0.00000000E+00
  0.00000000E+00  0.00000000E+00  0.00000000E+00
  0.00000000E+00  0.00000000E+00  0.00000000E+00
  0.00000000E+00  0.00000000E+00  0.00000000E+00
  0.00000000E+00  0.00000000E+00  0.00000000E+00
  0.00000000E+00  0.00000000E+00  0.00000000E+00
  0.00000000E+00  0.00000000E+00  0.00000000E+00
  0.00000000E+00  0.00000000E+00  0.00000000E+00
  0.00000000E+00  0.00000000E+00  0.00000000E+00
  0.00000000E+00  0.00000000E+00  0.00000000E+00
  0.00000000E+00  0.00000000E+00  0.00000000E+00
  0.00000000E+00  0.00000000E+00  0.00000000E+00
  0.00000000E+00  0.00000000E+00  0.00000000E+00
  0.00000000E+00  0.00000000E+00  0.00000000E+00
  0.00000000E+00  0.00000000E+00  0.00000000E+00
  0.00000000E+00  0.00000000E+00  0.00000000E+00
  0.00000000E+00  0.00000000E+00  0.00000000E+00
  0.00000000E+00  0.00000000E+00  0.00000000E+00
  0.00000000E+00  0.00000000E+00  0.00000000E+00
  0.00000000E+00  0.00000000E+00  0.00000000E+00
  0.00000000E+00  0.00000000E+00  0.00000000E+00
  0.00000000E+00  0.00000000E+00  0.00000000E+00
  0.00000000E+00  0.00000000E+00  0.00000000E+00
  0.00000000E+00  0.00000000E+00  0.00000000E+00
  0.00000000E+00  0.00000000E+00  0.00000000E+00
  0.00000000E+00  0.00000000E+00  0.00000000E+00
  0.00000000E+00  0.00000000E+00  0.00000000E+00
  0.00000000E+00  0.00000000E+00  0.00000000E+00
  0.00000000E+00  0.00000000E+00  0.00000000E+00
  0.00000000E+00  0.00000000E+00  0.00000000E+00
  0.00000000E+00  0.00000000E+00  0.00000000E+00
  0.00000000E+00  0.00000000E+00  0.00000000E+00
  0.00000000E+00  0.00000000E+00  0.00000000E+00
  0.00000000E+00  0.00000000E+00  0.00000000E+00
  0.00000000E+00  0.00000000E+00  0.00000000E+00
  0.00000000E+00  0.00000000E+00  0.00000000E+00
  0.00000000E+00  0.00000000E+00  0.00000000E+00
  0.00000000E+00  0.00000000E+00  0.00000000E+00
  0.00000000E+00  0.00000000E+00  0.00000000E+00
  0.00000000E+00  0.00000000E+00  0.00000000E+00
  0.00000000E+00  0.00000000E+00  0.00000000E+00
  0.00000000E+00  0.00000000E+00  0.00000000E+00
  0.00000000E+00  0.00000000E+00  0.00000000E+00
  0.00000000E+00  0.00000000E+00  0.00000000E+00
  0.00000000E+00  0.00000000E+00  0.00000000E+00
  0.00000000E+00  0.00000000E+00  0.00000000E+00
  0.00000000E+00  0.00000000E+00  0.00000000E+00
  0.00000000E+00  0.00000000E+00  0.00000000E+00
  0.00000000E+00  0.00000000E+00  0.00000000E+00
  0.00000000E+00  0.00000000E+00  0.00000000E+00
  0.00000000E+00  0.00000000E+00  0.00000000E+00
  0.00000000E+00  0.00000000E+00  0.00000000E+00
  0.00000000E+00  0.00000000E+00  0.00000000E+00
  0.00000000E+00  0.00000000E+00  0.00000000E+00
  0.00000000E+00  0.00000000E+00  0.00000000E+00
  0.00000000E+00  0.00000000E+00  0.00000000E+00
  0.00000000E+00  0.00000000E+00  0.00000000E+00
  0.00000000E+00  0.00000000E+00  0.00000000E+00
  0.00000000E+00  0.00000000E+00  0.00000000E+00
  0.00000000E+00  0.00000000E+00  0.00000000E+00
  0.00000000E+00  0.00000000E+00  0.00000000E+00
  0.00000000E+00  0.00000000E+00  0.00000000E+00
  0.00000000E+00  0.00000000E+00  0.00000000E+00
  0.00000000E+00  0.00000000E+00  0.00000000E+00
  0.00000000E+00  0.00000000E+00  0.00000000E+00
  0.00000000E+00  0.00000000E+00  0.00000000E+00
  0.00000000E+00  0.00000000E+00  0.00000000E+00
  0.00000000E+00  0.00000000E+00  0.00000000E+00
  0.00000000E+00  0.00000000E+00  0.00000000E+00
  0.00000000E+00  0.00000000E+00  0.00000000E+00
  0.00000000E+00  0.00000000E+00  0.00000000E+00
  0.00000000E+00  0.00000000E+00  0.00000000E+00
  0.00000000E+00  0.00000000E+00  0.00000000E+00
  0.00000000E+00  0.00000000E+00  0.00000000E+00
  0.00000000E+00  0.00000000E+00  0.00000000E+00
  0.00000000E+00  0.00000000E+00  0.00000000E+00
  0.00000000E+00  0.00000000E+00  0.00000000E+00
  0.00000000E+00  0.00000000E+00  0.00000000E+00
  0.00000000E+00  0.00000000E+00  0.00000000E+00
  0.00000000E+00  0.00000000E+00  0.00000000E+00
  0.00000000E+00  0.00000000E+00  0.00000000E+00
  0.00000000E+00  0.00000000E+00  0.00000000E+00
  0.00000000E+00  0.00000000E+00  0.00000000E+00
  0.00000000E+00  0.00000000E+00  0.00000000E+00
