Generated by VASPKIT code               
   1.00000000000000     
    10.2924069187846570    0.0402466891885457    0.0000000000000000
    -5.1077378228749311    8.9986681522578102    0.0000000000000000
     0.0000000000000013    0.0000000000000023   19.7165325079040521
   C 
    64
Direct
  0.7289622976897618  0.6013034879901582  0.4823867040603957
  0.8506908108368378  0.5976079812107571  0.5265394883803864
  0.7261104471374153  0.5245188168633703  0.4202703560203318
  0.9183049470379245  0.5089022466718944  0.4901152502894490
  0.8261082782520788  0.4612602156069272  0.4243692754668231
  0.5858572886451157  0.4191184077394610  0.4026712739110181
  0.5994841307141883  0.2906269039841689  0.3823397353484168
  0.7534580621811386  0.3186647454614260  0.3993578457355866
  0.4724328812550809  0.3922408231408170  0.4602244761045924
  0.5755922651243139  0.5020204493231901  0.5196385951196874
  0.6187969494997176  0.4392263064612862  0.5787796792184068
  0.4132783121167307  0.2161100875571904  0.4760977660355508
  0.4755789483785406  0.1833485512519246  0.5400994144550424
  0.5566230033917705  0.2809958596270761  0.5896690024698117
  0.5040784965321237  0.1796057098760002  0.4244262460090908
  0.8128457118785093  0.3936034249659102  0.5969382776463590
  0.7714145992595220  0.5066289715396550  0.5866653026565416
  0.6798728953300071  0.2500490602867913  0.6069398680935976
  0.6787880779788438  0.1404331091453983  0.5676803968304966
  0.5338865237044175  0.0724646331451879  0.5279410181121733
  0.5876944531923556  0.1219396306819291  0.4593849457412418
  0.8785900827755881  0.3817690072774695  0.5391188482990614
  0.8182903490104962  0.2226409592501852  0.5186372445296641
  0.7371591152709840  0.2063509419935414  0.4505704100005516
  0.4351642482433320  0.9070917655754442  0.5201596069453984
  0.8296668759237136  0.0120642923093612  0.4750898702272011
  0.2692886660659468  0.8451802083464699  0.5365755713939890
  0.7502828276560720  0.8592457351196359  0.5143642411604077
  0.4285895101189965  0.8443643648128898  0.4484046267277790
  0.9055221204977997  0.0098252211441405  0.4189703860268992
  0.2865771485363098  0.7675232734027659  0.4217084791472416
  0.9019203904777768  0.8675160546765142  0.4171602905832614
  0.1720226836317380  0.7549799234148225  0.4732870335848105
  0.8144653056317566  0.7712044459526979  0.4772668959291479
  0.5011159016936730  0.7544433853211459  0.4457523260941301
  0.0595181798139990  0.1338662179258350  0.4219283876615805
  0.4062513782971635  0.6156238669348753  0.4181337578628828
  0.1451279956437403  0.0633468150280905  0.4252240637344755
  0.2685437538384292  0.6208311009760621  0.4048815640706707
  0.0505767261427295  0.9057352269007879  0.4220507991371178
  0.5737695775029223  0.7593839679221617  0.5137122557147649
  0.0906662229370809  0.2402459591791057  0.4822716409297101
  0.4828042436694489  0.5793989864546631  0.5277829569133772
  0.1703036281905241  0.1793903547303515  0.5253725835563756
  0.3812575338722013  0.4847251623634321  0.4631559410415989
  0.2490228199735682  0.1106799141579415  0.4857595279243085
  0.4899545184910181  0.8150760614535031  0.5575439083666325
  0.9195146579728970  0.1544374592739004  0.5170022304710784
  0.3815978802858382  0.7109502962817018  0.5974310631253061
  0.9426047134635027  0.0754349673205539  0.5774663250252274
  0.3649555223911420  0.5661450963075296  0.5776898065791798
  0.0967630312541061  0.1051636157324154  0.5818638136093313
  0.2432476996287107  0.7174585721040145  0.5855561821918229
  0.8551759355832047  0.9205952084741185  0.5759821068037567
  0.1524844654294668  0.5810594224272663  0.5559838844739389
  0.9567802420156895  0.8598657764176210  0.5806914893780615
  0.2213917965181622  0.4882338420241439  0.5521550179359593
  0.1034042888381776  0.9689674179511272  0.5857319804641392
  0.2003851445408955  0.4143261683933162  0.4824409413068338
  0.1973421053036191  0.9545492324058173  0.5297888216268447
  0.1579520804831560  0.5167926597260717  0.4441991994013321
  0.0829958812794160  0.8352761799691777  0.4797521811887293
  0.0864759679399043  0.5875664043367266  0.4878869636073233
  0.9372854030287172  0.7633370457000694  0.5219786682893854
 
  0.00000000E+00  0.00000000E+00  0.00000000E+00
  0.00000000E+00  0.00000000E+00  0.00000000E+00
  0.00000000E+00  0.00000000E+00  0.00000000E+00
  0.00000000E+00  0.00000000E+00  0.00000000E+00
  0.00000000E+00  0.00000000E+00  0.00000000E+00
  0.00000000E+00  0.00000000E+00  0.00000000E+00
  0.00000000E+00  0.00000000E+00  0.00000000E+00
  0.00000000E+00  0.00000000E+00  0.00000000E+00
  0.00000000E+00  0.00000000E+00  0.00000000E+00
  0.00000000E+00  0.00000000E+00  0.00000000E+00
  0.00000000E+00  0.00000000E+00  0.00000000E+00
  0.00000000E+00  0.00000000E+00  0.00000000E+00
  0.00000000E+00  0.00000000E+00  0.00000000E+00
  0.00000000E+00  0.00000000E+00  0.00000000E+00
  0.00000000E+00  0.00000000E+00  0.00000000E+00
  0.00000000E+00  0.00000000E+00  0.00000000E+00
  0.00000000E+00  0.00000000E+00  0.00000000E+00
  0.00000000E+00  0.00000000E+00  0.00000000E+00
  0.00000000E+00  0.00000000E+00  0.00000000E+00
  0.00000000E+00  0.00000000E+00  0.00000000E+00
  0.00000000E+00  0.00000000E+00  0.00000000E+00
  0.00000000E+00  0.00000000E+00  0.00000000E+00
  0.00000000E+00  0.00000000E+00  0.00000000E+00
  0.00000000E+00  0.00000000E+00  0.00000000E+00
  0.00000000E+00  0.00000000E+00  0.00000000E+00
  0.00000000E+00  0.00000000E+00  0.00000000E+00
  0.00000000E+00  0.00000000E+00  0.00000000E+00
  0.00000000E+00  0.00000000E+00  0.00000000E+00
  0.00000000E+00  0.00000000E+00  0.00000000E+00
  0.00000000E+00  0.00000000E+00  0.00000000E+00
  0.00000000E+00  0.00000000E+00  0.00000000E+00
  0.00000000E+00  0.00000000E+00  0.00000000E+00
  0.00000000E+00  0.00000000E+00  0.00000000E+00
  0.00000000E+00  0.00000000E+00  0.00000000E+00
  0.00000000E+00  0.00000000E+00  0.00000000E+00
  0.00000000E+00  0.00000000E+00  0.00000000E+00
  0.00000000E+00  0.00000000E+00  0.00000000E+00
  0.00000000E+00  0.00000000E+00  0.00000000E+00
  0.00000000E+00  0.00000000E+00  0.00000000E+00
  0.00000000E+00  0.00000000E+00  0.00000000E+00
  0.00000000E+00  0.00000000E+00  0.00000000E+00
  0.00000000E+00  0.00000000E+00  0.00000000E+00
  0.00000000E+00  0.00000000E+00  0.00000000E+00
  0.00000000E+00  0.00000000E+00  0.00000000E+00
  0.00000000E+00  0.00000000E+00  0.00000000E+00
  0.00000000E+00  0.00000000E+00  0.00000000E+00
  0.00000000E+00  0.00000000E+00  0.00000000E+00
  0.00000000E+00  0.00000000E+00  0.00000000E+00
  0.00000000E+00  0.00000000E+00  0.00000000E+00
  0.00000000E+00  0.00000000E+00  0.00000000E+00
  0.00000000E+00  0.00000000E+00  0.00000000E+00
  0.00000000E+00  0.00000000E+00  0.00000000E+00
  0.00000000E+00  0.00000000E+00  0.00000000E+00
  0.00000000E+00  0.00000000E+00  0.00000000E+00
  0.00000000E+00  0.00000000E+00  0.00000000E+00
  0.00000000E+00  0.00000000E+00  0.00000000E+00
  0.00000000E+00  0.00000000E+00  0.00000000E+00
  0.00000000E+00  0.00000000E+00  0.00000000E+00
  0.00000000E+00  0.00000000E+00  0.00000000E+00
  0.00000000E+00  0.00000000E+00  0.00000000E+00
  0.00000000E+00  0.00000000E+00  0.00000000E+00
  0.00000000E+00  0.00000000E+00  0.00000000E+00
  0.00000000E+00  0.00000000E+00  0.00000000E+00
  0.00000000E+00  0.00000000E+00  0.00000000E+00
