Generated by VASPKIT code               
   1.00000000000000     
    10.7467007347454544    0.1207038140323572    0.0000000000000000
    -5.2665789445615765    9.0541394093851419    0.0000000000000000
     0.0000000000000013    0.0000000000000023   19.7151730478690013
   C 
    64
Direct
  0.3717195877474211  0.8243468220231875  0.6016143288431408
  0.2830014806409764  0.8732331979779744  0.5587549496146096
  0.2935065392827170  0.6689772818019932  0.6230855867668339
  0.1821115468900203  0.7152415368658751  0.5350014721718637
  0.1706725746031310  0.5989188568605499  0.5745118141074528
  0.3749031390075430  0.6033490071149714  0.6047050345328628
  0.2948184806207479  0.4815087032120360  0.5581844007094077
  0.1641464822681868  0.4786642937658954  0.5369965298591168
  0.4967875849322922  0.7120611194484923  0.5638419073969629
  0.4949440307430706  0.8466176009792790  0.5645889145967260
  0.5189423803913513  0.9343769389246930  0.5000486321827822
  0.4967667288123820  0.6456756881148493  0.5000769962201588
  0.4968309959953743  0.7120523776587007  0.4363049546404412
  0.4950006899307624  0.8465996877258846  0.4355238362432274
  0.3764890185016938  0.4918804369679393  0.5000661621960489
  0.2830506526299885  0.8732327269788698  0.4412643203306885
  0.3842111075290973  0.9500854143865709  0.5000165691314393
  0.3718415695556629  0.8243539847980799  0.3984472282542129
  0.2936617040833696  0.6689880716302667  0.3769614820592224
  0.3750296816547802  0.6033587322792613  0.3953991881807255
  0.2948974274485394  0.4815136689608579  0.4419101227030708
  0.1821542946409451  0.7152483253876056  0.4649993060645201
  0.1707757593150205  0.5989295269346258  0.4255052043825387
  0.1641996025936550  0.4786725288307352  0.4630411550377858
  0.5024301000197724  0.3504474857452138  0.5360721572799818
  0.8228518292031097  0.8509728008641773  0.5589963903119184
  0.4913532862189882  0.2160945643801426  0.5598747820974594
  0.8370909482133229  0.9859483694448699  0.5376513974022643
  0.5025337067386033  0.3503947370019560  0.4637243012292984
  0.9555968746433123  0.8881339991093995  0.5929779041689045
  0.4914736039708316  0.2160027771386197  0.4400022764939067
  0.0484834411081323  0.0476245185088615  0.5981169411862339
  0.4723007685935698  0.1166108745093553  0.4999764358363450
  0.9734068834575922  0.1059321243771336  0.5602912932942772
  0.6289778153336059  0.4779864242054330  0.4400610750289147
  0.0240022969867439  0.8232308124038283  0.5596408896119414
  0.7085030900862961  0.4215037880963024  0.4065101443580446
  0.1774397346804477  0.9340101436883330  0.5452163975162350
  0.6233776111876637  0.2586243285680752  0.4064163580080233
  0.1740834277599816  0.0756053703878621  0.5596197789569715
  0.7104679932869971  0.5758083360025097  0.4999136264510966
  0.9385467995137020  0.7332321093500127  0.4999596417918326
  0.8565297277594084  0.5658889421001305  0.4999587445672944
  0.0240746161251479  0.8233038963316659  0.4403045841329529
  0.8388251424886732  0.4647871324891710  0.4408499344969314
  0.1774961246149402  0.9340513471981637  0.4547849924365934
  0.6288803195968100  0.4780456362912560  0.5597465324427091
  0.7973384072364098  0.7458186059793945  0.4999394888744320
  0.7083346411771174  0.4216196310851359  0.5933984562032393
  0.8229343366751252  0.8510694500544744  0.4409219088023946
  0.8387253618094803  0.4648665859963472  0.5591272421065412
  0.9557211243642030  0.8882767492396155  0.4069781883286581
  0.6232069292960887  0.2587605277732621  0.5935315975685853
  0.8371457029172760  0.9860069479242171  0.4623032796118309
  0.7016417865606570  0.2019921436500383  0.5595006212544575
  0.9735016817765185  0.1060288753393124  0.4397222538494887
  0.8300156915128696  0.3297219866677779  0.5359689916684829
  0.0486215623185728  0.0477746481519645  0.4018968586247027
  0.8300859228449653  0.3296660659882420  0.4640903901745403
  0.1741772591518043  0.0756872457169067  0.4404214238024764
  0.7017545933682925  0.2019104291348270  0.4405484828659425
  0.1801968390843811  0.1547284586868543  0.5000292018002881
  0.6162799229897686  0.1044130907818044  0.5000273346194888
  0.0544610355100943  0.1761995100081748  0.5000228489367444
 
  0.00000000E+00  0.00000000E+00  0.00000000E+00
  0.00000000E+00  0.00000000E+00  0.00000000E+00
  0.00000000E+00  0.00000000E+00  0.00000000E+00
  0.00000000E+00  0.00000000E+00  0.00000000E+00
  0.00000000E+00  0.00000000E+00  0.00000000E+00
  0.00000000E+00  0.00000000E+00  0.00000000E+00
  0.00000000E+00  0.00000000E+00  0.00000000E+00
  0.00000000E+00  0.00000000E+00  0.00000000E+00
  0.00000000E+00  0.00000000E+00  0.00000000E+00
  0.00000000E+00  0.00000000E+00  0.00000000E+00
  0.00000000E+00  0.00000000E+00  0.00000000E+00
  0.00000000E+00  0.00000000E+00  0.00000000E+00
  0.00000000E+00  0.00000000E+00  0.00000000E+00
  0.00000000E+00  0.00000000E+00  0.00000000E+00
  0.00000000E+00  0.00000000E+00  0.00000000E+00
  0.00000000E+00  0.00000000E+00  0.00000000E+00
  0.00000000E+00  0.00000000E+00  0.00000000E+00
  0.00000000E+00  0.00000000E+00  0.00000000E+00
  0.00000000E+00  0.00000000E+00  0.00000000E+00
  0.00000000E+00  0.00000000E+00  0.00000000E+00
  0.00000000E+00  0.00000000E+00  0.00000000E+00
  0.00000000E+00  0.00000000E+00  0.00000000E+00
  0.00000000E+00  0.00000000E+00  0.00000000E+00
  0.00000000E+00  0.00000000E+00  0.00000000E+00
  0.00000000E+00  0.00000000E+00  0.00000000E+00
  0.00000000E+00  0.00000000E+00  0.00000000E+00
  0.00000000E+00  0.00000000E+00  0.00000000E+00
  0.00000000E+00  0.00000000E+00  0.00000000E+00
  0.00000000E+00  0.00000000E+00  0.00000000E+00
  0.00000000E+00  0.00000000E+00  0.00000000E+00
  0.00000000E+00  0.00000000E+00  0.00000000E+00
  0.00000000E+00  0.00000000E+00  0.00000000E+00
  0.00000000E+00  0.00000000E+00  0.00000000E+00
  0.00000000E+00  0.00000000E+00  0.00000000E+00
  0.00000000E+00  0.00000000E+00  0.00000000E+00
  0.00000000E+00  0.00000000E+00  0.00000000E+00
  0.00000000E+00  0.00000000E+00  0.00000000E+00
  0.00000000E+00  0.00000000E+00  0.00000000E+00
  0.00000000E+00  0.00000000E+00  0.00000000E+00
  0.00000000E+00  0.00000000E+00  0.00000000E+00
  0.00000000E+00  0.00000000E+00  0.00000000E+00
  0.00000000E+00  0.00000000E+00  0.00000000E+00
  0.00000000E+00  0.00000000E+00  0.00000000E+00
  0.00000000E+00  0.00000000E+00  0.00000000E+00
  0.00000000E+00  0.00000000E+00  0.00000000E+00
  0.00000000E+00  0.00000000E+00  0.00000000E+00
  0.00000000E+00  0.00000000E+00  0.00000000E+00
  0.00000000E+00  0.00000000E+00  0.00000000E+00
  0.00000000E+00  0.00000000E+00  0.00000000E+00
  0.00000000E+00  0.00000000E+00  0.00000000E+00
  0.00000000E+00  0.00000000E+00  0.00000000E+00
  0.00000000E+00  0.00000000E+00  0.00000000E+00
  0.00000000E+00  0.00000000E+00  0.00000000E+00
  0.00000000E+00  0.00000000E+00  0.00000000E+00
  0.00000000E+00  0.00000000E+00  0.00000000E+00
  0.00000000E+00  0.00000000E+00  0.00000000E+00
  0.00000000E+00  0.00000000E+00  0.00000000E+00
  0.00000000E+00  0.00000000E+00  0.00000000E+00
  0.00000000E+00  0.00000000E+00  0.00000000E+00
  0.00000000E+00  0.00000000E+00  0.00000000E+00
  0.00000000E+00  0.00000000E+00  0.00000000E+00
  0.00000000E+00  0.00000000E+00  0.00000000E+00
  0.00000000E+00  0.00000000E+00  0.00000000E+00
  0.00000000E+00  0.00000000E+00  0.00000000E+00
