C                                       
   1.00000000000000     
    13.9996935169568619   -0.0842923580185180    0.0000000000000000
     1.1238905228651213   13.1314046274164546    0.0000000000000000
     0.0000000000000000    0.0000000000000000   16.0000000000000000
  C             
   128
Direct
  0.4102883346798150  0.5851420221701150  0.5366112098230353
  0.4706419918426243  0.5893087922338872  0.4634825997197355
  0.4722877917056527  0.6457427355290118  0.5972565992515838
  0.5466588249118984  0.6433342113333738  0.4662858145213922
  0.5750318978966463  0.6710736413897942  0.5532733810719817
  0.4194552666327470  0.7411637075684765  0.6024426804789970
  0.4750902619481627  0.8255771240526747  0.5832724912351471
  0.5594980366255088  0.7872419931419596  0.5468573294401715
  0.3351608454882569  0.7579664543633349  0.5534695272041901
  0.3227516168564255  0.6620888380309924  0.5121100210893273
  0.3265245147180044  0.6612555042896376  0.4040736015762041
  0.3282963745552673  0.8590273714745672  0.5071107227353053
  0.3538334433988509  0.8456423364967596  0.4150963957866646
  0.3481465601146761  0.7582726184180233  0.3670134681827394
  0.4249211585279951  0.9012773524966409  0.5352614201679047
  0.4864736816996929  0.6484405559197257  0.3330528519432547
  0.4170212302893418  0.5845330840294555  0.3872634793546789
  0.4386240162573108  0.7426602552443384  0.3213758393620447
  0.4945317650556074  0.8281147877135041  0.3454202326215630
  0.4359954991614424  0.8991612994340706  0.3948247642592285
  0.4881561310001037  0.9408017287103837  0.4678321634585894
  0.5839309613867475  0.6736771034399267  0.3812942175429009
  0.5750149615746734  0.7933271137243902  0.3892373254937514
  0.5804345460618038  0.8567356400340661  0.4727246649193121
  0.5897176867944002  0.4148594760845842  0.5366133510308494
  0.5293522476120296  0.4106747973412197  0.4634826451291164
  0.5277120767257235  0.3542648638718457  0.5972613891599915
  0.4533537264796021  0.3566643259498037  0.4662845453410844
  0.4249674453600871  0.3289280611019952  0.5532756604033927
  0.5805396740038949  0.2588384250950849  0.6024436181049134
  0.5249098837471977  0.1744253779424795  0.5832707241247268
  0.4404985584974426  0.2127607054883588  0.5468609851176368
  0.6648408236504700  0.2420354141706665  0.5534726441578141
  0.6772516160280548  0.3379161089892962  0.5121135406145186
  0.6734759684103119  0.3387426530948429  0.4040763575588317
  0.6717011245811076  0.1409670332996911  0.5071104277805281
  0.6461683713118547  0.1543545416838565  0.4150992503385815
  0.6518501734870888  0.2417280567017719  0.3670207201899270
  0.5750763327725563  0.0987235322577967  0.5352599867203605
  0.5135236008484995  0.3515657661984625  0.3330435729254733
  0.5829822390501955  0.4154659731259197  0.3872607332267354
  0.5613734098408812  0.2573413464953503  0.3213855094052293
  0.5054719968278722  0.1718861066019259  0.3454275332798583
  0.5640103936146919  0.1008246810848099  0.3948206013206993
  0.5118423691295806  0.0591916900822824  0.4678314434725047
  0.4160685543554400  0.3263235109948059  0.3812895485757872
  0.4249837701555798  0.2066720169206932  0.3892383144068056
  0.4195644016953775  0.1432650352548013  0.4727250528120298
  0.1213883384524652  0.3616802622235678  0.5454691341905510
  0.2016444121216954  0.4243726754098039  0.5866917624218841
  0.1748158774048389  0.3562742420658488  0.4640380225400487
  0.2773086942369403  0.3361708557197473  0.4685053829085474
  0.3129277540716685  0.3943564623134158  0.5464483895141130
  0.1365089694262906  0.3764399695728576  0.3881969608726122
  0.2114842081569318  0.4214780647019359  0.3397493301646724
  0.3145405687622117  0.3899162312015014  0.3859112533626747
  0.0444023336098876  0.4338695339498839  0.4004762560840699
  0.0659688884318266  0.5444358267615013  0.3800971540784931
  0.1836307653680478  0.5245496285734074  0.3297112195872094
  0.0405772904211764  0.4335155407803720  0.5170720670342002
  0.0685259299514859  0.5420818721317504  0.5336337011154219
  0.1070006539445668  0.5784504275742307  0.4559082067826853
  0.1724836436527517  0.5263557707753824  0.5825099508139936
  0.2497711080982499  0.5786174115128170  0.5325656488679507
  0.1976382975911596  0.5887198180804015  0.4563399922655744
  0.2560910508751759  0.5785611866681060  0.3834592661430112
  0.3381656457293183  0.4992525349961425  0.4106440368582520
  0.3353932452894521  0.5012874654057841  0.5151623203287948
  0.8786118888789930  0.6383205806139143  0.5454695404686681
  0.7983536803871829  0.5756263121801687  0.5866918815917413
  0.8251851302994562  0.6437285678176689  0.4640377421319737
  0.7226922788642877  0.6638274444272718  0.4685057981067511
  0.6870752545278574  0.6056409039601964  0.5464498564929203
  0.8634904934499850  0.6235606437900429  0.3881972520474308
  0.7885156289834504  0.5785216281324120  0.3397495249484841
  0.6854601473892838  0.6100814623800279  0.3859119157153078
  0.9555961940993022  0.5661300243914931  0.4004784014791934
  0.9340304525186977  0.4555639389476273  0.3800989583597518
  0.8163700935410458  0.4754496681196527  0.3297137889854621
  0.9594223407325259  0.5664852729175769  0.5170719641511817
  0.9314738869677570  0.4579182308850573  0.5336351435272625
  0.8930007004036947  0.4215495692065561  0.4559098387646959
  0.8275136169112731  0.4736430517446591  0.5825085540705889
  0.7502298616801392  0.4213814932565850  0.5325661201296263
  0.8023606110703136  0.4112782425305408  0.4563401452498225
  0.7439100152967875  0.4214377560852615  0.3834608369396923
  0.6618337200924095  0.5007446770635779  0.4106446550766042
  0.6646057590873585  0.4987095399410040  0.5151634088981369
  0.9573295218939477  0.8960382270943233  0.4977436710388525
  0.9100771302927306  0.8077664536265539  0.4895573230818243
  0.9835038921017999  0.9184775469559132  0.5871070401074396
  0.9288940354143775  0.8369925281916486  0.6315077161772791
  0.8914645982389526  0.7528391480462153  0.5692356438035534
  0.9190506192059109  0.0314759393303047  0.5936991353295926
  0.8358247810883401  0.9979569360917721  0.6449375384269620
  0.8464700043686635  0.8898229083195697  0.6636660782662684
  0.8649743627774704  0.0516413168541257  0.5112710709834937
  0.7542277170496678  0.0580927723422562  0.5156669162623717
  0.7486131763478590  0.0087516696524606  0.5988498188069192
  0.8958667831130889  0.9746587799525087  0.4570231201556466
  0.8135502387716069  0.9261906988974872  0.4224702219463293
  0.7312017954296645  0.9683029414572456  0.4590003390004238
  0.8253131506857021  0.8208586150114046  0.4415192805253405
  0.7398329739327628  0.7837921829875190  0.4892898381410003
  0.6748638541047433  0.8893837487622570  0.4993646478140200
  0.6949402980964073  0.9224680057841610  0.5927526605658642
  0.7575661856639103  0.8467790751376192  0.6338234954112636
  0.7856232137146789  0.7784782502368814  0.5741099082221405
  0.0426687240143536  0.1039637367926743  0.4977428528643788
  0.0899228218145577  0.1922349339631957  0.4895568459860620
  0.0164962733367480  0.0815233004966330  0.5871072858162026
  0.0711075851517513  0.1630075195608575  0.6315065500839814
  0.1085365483749092  0.2471611670699099  0.5692348932906572
  0.0809494418183543  0.9685262002205345  0.5936994166326498
  0.1641753805222528  0.0020447230705316  0.6449371954535423
  0.1535301515712133  0.1101775783715528  0.6636669109962110
  0.1350236439740438  0.9483617192437501  0.5112698277724411
  0.2457689098032112  0.9419097357020250  0.5156656536902045
  0.2513854728572971  0.9912500329500507  0.5988491064129592
  0.1041307527205375  0.0253443639808314  0.4570220477293628
  0.1864501151303726  0.0738105518429698  0.4224707578768537
  0.2687982617762210  0.0316980359620111  0.4589983503342467
  0.1746870140769639  0.1791421708640829  0.4415185731302044
  0.2601665368044960  0.2162087585162244  0.4892890418603293
  0.3251363255369675  0.1106176575003078  0.4993636308456250
  0.3050586834985575  0.0775335791553314  0.5927503423400562
  0.2424354714035318  0.1532236435924031  0.6338234360847984
  0.2143779653742091  0.2215222865306981  0.5741095053777878
 
  0.00000000E+00  0.00000000E+00  0.00000000E+00
  0.00000000E+00  0.00000000E+00  0.00000000E+00
  0.00000000E+00  0.00000000E+00  0.00000000E+00
  0.00000000E+00  0.00000000E+00  0.00000000E+00
  0.00000000E+00  0.00000000E+00  0.00000000E+00
  0.00000000E+00  0.00000000E+00  0.00000000E+00
  0.00000000E+00  0.00000000E+00  0.00000000E+00
  0.00000000E+00  0.00000000E+00  0.00000000E+00
  0.00000000E+00  0.00000000E+00  0.00000000E+00
  0.00000000E+00  0.00000000E+00  0.00000000E+00
  0.00000000E+00  0.00000000E+00  0.00000000E+00
  0.00000000E+00  0.00000000E+00  0.00000000E+00
  0.00000000E+00  0.00000000E+00  0.00000000E+00
  0.00000000E+00  0.00000000E+00  0.00000000E+00
  0.00000000E+00  0.00000000E+00  0.00000000E+00
  0.00000000E+00  0.00000000E+00  0.00000000E+00
  0.00000000E+00  0.00000000E+00  0.00000000E+00
  0.00000000E+00  0.00000000E+00  0.00000000E+00
  0.00000000E+00  0.00000000E+00  0.00000000E+00
  0.00000000E+00  0.00000000E+00  0.00000000E+00
  0.00000000E+00  0.00000000E+00  0.00000000E+00
  0.00000000E+00  0.00000000E+00  0.00000000E+00
  0.00000000E+00  0.00000000E+00  0.00000000E+00
  0.00000000E+00  0.00000000E+00  0.00000000E+00
  0.00000000E+00  0.00000000E+00  0.00000000E+00
  0.00000000E+00  0.00000000E+00  0.00000000E+00
  0.00000000E+00  0.00000000E+00  0.00000000E+00
  0.00000000E+00  0.00000000E+00  0.00000000E+00
  0.00000000E+00  0.00000000E+00  0.00000000E+00
  0.00000000E+00  0.00000000E+00  0.00000000E+00
  0.00000000E+00  0.00000000E+00  0.00000000E+00
  0.00000000E+00  0.00000000E+00  0.00000000E+00
  0.00000000E+00  0.00000000E+00  0.00000000E+00
  0.00000000E+00  0.00000000E+00  0.00000000E+00
  0.00000000E+00  0.00000000E+00  0.00000000E+00
  0.00000000E+00  0.00000000E+00  0.00000000E+00
  0.00000000E+00  0.00000000E+00  0.00000000E+00
  0.00000000E+00  0.00000000E+00  0.00000000E+00
  0.00000000E+00  0.00000000E+00  0.00000000E+00
  0.00000000E+00  0.00000000E+00  0.00000000E+00
  0.00000000E+00  0.00000000E+00  0.00000000E+00
  0.00000000E+00  0.00000000E+00  0.00000000E+00
  0.00000000E+00  0.00000000E+00  0.00000000E+00
  0.00000000E+00  0.00000000E+00  0.00000000E+00
  0.00000000E+00  0.00000000E+00  0.00000000E+00
  0.00000000E+00  0.00000000E+00  0.00000000E+00
  0.00000000E+00  0.00000000E+00  0.00000000E+00
  0.00000000E+00  0.00000000E+00  0.00000000E+00
  0.00000000E+00  0.00000000E+00  0.00000000E+00
  0.00000000E+00  0.00000000E+00  0.00000000E+00
  0.00000000E+00  0.00000000E+00  0.00000000E+00
  0.00000000E+00  0.00000000E+00  0.00000000E+00
  0.00000000E+00  0.00000000E+00  0.00000000E+00
  0.00000000E+00  0.00000000E+00  0.00000000E+00
  0.00000000E+00  0.00000000E+00  0.00000000E+00
  0.00000000E+00  0.00000000E+00  0.00000000E+00
  0.00000000E+00  0.00000000E+00  0.00000000E+00
  0.00000000E+00  0.00000000E+00  0.00000000E+00
  0.00000000E+00  0.00000000E+00  0.00000000E+00
  0.00000000E+00  0.00000000E+00  0.00000000E+00
  0.00000000E+00  0.00000000E+00  0.00000000E+00
  0.00000000E+00  0.00000000E+00  0.00000000E+00
  0.00000000E+00  0.00000000E+00  0.00000000E+00
  0.00000000E+00  0.00000000E+00  0.00000000E+00
  0.00000000E+00  0.00000000E+00  0.00000000E+00
  0.00000000E+00  0.00000000E+00  0.00000000E+00
  0.00000000E+00  0.00000000E+00  0.00000000E+00
  0.00000000E+00  0.00000000E+00  0.00000000E+00
  0.00000000E+00  0.00000000E+00  0.00000000E+00
  0.00000000E+00  0.00000000E+00  0.00000000E+00
  0.00000000E+00  0.00000000E+00  0.00000000E+00
  0.00000000E+00  0.00000000E+00  0.00000000E+00
  0.00000000E+00  0.00000000E+00  0.00000000E+00
  0.00000000E+00  0.00000000E+00  0.00000000E+00
  0.00000000E+00  0.00000000E+00  0.00000000E+00
  0.00000000E+00  0.00000000E+00  0.00000000E+00
  0.00000000E+00  0.00000000E+00  0.00000000E+00
  0.00000000E+00  0.00000000E+00  0.00000000E+00
  0.00000000E+00  0.00000000E+00  0.00000000E+00
  0.00000000E+00  0.00000000E+00  0.00000000E+00
  0.00000000E+00  0.00000000E+00  0.00000000E+00
  0.00000000E+00  0.00000000E+00  0.00000000E+00
  0.00000000E+00  0.00000000E+00  0.00000000E+00
  0.00000000E+00  0.00000000E+00  0.00000000E+00
  0.00000000E+00  0.00000000E+00  0.00000000E+00
  0.00000000E+00  0.00000000E+00  0.00000000E+00
  0.00000000E+00  0.00000000E+00  0.00000000E+00
  0.00000000E+00  0.00000000E+00  0.00000000E+00
  0.00000000E+00  0.00000000E+00  0.00000000E+00
  0.00000000E+00  0.00000000E+00  0.00000000E+00
  0.00000000E+00  0.00000000E+00  0.00000000E+00
  0.00000000E+00  0.00000000E+00  0.00000000E+00
  0.00000000E+00  0.00000000E+00  0.00000000E+00
  0.00000000E+00  0.00000000E+00  0.00000000E+00
  0.00000000E+00  0.00000000E+00  0.00000000E+00
  0.00000000E+00  0.00000000E+00  0.00000000E+00
  0.00000000E+00  0.00000000E+00  0.00000000E+00
  0.00000000E+00  0.00000000E+00  0.00000000E+00
  0.00000000E+00  0.00000000E+00  0.00000000E+00
  0.00000000E+00  0.00000000E+00  0.00000000E+00
  0.00000000E+00  0.00000000E+00  0.00000000E+00
  0.00000000E+00  0.00000000E+00  0.00000000E+00
  0.00000000E+00  0.00000000E+00  0.00000000E+00
  0.00000000E+00  0.00000000E+00  0.00000000E+00
  0.00000000E+00  0.00000000E+00  0.00000000E+00
  0.00000000E+00  0.00000000E+00  0.00000000E+00
  0.00000000E+00  0.00000000E+00  0.00000000E+00
  0.00000000E+00  0.00000000E+00  0.00000000E+00
  0.00000000E+00  0.00000000E+00  0.00000000E+00
  0.00000000E+00  0.00000000E+00  0.00000000E+00
  0.00000000E+00  0.00000000E+00  0.00000000E+00
  0.00000000E+00  0.00000000E+00  0.00000000E+00
  0.00000000E+00  0.00000000E+00  0.00000000E+00
  0.00000000E+00  0.00000000E+00  0.00000000E+00
  0.00000000E+00  0.00000000E+00  0.00000000E+00
  0.00000000E+00  0.00000000E+00  0.00000000E+00
  0.00000000E+00  0.00000000E+00  0.00000000E+00
  0.00000000E+00  0.00000000E+00  0.00000000E+00
  0.00000000E+00  0.00000000E+00  0.00000000E+00
  0.00000000E+00  0.00000000E+00  0.00000000E+00
  0.00000000E+00  0.00000000E+00  0.00000000E+00
  0.00000000E+00  0.00000000E+00  0.00000000E+00
  0.00000000E+00  0.00000000E+00  0.00000000E+00
  0.00000000E+00  0.00000000E+00  0.00000000E+00
  0.00000000E+00  0.00000000E+00  0.00000000E+00
  0.00000000E+00  0.00000000E+00  0.00000000E+00
  0.00000000E+00  0.00000000E+00  0.00000000E+00
  0.00000000E+00  0.00000000E+00  0.00000000E+00
