C                                       
   1.00000000000000     
     9.9373991036724654    0.2994391084617872    0.0000000000000000
    -4.6829532782459165    8.1788851269741816    0.0000000000000000
     0.0000000000000000    0.0000000000000000   16.0000000000000000
   C 
    44
Direct
  0.3397648870355520  0.4116369280543556  0.4736396886425296
  0.2165540941974240  0.4367591039727947  0.4308259011802374
  0.4834718754640265  0.5687087005305657  0.4500214999367351
  0.2765058671080774  0.5954401757007076  0.3999309075175398
  0.4379642677561160  0.6815882372262730  0.4105777565057312
  0.5706374676880551  0.6472166994171322  0.5309793597464523
  0.5915035808266412  0.8175984397048447  0.5249531597462499
  0.5032338894715785  0.8247367062976561  0.4539666204925482
  0.4427125588479807  0.5784225906413518  0.5970623361650258
  0.3113362034735116  0.4465360132183934  0.5642919243958917
  0.1646573616772863  0.4354022362695339  0.5752287598318516
  0.4323975579063862  0.7073425834245479  0.6369370297028657
  0.2868496732785156  0.6993241767033462  0.6479770965660504
  0.1545385100513656  0.5621850022257520  0.6182980782573477
  0.5348319596019961  0.8598527609150229  0.5948219566622263
  0.0844051196265463  0.5619947019171704  0.4850937458433757
  0.0834640246184968  0.4069987645866487  0.4879049428588160
  0.0614197060090181  0.6209001487600849  0.5657671032421927
  0.1765798184550860  0.8007625888866344  0.5528710859847336
  0.2945610701222343  0.8466299058343371  0.6101929014911941
  0.4508713973116766  0.9540499125550589  0.5740864843180385
  0.1877428169966764  0.6735583325815162  0.4283100105335431
  0.2503890765726982  0.8210037679302563  0.4707796864890024
  0.4198071649972985  0.9180521446997767  0.4759245409301262
  0.5169104725556369  0.0934661037074994  0.4543445096666560
  0.5406604683328269  0.1425196899466774  0.5501698841347007
  0.6758343716809683  0.1350816443618038  0.4273991707572542
  0.7865717105539519  0.1947214224655672  0.4952162988330049
  0.7157328694663840  0.2302919904985991  0.5632171404653326
  0.7249238281502890  0.2509632465157214  0.3630301874369993
  0.8628394625084959  0.3846484771207437  0.3929292435520313
  0.9236379260172100  0.3219069270437213  0.4593364640788206
  0.6060532156341770  0.2972916907874100  0.3550113175308628
  0.6719242940608692  0.4626886378145854  0.3729012537374198
  0.8228269711602972  0.5183425618207264  0.4078122689292798
  0.4757888196219865  0.2050005221522568  0.4060075210837448
  0.4433591853598627  0.3152471405060349  0.4626667059519919
  0.5740485573553592  0.4826382307551176  0.4344772812053491
  0.4999219336346314  0.2792367344033649  0.5474798559176606
  0.6326425045572394  0.4143652557862248  0.5674441116647615
  0.6714535361406182  0.5578666790024225  0.5131598112876458
  0.8325708593631402  0.5964405472445394  0.4875611202429516
  0.8937215040246315  0.5444371296213276  0.5582643447336123
  0.7656254585023420  0.3965830648302025  0.5876520272078238
 
  0.00000000E+00  0.00000000E+00  0.00000000E+00
  0.00000000E+00  0.00000000E+00  0.00000000E+00
  0.00000000E+00  0.00000000E+00  0.00000000E+00
  0.00000000E+00  0.00000000E+00  0.00000000E+00
  0.00000000E+00  0.00000000E+00  0.00000000E+00
  0.00000000E+00  0.00000000E+00  0.00000000E+00
  0.00000000E+00  0.00000000E+00  0.00000000E+00
  0.00000000E+00  0.00000000E+00  0.00000000E+00
  0.00000000E+00  0.00000000E+00  0.00000000E+00
  0.00000000E+00  0.00000000E+00  0.00000000E+00
  0.00000000E+00  0.00000000E+00  0.00000000E+00
  0.00000000E+00  0.00000000E+00  0.00000000E+00
  0.00000000E+00  0.00000000E+00  0.00000000E+00
  0.00000000E+00  0.00000000E+00  0.00000000E+00
  0.00000000E+00  0.00000000E+00  0.00000000E+00
  0.00000000E+00  0.00000000E+00  0.00000000E+00
  0.00000000E+00  0.00000000E+00  0.00000000E+00
  0.00000000E+00  0.00000000E+00  0.00000000E+00
  0.00000000E+00  0.00000000E+00  0.00000000E+00
  0.00000000E+00  0.00000000E+00  0.00000000E+00
  0.00000000E+00  0.00000000E+00  0.00000000E+00
  0.00000000E+00  0.00000000E+00  0.00000000E+00
  0.00000000E+00  0.00000000E+00  0.00000000E+00
  0.00000000E+00  0.00000000E+00  0.00000000E+00
  0.00000000E+00  0.00000000E+00  0.00000000E+00
  0.00000000E+00  0.00000000E+00  0.00000000E+00
  0.00000000E+00  0.00000000E+00  0.00000000E+00
  0.00000000E+00  0.00000000E+00  0.00000000E+00
  0.00000000E+00  0.00000000E+00  0.00000000E+00
  0.00000000E+00  0.00000000E+00  0.00000000E+00
  0.00000000E+00  0.00000000E+00  0.00000000E+00
  0.00000000E+00  0.00000000E+00  0.00000000E+00
  0.00000000E+00  0.00000000E+00  0.00000000E+00
  0.00000000E+00  0.00000000E+00  0.00000000E+00
  0.00000000E+00  0.00000000E+00  0.00000000E+00
  0.00000000E+00  0.00000000E+00  0.00000000E+00
  0.00000000E+00  0.00000000E+00  0.00000000E+00
  0.00000000E+00  0.00000000E+00  0.00000000E+00
  0.00000000E+00  0.00000000E+00  0.00000000E+00
  0.00000000E+00  0.00000000E+00  0.00000000E+00
  0.00000000E+00  0.00000000E+00  0.00000000E+00
  0.00000000E+00  0.00000000E+00  0.00000000E+00
  0.00000000E+00  0.00000000E+00  0.00000000E+00
  0.00000000E+00  0.00000000E+00  0.00000000E+00
