C 
 1.0000000000000000
     9.1495300552710912    0.0000000000000000    0.0000000000000000
    -4.5747650276355518    7.9237254605540031    0.0000000000000000
     0.0000000000000000    0.0000000000000000   16.0000000000000000
 C  
  44
Direct
  0.3308729223572534  0.4214973925187244  0.4474204745668977
  0.1826824135369432  0.4191077097721189  0.4165079739777404
  0.4803735176442329  0.5654208341537663  0.4163033867910147
  0.2420134230013970  0.5868687481448666  0.3777194465287103
  0.4236854390019288  0.6762939239744304  0.3776773205423278
  0.5894578636255970  0.6605447997619810  0.4837346748765147
  0.6308122165189500  0.8335699469579592  0.4795369495989713
  0.5157946382568387  0.8401007743978770  0.4162170955312448
  0.4892503473778956  0.5915716770618177  0.5613405588927316
  0.3311011421122992  0.4453558831984884  0.5391127554128863
  0.1743282817977944  0.4364396248934037  0.5614242012193156
  0.4907515504292680  0.7290002436362926  0.6059297851199815
  0.3340517667568781  0.7200822572429023  0.6282570289396843
  0.1758740308322006  0.5738686863764015  0.6060147589189772
  0.5922107986224082  0.8858597532439469  0.5567952043674625
  0.0362801321263594  0.5406494978166559  0.4796948061229110
  0.0740266532433841  0.4066047397416190  0.4838695510594245
  0.0767991065037416  0.6319389056734670  0.5569560157151053
  0.1866741897530222  0.8087104085144935  0.5429847854673800
  0.3354497019181876  0.8709369685202807  0.5933045583761567
  0.4844369317516631  0.9551515084843121  0.5427940069139127
  0.1524282140894722  0.6611833426138853  0.4163604235976459
  0.2444672059542098  0.8249059066664278  0.4549862622719088
  0.4261695127880786  0.9143444666338807  0.4549044052310848
  0.4658818740234365  0.1034118202147912  0.4884764568139434
  0.4767690991482235  0.1739578916108530  0.5711357520020151
  0.6181664671823140  0.0980927416942983  0.4747065515798284
  0.7223685360858870  0.1654375585667191  0.5489366865726949
  0.6335525099268597  0.2074841574181015  0.6120399076833626
  0.7065356005261217  0.2016017039614877  0.4019542490570657
  0.8630189522135101  0.3404752085213662  0.4358487268096901
  0.8742254547454311  0.3157421559378276  0.5248384725650334
  0.6076824855405584  0.2794982959160447  0.3776805244370277
  0.7057823915165916  0.4625731251240386  0.3846499462153388
  0.8625602062745676  0.4960758452270188  0.4255292567676940
  0.4511360349876523  0.2104788607602092  0.4250560693594251
  0.4651091382692438  0.3543045137688099  0.4718262843989201
  0.6169587432854688  0.5046374593584259  0.4477354880662559
  0.4762895694031419  0.3295433884350858  0.5607998149468192
  0.6327592317766361  0.4684192464801144  0.5946958608104909
  0.7211660251107337  0.5719528955939326  0.5219591834621991
  0.8734549286894040  0.5666242587103226  0.5081867905514384
  0.8881979915911227  0.4595565741969515  0.5716211751829501
  0.7316406574782660  0.3905626169419132  0.6189994681360140
