C 
 1.0000000000000000
    18.0719210795267635    0.0000000000000000    0.0000000000000000
     0.0000000000000000    9.7374397662750987    0.0000000000000000
     0.0000000000000000    0.0000000000000000   16.0000000000000000
 C  
 128
Direct
  0.0568305297828373  0.7198343667009044  0.5062020702908960
 -0.0215684061040690  0.7393294374521903  0.5125885095395064
  0.0835077435554144  0.6355411082748886  0.5730969731911151
 -0.0474152194701059  0.6403728239465490  0.5768133804485228
  0.0166887497259054  0.5768769373739869  0.6136843032580055
  0.1241494921611266  0.5208769367911935  0.5410509988807718
  0.0950619207849197  0.3943260646852904  0.5729218473792519
  0.0238316676195209  0.4295873095080880  0.6136843787328718
  0.1101411088263855  0.5185255662787090  0.4496756512257707
  0.0689698481646184  0.6402309253001593  0.4283762927137285
 -0.0009459844490663  0.6286741182725716  0.3857367126217754
  0.0814318485973630  0.3851352786871451  0.4283253781497974
  0.0115556050094894  0.3735706731830067  0.3856817828536171
 -0.0296332405926802  0.4952834911616821  0.3643915188774689
  0.0772147724563713  0.3022182748964025  0.5061262815073561
 -0.1146417703257098  0.6023108558285794  0.4522068171671622
 -0.0576563761193803  0.7011851350789445  0.4363995729961667
 -0.1045816071317965  0.4824949810799444  0.4014571610293055
 -0.1030732518144487  0.3611233390934700  0.4519642534050086
 -0.0372095573586110  0.2835529700924313  0.4362785020287870
  0.0020049916386860  0.2572308918766230  0.5124870631293926
 -0.1043563875674875  0.5565893865597604  0.5398785758909490
 -0.0972067264772541  0.4093038719629846  0.5397819943670040
 -0.0330997509120265  0.3458252559144930  0.5766939366448357
  0.5568305297828373  0.2198343667009043  0.5062020702908960
  0.4784315938959310  0.2393294374521902  0.5125885095395064
  0.5835077435554145  0.1355411082748886  0.5730969731911151
  0.4525847805298941  0.1403728239465490  0.5768133804485228
  0.5166887497259055  0.0768769373739868  0.6136843032580055
  0.6241494921611267  0.0208769367911935  0.5410509988807718
  0.5950619207849197 -0.1056739353147098  0.5729218473792519
  0.5238316676195209 -0.0704126904919121  0.6136843787328718
  0.6101411088263856  0.0185255662787090  0.4496756512257707
  0.5689698481646184  0.1402309253001592  0.4283762927137285
  0.4990540155509338  0.1286741182725714  0.3857367126217754
  0.5814318485973631 -0.1148647213128550  0.4283253781497974
  0.5115556050094895 -0.1264293268169934  0.3856817828536171
  0.4703667594073198 -0.0047165088383180  0.3643915188774689
  0.5772147724563714 -0.1977817251035976  0.5061262815073561
  0.3853582296742903  0.1023108558285793  0.4522068171671622
  0.4423436238806197  0.2011851350789444  0.4363995729961667
  0.3954183928682035 -0.0175050189200558  0.4014571610293055
  0.3969267481855513 -0.1388766609065301  0.4519642534050086
  0.4627904426413891 -0.2164470299075688  0.4362785020287870
  0.5020049916386861 -0.2427691081233771  0.5124870631293926
  0.3956436124325126  0.0565893865597603  0.5398785758909490
  0.4027932735227460 -0.0906961280370154  0.5397819943670040
  0.4669002490879735 -0.1541747440855071  0.5766939366448357
  0.1443923715476892  0.2545530334378162  0.4197693442182905
  0.1323184413980493  0.1619795538549490  0.4896799962545054
  0.1986191832088468  0.1927047731018427  0.3661128130855266
  0.2197784780527750  0.0622419546663780  0.4031779614339491
  0.1766574630596174  0.0374939352303134  0.4790846594916931
  0.2631065345041724  0.2829467475494953  0.3600016102778976
  0.3229252447461516  0.2058863209642131  0.3999028224923659
  0.2968697895518614  0.0704080149388644  0.4241246518203476
  0.2473711393073412  0.3948672560215224  0.4177221096692033
  0.3014322127387680  0.4003538619581755  0.4851242991886675
  0.3457737888994430  0.2758964291901204  0.4745074413985443
  0.1721536729188050  0.3866471883774738  0.4499715235386617
  0.1812259346632743  0.3674702142110746  0.5400676946729257
  0.2583162155258853  0.3756401386554133  0.5610342902335511
  0.1551630437590160  0.2320173275475484  0.5642756056052016
  0.2149770205669542  0.1549626842762164  0.6041827435256801
  0.2794754156207123  0.2451728428529982  0.5980800663770848
  0.3337031859033690  0.1833223089772101  0.5444162877331185
  0.3059366880324870  0.0512103518392343  0.5142209026263379
  0.2307180303395391  0.0430013035423679  0.5464877074682276
  0.6443923715476892  0.7545530334378162  0.4197693442182905
  0.6323184413980493  0.6619795538549490  0.4896799962545054
  0.6986191832088468  0.6927047731018428  0.3661128130855266
  0.7197784780527751  0.5622419546663781  0.4031779614339491
  0.6766574630596175  0.5374939352303134  0.4790846594916931
  0.7631065345041724  0.7829467475494953  0.3600016102778976
  0.8229252447461516  0.7058863209642131  0.3999028224923659
  0.7968697895518614  0.5704080149388644  0.4241246518203476
  0.7473711393073412  0.8948672560215224  0.4177221096692033
  0.8014322127387681  0.9003538619581756  0.4851242991886675
  0.8457737888994430  0.7758964291901204  0.4745074413985443
  0.6721536729188050  0.8866471883774738  0.4499715235386617
  0.6812259346632744  0.8674702142110745  0.5400676946729257
  0.7583162155258852  0.8756401386554133  0.5610342902335511
  0.6551630437590160  0.7320173275475484  0.5642756056052016
  0.7149770205669541  0.6549626842762164  0.6041827435256801
  0.7794754156207123  0.7451728428529982  0.5980800663770848
  0.8337031859033690  0.6833223089772101  0.5444162877331185
  0.8059366880324871  0.5512103518392343  0.5142209026263379
  0.7307180303395391  0.5430013035423679  0.5464877074682276
  0.8311231757861860  0.2786641236738698  0.3979196665513475
  0.8672888208664123  0.1938440413387662  0.4604837871753013
  0.7735429963356732  0.1979514711218287  0.3604413251608212
  0.7744274386300110  0.0636818133934744  0.4000738396886022
  0.8348593772246607  0.0561895203590100  0.4607447471604381
  0.7021220944870730  0.2647709997871627  0.3745023421060898
  0.6617180162510997  0.1700722356682356  0.4288381073367421
  0.7050753991233515  0.0463829421531070  0.4424828729958450
  0.7191725665384529  0.3818743401282621  0.4277659344254449
  0.6824014844658460  0.3711156175030961  0.5084808419280165
  0.6499620425743329  0.2334872923327063  0.5087222051846402
  0.7986969725642253  0.4001118615001852  0.4373373594512518
  0.8121730283022344  0.3809495728197313  0.5267289031028121
  0.7428260637742787  0.3636554553264905  0.5691569593944809
  0.8555318833208216  0.2572873520286811  0.5403585245060677
  0.8151330728532583  0.1625960493262010  0.5946987690493694
  0.7437066798491556  0.2293808362745024  0.6087706344730786
  0.6861241823364361  0.1486654043335515  0.5712855183573720
  0.7185585786867354  0.0272021207135048  0.5318726048992517
  0.7980869529013433  0.0454514083387019  0.5414606991871911
  0.3311231757861861  0.7786641236738698  0.3979196665513475
  0.3672888208664123  0.6938440413387662  0.4604837871753013
  0.2735429963356734  0.6979514711218288  0.3604413251608212
  0.2744274386300111  0.5636818133934743  0.4000738396886022
  0.3348593772246608  0.5561895203590100  0.4607447471604381
  0.2021220944870731  0.7647709997871627  0.3745023421060898
  0.1617180162510997  0.6700722356682356  0.4288381073367421
  0.2050753991233515  0.5463829421531070  0.4424828729958450
  0.2191725665384529  0.8818743401282620  0.4277659344254449
  0.1824014844658461  0.8711156175030961  0.5084808419280165
  0.1499620425743329  0.7334872923327063  0.5087222051846402
  0.2986969725642254  0.9001118615001851  0.4373373594512518
  0.3121730283022344  0.8809495728197312  0.5267289031028121
  0.2428260637742788  0.8636554553264905  0.5691569593944809
  0.3555318833208218  0.7572873520286810  0.5403585245060677
  0.3151330728532585  0.6625960493262010  0.5946987690493694
  0.2437066798491557  0.7293808362745023  0.6087706344730786
  0.1861241823364361  0.6486654043335515  0.5712855183573720
  0.2185585786867354  0.5272021207135048  0.5318726048992517
  0.2980869529013435  0.5454514083387018  0.5414606991871911
