C                                       
   1.00000000000000     
     9.8751608680135128   -0.0000307313528137    0.0000000000000000
    -0.0000490500163659   17.3122059660908931    0.0000000000000000
     0.0000000000000000    0.0000000000000000   16.0000000000000000
  C             
   128
Direct
  0.7914441690185022  0.9934656166875684  0.6044571832537422
  0.8948589663790555  0.0440859506019297  0.6358656864125086
  0.7478502973890594  0.0249580428811907  0.5283489003111106
  0.9153294566860262  0.1009480443483837  0.5702776253086212
  0.8035572534094704  0.1027079406917177  0.5019877307863255
  0.7514580909044081  0.9747829806729340  0.4636987205748725
  0.8081370942413101  0.0061974105355630  0.3910327726425835
  0.8574378541241136  0.0818742907793564  0.4080819023812973
  0.8042966958221067  0.8971456686663559  0.4931408043500104
  0.8497209609538815  0.9171258904979104  0.5848024984151299
  0.9867652952963325  0.9284461451328940  0.6076539723312185
  0.9196942585145667  0.8953350119199146  0.4308610029844384
  0.0438441050760967  0.9065112017544779  0.4623923415129700
  0.0895458271764445  0.8954263260500332  0.5502838672474912
  0.9084217372907667  0.9519313822671190  0.3604175372065506
  0.1393959521486623  0.0368748434988950  0.5994071899220168
  0.0197383102038698  0.9997502200512099  0.6482727866495284
  0.1978120658787710  0.9654797363865735  0.5469601179176247
  0.1943246720818246  0.0137207627644788  0.4647043625844838
  0.1439882409836954  0.9498981836526151  0.4065422150330338
  0.0325963836979291  0.9905808851825298  0.3506995998400078
  0.0428332781367558  0.0816332003757032  0.5414186598108717
  0.0827562352989979  0.0703831675045564  0.4602719029691832
  0.9982769003143854  0.0661523328659153  0.3906589780625055
  0.7085626128451138  0.4934644670582086  0.6044557966067486
  0.6051511868720427  0.5440844071825471  0.6358628884453069
  0.7521537318638498  0.5249580565667583  0.5283458760850319
  0.5846771458128021  0.6009456093091928  0.5702745099920545
  0.6964433220723029  0.6027047262519110  0.5019826772406069
  0.7485430670638222  0.4747790366941930  0.4636915133264399
  0.6918627884507296  0.5061959515855918  0.3910282060104622
  0.6425665953222806  0.5818711971935233  0.4080792327597215
  0.6957005643380966  0.3971446717294801  0.4931325386419407
  0.6502724970182089  0.4171274880575467  0.5847938828581840
  0.5132326389038764  0.4284470300171707  0.6076460437546142
  0.5803027822918546  0.3953306930906674  0.4308551944634949
  0.4561531931609417  0.4065104685014747  0.4623893555181022
  0.4104472173525230  0.3954242118363113  0.5502791594048237
  0.5915714908105909  0.4519308911866336  0.3604152485005199
  0.3605994491486168  0.5368733340515957  0.5994062564585098
  0.4802640328189212  0.4997490344714859  0.6482634672961721
  0.3021812597091649  0.4654785637970241  0.5469563290950705
  0.3056752795660645  0.5137203332057428  0.4647003309449521
  0.3560117683857582  0.4498973564762092  0.4065392070642531
  0.4674009473137706  0.4905806634966077  0.3506945401305067
  0.4571628591665947  0.5816319590553286  0.5414154769322850
  0.4172530282120436  0.5703786067512080  0.4602721505377507
  0.5017271186161214  0.5661499043047238  0.3906545420590345
  0.4013448357139826  0.7252651819918163  0.5217741626328318
  0.3278707777567123  0.7986528583018642  0.5103331844653354
  0.5337847897094655  0.7604315537296170  0.5575302584683219
  0.4998678111420663  0.8402467828961524  0.5848736871301921
  0.3596463591978330  0.8547854698291310  0.5626355450442408
  0.6305544554506416  0.7692435000956725  0.4943928037488401
  0.6726771760105913  0.8542702126653806  0.4863126596099046
  0.5713641631288655  0.8964446452734424  0.5443989871432732
  0.5692047088823768  0.7457496637977958  0.4152014690495653
  0.5702564191402505  0.8071398759843044  0.3525000942108106
  0.6060354909468182  0.8713305736054849  0.4034723639884704
  0.4349979957988126  0.7185375127903283  0.4278337974289721
  0.3505329847497991  0.7673975941176503  0.3778649479905969
  0.4299529599796080  0.8212691777137456  0.3312277575924732
  0.2447377845774809  0.8093370888212924  0.4316529041116163
  0.2644420053944190  0.8956036580580510  0.4145150946739891
  0.3917849864500738  0.8954837959441415  0.3666545426526989
  0.5014090977662669  0.9272789121241152  0.4100560542589382
  0.4769228586796326  0.9550343765807799  0.4993781344002144
  0.3291614706627532  0.9263657422254319  0.5210039583710130
  0.5533350059509367  0.2058268102825824  0.6309172281917443
  0.6027851954611992  0.1366949116916337  0.5965003317294514
  0.4128173019685802  0.1895681927775932  0.6553417738967809
  0.3828903070108658  0.1082605948339093  0.6361242090837006
  0.4970276240976660  0.0790989782374669  0.5972438698506214
  0.3279096056430682  0.2379024797970079  0.6116877382192820
  0.2263427664710904  0.1851542409695501  0.5614649589182430
  0.2572443112008971  0.0973462405015530  0.5865363231715773
  0.4127358580551317  0.2991717626079552  0.5575172271237728
  0.3811591441262536  0.2668631622976974  0.4666793607591732
  0.3097954849571943  0.1933557467107496  0.4836540015675178
  0.5600286826381625  0.2682618340134414  0.5713592788052702
  0.6154232466117358  0.2316200153107308  0.4952753720280871
  0.5143462965459129  0.2304688014825121  0.4346175437013881
  0.6670838770608796  0.1465082403805224  0.5109873164639063
  0.5623224519819986  0.0984584486335386  0.4605452783910669
  0.4848182668379862  0.1480445736896198  0.4150694207507294
  0.3450237430908591  0.1322237087547471  0.4395799423198911
  0.3198231473243050  0.0636707651557773  0.4904699687996965
  0.4736400397228681  0.0416010301264354  0.5118742739955154
  0.0986581319356054  0.2252644899916820  0.5217691279287683
  0.1721307487265269  0.2986517835584585  0.5103272609204325
  0.9662149560726058  0.2604308994201989  0.5575220298750394
  0.0001312644936031  0.3402463188298150  0.5848673390957806
  0.1403530624813084  0.3547849761187886  0.5626307582727590
  0.8694494866092907  0.2692427122131179  0.4943875074458767
  0.8273227194782228  0.3542676742160436  0.4863071571605865
  0.9286340777864224  0.3964434557715195  0.5443950833942907
  0.9307963323639935  0.2457496957853040  0.4151934835478390
  0.9297451079242002  0.3071403984094143  0.3524945657022182
  0.8939651143161840  0.3713291236358970  0.4034671434285994
  0.0650031448706797  0.2185379859119810  0.4278279487786947
  0.1494721775062005  0.2673972523071591  0.3778596760219363
  0.0700505531074252  0.3212707806988509  0.3312231674032879
  0.2552669782599905  0.3093361056364105  0.4316487438993248
  0.2355628354164956  0.3956008845155238  0.4145082906411939
  0.1082177137206703  0.3954829011448985  0.3666485417623810
  0.9985917821839232  0.4272792637334464  0.4100503274389368
  0.0230741161555479  0.4550326538640698  0.4993699685555865
  0.1708352065913894  0.4263633478183187  0.5209966758409889
  0.9466582872636186  0.7058232368644625  0.6309210022565246
  0.8972103750726765  0.6366923807724705  0.5964973861259012
  0.0871790695386486  0.6895673719561299  0.6553454816484480
  0.1171018845846545  0.6082611145111489  0.6361194838842680
  0.0029672278062617  0.5790990630242052  0.5972397259323149
  0.1720899631965359  0.7379016188004600  0.6116929739339942
  0.2736594227359403  0.6851535939792620  0.5614679593027713
  0.2427508417782843  0.5973465492375766  0.5865347646120732
  0.0872660119883346  0.7991690922205616  0.5575199427015346
  0.1188454580021110  0.7668633225671708  0.4666832080039299
  0.1902072151851356  0.6933581016113458  0.4836573616761573
  0.9399798737104721  0.7682486914745502  0.5713558351161957
  0.8845649687710562  0.7316199474277053  0.4952705993147851
  0.9856534390716641  0.7304694633633354  0.4346211048068627
  0.8329114078103711  0.6465074272391060  0.5109819845773311
  0.9376785487806548  0.5984614119985467  0.4605418170975556
  0.0151841072729501  0.6480483688874845  0.4150669756699697
  0.1549799213544527  0.6322245759632232  0.4395789982046861
  0.1801758611005139  0.5636721738033115  0.4904675878366996
  0.0263584389362229  0.5416002615139193  0.5118688300155294
 
  0.00000000E+00  0.00000000E+00  0.00000000E+00
  0.00000000E+00  0.00000000E+00  0.00000000E+00
  0.00000000E+00  0.00000000E+00  0.00000000E+00
  0.00000000E+00  0.00000000E+00  0.00000000E+00
  0.00000000E+00  0.00000000E+00  0.00000000E+00
  0.00000000E+00  0.00000000E+00  0.00000000E+00
  0.00000000E+00  0.00000000E+00  0.00000000E+00
  0.00000000E+00  0.00000000E+00  0.00000000E+00
  0.00000000E+00  0.00000000E+00  0.00000000E+00
  0.00000000E+00  0.00000000E+00  0.00000000E+00
  0.00000000E+00  0.00000000E+00  0.00000000E+00
  0.00000000E+00  0.00000000E+00  0.00000000E+00
  0.00000000E+00  0.00000000E+00  0.00000000E+00
  0.00000000E+00  0.00000000E+00  0.00000000E+00
  0.00000000E+00  0.00000000E+00  0.00000000E+00
  0.00000000E+00  0.00000000E+00  0.00000000E+00
  0.00000000E+00  0.00000000E+00  0.00000000E+00
  0.00000000E+00  0.00000000E+00  0.00000000E+00
  0.00000000E+00  0.00000000E+00  0.00000000E+00
  0.00000000E+00  0.00000000E+00  0.00000000E+00
  0.00000000E+00  0.00000000E+00  0.00000000E+00
  0.00000000E+00  0.00000000E+00  0.00000000E+00
  0.00000000E+00  0.00000000E+00  0.00000000E+00
  0.00000000E+00  0.00000000E+00  0.00000000E+00
  0.00000000E+00  0.00000000E+00  0.00000000E+00
  0.00000000E+00  0.00000000E+00  0.00000000E+00
  0.00000000E+00  0.00000000E+00  0.00000000E+00
  0.00000000E+00  0.00000000E+00  0.00000000E+00
  0.00000000E+00  0.00000000E+00  0.00000000E+00
  0.00000000E+00  0.00000000E+00  0.00000000E+00
  0.00000000E+00  0.00000000E+00  0.00000000E+00
  0.00000000E+00  0.00000000E+00  0.00000000E+00
  0.00000000E+00  0.00000000E+00  0.00000000E+00
  0.00000000E+00  0.00000000E+00  0.00000000E+00
  0.00000000E+00  0.00000000E+00  0.00000000E+00
  0.00000000E+00  0.00000000E+00  0.00000000E+00
  0.00000000E+00  0.00000000E+00  0.00000000E+00
  0.00000000E+00  0.00000000E+00  0.00000000E+00
  0.00000000E+00  0.00000000E+00  0.00000000E+00
  0.00000000E+00  0.00000000E+00  0.00000000E+00
  0.00000000E+00  0.00000000E+00  0.00000000E+00
  0.00000000E+00  0.00000000E+00  0.00000000E+00
  0.00000000E+00  0.00000000E+00  0.00000000E+00
  0.00000000E+00  0.00000000E+00  0.00000000E+00
  0.00000000E+00  0.00000000E+00  0.00000000E+00
  0.00000000E+00  0.00000000E+00  0.00000000E+00
  0.00000000E+00  0.00000000E+00  0.00000000E+00
  0.00000000E+00  0.00000000E+00  0.00000000E+00
  0.00000000E+00  0.00000000E+00  0.00000000E+00
  0.00000000E+00  0.00000000E+00  0.00000000E+00
  0.00000000E+00  0.00000000E+00  0.00000000E+00
  0.00000000E+00  0.00000000E+00  0.00000000E+00
  0.00000000E+00  0.00000000E+00  0.00000000E+00
  0.00000000E+00  0.00000000E+00  0.00000000E+00
  0.00000000E+00  0.00000000E+00  0.00000000E+00
  0.00000000E+00  0.00000000E+00  0.00000000E+00
  0.00000000E+00  0.00000000E+00  0.00000000E+00
  0.00000000E+00  0.00000000E+00  0.00000000E+00
  0.00000000E+00  0.00000000E+00  0.00000000E+00
  0.00000000E+00  0.00000000E+00  0.00000000E+00
  0.00000000E+00  0.00000000E+00  0.00000000E+00
  0.00000000E+00  0.00000000E+00  0.00000000E+00
  0.00000000E+00  0.00000000E+00  0.00000000E+00
  0.00000000E+00  0.00000000E+00  0.00000000E+00
  0.00000000E+00  0.00000000E+00  0.00000000E+00
  0.00000000E+00  0.00000000E+00  0.00000000E+00
  0.00000000E+00  0.00000000E+00  0.00000000E+00
  0.00000000E+00  0.00000000E+00  0.00000000E+00
  0.00000000E+00  0.00000000E+00  0.00000000E+00
  0.00000000E+00  0.00000000E+00  0.00000000E+00
  0.00000000E+00  0.00000000E+00  0.00000000E+00
  0.00000000E+00  0.00000000E+00  0.00000000E+00
  0.00000000E+00  0.00000000E+00  0.00000000E+00
  0.00000000E+00  0.00000000E+00  0.00000000E+00
  0.00000000E+00  0.00000000E+00  0.00000000E+00
  0.00000000E+00  0.00000000E+00  0.00000000E+00
  0.00000000E+00  0.00000000E+00  0.00000000E+00
  0.00000000E+00  0.00000000E+00  0.00000000E+00
  0.00000000E+00  0.00000000E+00  0.00000000E+00
  0.00000000E+00  0.00000000E+00  0.00000000E+00
  0.00000000E+00  0.00000000E+00  0.00000000E+00
  0.00000000E+00  0.00000000E+00  0.00000000E+00
  0.00000000E+00  0.00000000E+00  0.00000000E+00
  0.00000000E+00  0.00000000E+00  0.00000000E+00
  0.00000000E+00  0.00000000E+00  0.00000000E+00
  0.00000000E+00  0.00000000E+00  0.00000000E+00
  0.00000000E+00  0.00000000E+00  0.00000000E+00
  0.00000000E+00  0.00000000E+00  0.00000000E+00
  0.00000000E+00  0.00000000E+00  0.00000000E+00
  0.00000000E+00  0.00000000E+00  0.00000000E+00
  0.00000000E+00  0.00000000E+00  0.00000000E+00
  0.00000000E+00  0.00000000E+00  0.00000000E+00
  0.00000000E+00  0.00000000E+00  0.00000000E+00
  0.00000000E+00  0.00000000E+00  0.00000000E+00
  0.00000000E+00  0.00000000E+00  0.00000000E+00
  0.00000000E+00  0.00000000E+00  0.00000000E+00
  0.00000000E+00  0.00000000E+00  0.00000000E+00
  0.00000000E+00  0.00000000E+00  0.00000000E+00
  0.00000000E+00  0.00000000E+00  0.00000000E+00
  0.00000000E+00  0.00000000E+00  0.00000000E+00
  0.00000000E+00  0.00000000E+00  0.00000000E+00
  0.00000000E+00  0.00000000E+00  0.00000000E+00
  0.00000000E+00  0.00000000E+00  0.00000000E+00
  0.00000000E+00  0.00000000E+00  0.00000000E+00
  0.00000000E+00  0.00000000E+00  0.00000000E+00
  0.00000000E+00  0.00000000E+00  0.00000000E+00
  0.00000000E+00  0.00000000E+00  0.00000000E+00
  0.00000000E+00  0.00000000E+00  0.00000000E+00
  0.00000000E+00  0.00000000E+00  0.00000000E+00
  0.00000000E+00  0.00000000E+00  0.00000000E+00
  0.00000000E+00  0.00000000E+00  0.00000000E+00
  0.00000000E+00  0.00000000E+00  0.00000000E+00
  0.00000000E+00  0.00000000E+00  0.00000000E+00
  0.00000000E+00  0.00000000E+00  0.00000000E+00
  0.00000000E+00  0.00000000E+00  0.00000000E+00
  0.00000000E+00  0.00000000E+00  0.00000000E+00
  0.00000000E+00  0.00000000E+00  0.00000000E+00
  0.00000000E+00  0.00000000E+00  0.00000000E+00
  0.00000000E+00  0.00000000E+00  0.00000000E+00
  0.00000000E+00  0.00000000E+00  0.00000000E+00
  0.00000000E+00  0.00000000E+00  0.00000000E+00
  0.00000000E+00  0.00000000E+00  0.00000000E+00
  0.00000000E+00  0.00000000E+00  0.00000000E+00
  0.00000000E+00  0.00000000E+00  0.00000000E+00
  0.00000000E+00  0.00000000E+00  0.00000000E+00
  0.00000000E+00  0.00000000E+00  0.00000000E+00
  0.00000000E+00  0.00000000E+00  0.00000000E+00
  0.00000000E+00  0.00000000E+00  0.00000000E+00
