Generated by VASPKIT code               
   1.00000000000000     
    15.4630845706421400   -0.0031205739059090    0.0000000000000000
    -7.7342458383728472   13.3891950667686643    0.0000000000000000
     0.0000000000000013    0.0000000000000022   19.7188114889335324
   C 
   104
Direct
  0.3349020878912228  0.5066395989617618  0.5301728967213251
  0.2403087084400539  0.4806211241709306  0.4864529304890368
  0.4080319465409303  0.5920776974960802  0.4903730908080490
  0.2771243611410199  0.5542401044531076  0.4331837971560475
  0.3857088955733516  0.6144267218099628  0.4295060770425607
  0.4934416140725304  0.6651883808165877  0.5302023176642052
  0.5194944401419548  0.7598098219102525  0.4865017472448017
  0.4458846190306289  0.7230085198717831  0.4332153947420707
  0.4258146404895626  0.6679794503981853  0.5869764398956718
  0.3320695897713719  0.5742290618441572  0.5869599392318960
  0.2422325171471584  0.5742248370601430  0.5869675123771358
  0.4258225979280965  0.7578319211587115  0.5869993347638598
  0.3321387469974439  0.7578242543229621  0.5870172258747317
  0.2422425693119479  0.6679201921793378  0.5870008522680834
  0.4934771583670781  0.8283390774327657  0.5302486235537884
  0.1840818841278775  0.5920313572730507  0.4904011794254117
  0.1717493270827646  0.5066035388465266  0.5301885613266961
  0.1718085223933912  0.6651219191312805  0.5302320903410376
  0.2403865000733347  0.7597245879183063  0.4865235954141482
  0.3349640988421925  0.8282801574174954  0.5302575629692683
  0.4080736613442681  0.8160229172616837  0.4904407860371478
  0.2287499801095692  0.6143932343619767  0.4295248678690911
  0.2771809962644340  0.7229528901435813  0.4332292454181115
  0.3857446560730580  0.7713912378131269  0.4295563641426483
  0.9895394210813748  0.8863678424630166  0.5557304750957002
  0.5686568036512796  0.3328696719072397  0.4633308971859833
  0.6671460780614282  0.2359309678106172  0.4633348231649492
  0.7641696014966328  0.4314163163865885  0.4633584060690978
  0.0142259280486030  0.8786738897011617  0.4857284058908320
  0.5241150900301577  0.3132231305918367  0.5388813633324006
  0.6868083867208910  0.2110748060655538  0.5388908622273334
  0.7890554871812157  0.4758848819823740  0.5389233932378730
  0.8967046411221347  0.8862917412320925  0.5556871336052467
  0.6671881945022662  0.4313933034755877  0.4633522548667486
  0.5686453227617676  0.2358863345912283  0.4633426805723531
  0.7641375131683930  0.3329182060497757  0.4633236992950174
  0.8644058692927885  0.8785571947810453  0.4856522253193134
  0.6868048386685643  0.4758869962678105  0.5389134364144823
  0.5241487950349608  0.2110144873489901  0.5389066336914610
  0.7890283732302237  0.3132547015744436  0.5388670063711345
  0.9347900698543015  0.8694833971531040  0.4408009113846916
  0.5943686728043645  0.4056209701614932  0.5793542093499084
  0.5944308776999776  0.1889216824607303  0.5793613754155800
  0.8111907005513501  0.4056116002148897  0.5793538290581992
  0.9118851839952811  0.9794556804972601  0.5855455605826450
  0.6486993112825559  0.5012031727944191  0.4211374229189673
  0.4988604712456493  0.1475287910786420  0.4211311597933047
  0.8524247860220839  0.3514407431858686  0.4210779444514401
  0.8942130273418769  0.0310196361081267  0.5297703521359978
  0.6579391757481972  0.5816875889343436  0.4614661580821533
  0.4184156176225926  0.0762506416037283  0.4614900648944769
  0.9236629823086417  0.3421827772843500  0.4613806911877560
  0.8629512218966653  0.9683383429831238  0.4695960131721506
  0.6748174645645619  0.5675615375938250  0.5305903357635486
  0.4324798751150212  0.1072764190181488  0.5306082592902044
  0.8926739631162448  0.3252315733938502  0.5305098760939160
  0.0188910367139314  0.0379854189796660  0.5979868369463546
  0.5499733150620827  0.4501825808101927  0.3955665730451798
  0.5498984322581606  0.0998411094549994  0.3955942106915771
  0.9001819523693513  0.4502134994508893  0.3955672181636132
  0.0649669598226339  0.1301024815613090  0.5587430232934310
  0.4978966316010442  0.5022864130423059  0.4190275923605071
  0.4978278902965627  0.9956421448186887  0.4190851285981978
  0.0043890253086829  0.5022995483601420  0.4190373997184125
  0.9855404583866729  0.1208917559552489  0.5137732084299884
  0.5670162560825176  0.5871248696295837  0.4569402649238370
  0.4130202956323075  0.9799035139743282  0.4569982177227772
  0.0200866876650139  0.4331493854669759  0.4568866982807975
  0.0674682923644525  0.9795849072340275  0.5856334242903358
  0.4988976611834062  0.3514072212034236  0.4210915050739530
  0.6486485407013660  0.1476199937497285  0.4211263732593196
  0.8525065631328275  0.5012266143287789  0.4211438935194423
  0.1368191368184313  0.0312174140664467  0.5298938321701669
  0.4184336132923292  0.3421964044781447  0.4614113246552307
  0.6579147331957316  0.0764033812291061  0.4614592718731743
  0.9237986113241448  0.5816982493719749  0.4614916860969984
  0.1353238093791163  0.1210001282530158  0.5138477450265881
  0.4130445328722629  0.4331534751966899  0.4569034309258200
  0.5669752739427665  0.9799780381041074  0.4569701356347977
  0.0201571798080025  0.5871158216204719  0.4569628681664639
  0.1055075432816537  0.9685308809618718  0.4697172276528363
  0.4324567430098156  0.3252317295860934  0.5305373601295358
  0.6748400436953048  0.1074286405669227  0.5305811660490960
  0.8927877373568762  0.5675590053222948  0.5306142951563544
  0.0878453561740784  0.0201074320324750  0.4139932715798480
  0.4400130120908656  0.4058965909097054  0.5697594234830490
  0.5941947280670945  0.0342915025717474  0.5698286849443761
  0.9658902203432760  0.5599610147891525  0.5698152155930956
  0.1030360982167764  0.1132788253652635  0.4438089370052580
  0.4108315430221765  0.4699991024879964  0.5279212350433866
  0.5301114266493343  0.9409512835353198  0.5280018677474629
  0.0591962060749225  0.5891750171351831  0.5279698793569239
  0.0102374630518014  0.1132044701264405  0.4437656125901768
  0.5300895726079489  0.5892510729387581  0.5279503505508814
  0.4108991334777912  0.9408890216352006  0.5280135530460797
  0.0591389012463637  0.4699837556985855  0.5279212354738618
  0.9323014386202573  0.0199872385073476  0.4139050621433498
  0.5941344339060706  0.5599958392961284  0.5697944172001357
  0.4400828359422349  0.0342016869700075  0.5698428453146391
  0.9658165360671873  0.4058601284811161  0.5697508831543630
  0.9808479329697093  0.9615686187847672  0.4015118947827503
  0.5409392765366690  0.4590443711299841  0.5932482722000856
  0.5410263323486291  0.0820368816641022  0.5932830447833908
  0.9180727316521029  0.4590078884142983  0.5932521820392651
 
  0.00000000E+00  0.00000000E+00  0.00000000E+00
  0.00000000E+00  0.00000000E+00  0.00000000E+00
  0.00000000E+00  0.00000000E+00  0.00000000E+00
  0.00000000E+00  0.00000000E+00  0.00000000E+00
  0.00000000E+00  0.00000000E+00  0.00000000E+00
  0.00000000E+00  0.00000000E+00  0.00000000E+00
  0.00000000E+00  0.00000000E+00  0.00000000E+00
  0.00000000E+00  0.00000000E+00  0.00000000E+00
  0.00000000E+00  0.00000000E+00  0.00000000E+00
  0.00000000E+00  0.00000000E+00  0.00000000E+00
  0.00000000E+00  0.00000000E+00  0.00000000E+00
  0.00000000E+00  0.00000000E+00  0.00000000E+00
  0.00000000E+00  0.00000000E+00  0.00000000E+00
  0.00000000E+00  0.00000000E+00  0.00000000E+00
  0.00000000E+00  0.00000000E+00  0.00000000E+00
  0.00000000E+00  0.00000000E+00  0.00000000E+00
  0.00000000E+00  0.00000000E+00  0.00000000E+00
  0.00000000E+00  0.00000000E+00  0.00000000E+00
  0.00000000E+00  0.00000000E+00  0.00000000E+00
  0.00000000E+00  0.00000000E+00  0.00000000E+00
  0.00000000E+00  0.00000000E+00  0.00000000E+00
  0.00000000E+00  0.00000000E+00  0.00000000E+00
  0.00000000E+00  0.00000000E+00  0.00000000E+00
  0.00000000E+00  0.00000000E+00  0.00000000E+00
  0.00000000E+00  0.00000000E+00  0.00000000E+00
  0.00000000E+00  0.00000000E+00  0.00000000E+00
  0.00000000E+00  0.00000000E+00  0.00000000E+00
  0.00000000E+00  0.00000000E+00  0.00000000E+00
  0.00000000E+00  0.00000000E+00  0.00000000E+00
  0.00000000E+00  0.00000000E+00  0.00000000E+00
  0.00000000E+00  0.00000000E+00  0.00000000E+00
  0.00000000E+00  0.00000000E+00  0.00000000E+00
  0.00000000E+00  0.00000000E+00  0.00000000E+00
  0.00000000E+00  0.00000000E+00  0.00000000E+00
  0.00000000E+00  0.00000000E+00  0.00000000E+00
  0.00000000E+00  0.00000000E+00  0.00000000E+00
  0.00000000E+00  0.00000000E+00  0.00000000E+00
  0.00000000E+00  0.00000000E+00  0.00000000E+00
  0.00000000E+00  0.00000000E+00  0.00000000E+00
  0.00000000E+00  0.00000000E+00  0.00000000E+00
  0.00000000E+00  0.00000000E+00  0.00000000E+00
  0.00000000E+00  0.00000000E+00  0.00000000E+00
  0.00000000E+00  0.00000000E+00  0.00000000E+00
  0.00000000E+00  0.00000000E+00  0.00000000E+00
  0.00000000E+00  0.00000000E+00  0.00000000E+00
  0.00000000E+00  0.00000000E+00  0.00000000E+00
  0.00000000E+00  0.00000000E+00  0.00000000E+00
  0.00000000E+00  0.00000000E+00  0.00000000E+00
  0.00000000E+00  0.00000000E+00  0.00000000E+00
  0.00000000E+00  0.00000000E+00  0.00000000E+00
  0.00000000E+00  0.00000000E+00  0.00000000E+00
  0.00000000E+00  0.00000000E+00  0.00000000E+00
  0.00000000E+00  0.00000000E+00  0.00000000E+00
  0.00000000E+00  0.00000000E+00  0.00000000E+00
  0.00000000E+00  0.00000000E+00  0.00000000E+00
  0.00000000E+00  0.00000000E+00  0.00000000E+00
  0.00000000E+00  0.00000000E+00  0.00000000E+00
  0.00000000E+00  0.00000000E+00  0.00000000E+00
  0.00000000E+00  0.00000000E+00  0.00000000E+00
  0.00000000E+00  0.00000000E+00  0.00000000E+00
  0.00000000E+00  0.00000000E+00  0.00000000E+00
  0.00000000E+00  0.00000000E+00  0.00000000E+00
  0.00000000E+00  0.00000000E+00  0.00000000E+00
  0.00000000E+00  0.00000000E+00  0.00000000E+00
  0.00000000E+00  0.00000000E+00  0.00000000E+00
  0.00000000E+00  0.00000000E+00  0.00000000E+00
  0.00000000E+00  0.00000000E+00  0.00000000E+00
  0.00000000E+00  0.00000000E+00  0.00000000E+00
  0.00000000E+00  0.00000000E+00  0.00000000E+00
  0.00000000E+00  0.00000000E+00  0.00000000E+00
  0.00000000E+00  0.00000000E+00  0.00000000E+00
  0.00000000E+00  0.00000000E+00  0.00000000E+00
  0.00000000E+00  0.00000000E+00  0.00000000E+00
  0.00000000E+00  0.00000000E+00  0.00000000E+00
  0.00000000E+00  0.00000000E+00  0.00000000E+00
  0.00000000E+00  0.00000000E+00  0.00000000E+00
  0.00000000E+00  0.00000000E+00  0.00000000E+00
  0.00000000E+00  0.00000000E+00  0.00000000E+00
  0.00000000E+00  0.00000000E+00  0.00000000E+00
  0.00000000E+00  0.00000000E+00  0.00000000E+00
  0.00000000E+00  0.00000000E+00  0.00000000E+00
  0.00000000E+00  0.00000000E+00  0.00000000E+00
  0.00000000E+00  0.00000000E+00  0.00000000E+00
  0.00000000E+00  0.00000000E+00  0.00000000E+00
  0.00000000E+00  0.00000000E+00  0.00000000E+00
  0.00000000E+00  0.00000000E+00  0.00000000E+00
  0.00000000E+00  0.00000000E+00  0.00000000E+00
  0.00000000E+00  0.00000000E+00  0.00000000E+00
  0.00000000E+00  0.00000000E+00  0.00000000E+00
  0.00000000E+00  0.00000000E+00  0.00000000E+00
  0.00000000E+00  0.00000000E+00  0.00000000E+00
  0.00000000E+00  0.00000000E+00  0.00000000E+00
  0.00000000E+00  0.00000000E+00  0.00000000E+00
  0.00000000E+00  0.00000000E+00  0.00000000E+00
  0.00000000E+00  0.00000000E+00  0.00000000E+00
  0.00000000E+00  0.00000000E+00  0.00000000E+00
  0.00000000E+00  0.00000000E+00  0.00000000E+00
  0.00000000E+00  0.00000000E+00  0.00000000E+00
  0.00000000E+00  0.00000000E+00  0.00000000E+00
  0.00000000E+00  0.00000000E+00  0.00000000E+00
  0.00000000E+00  0.00000000E+00  0.00000000E+00
  0.00000000E+00  0.00000000E+00  0.00000000E+00
  0.00000000E+00  0.00000000E+00  0.00000000E+00
  0.00000000E+00  0.00000000E+00  0.00000000E+00
