Generated by VASPKIT code               
   1.00000000000000     
    19.2844785886786241   -0.0032525897379298    0.0000000000000000
    -9.6333524277135769   16.4095688755589251    0.0000000000000000
     0.0000000000000012    0.0000000000000021   19.7107557585762443
   C 
   128
Direct
  0.7403460487704336  0.4799291463487450  0.5227678803081588
  0.0690236921258389  0.0148833900188095  0.6359489948356227
  0.7888701061533823  0.4572170012032117  0.4850835600334520
  0.9923317140375687  0.0028527993915404  0.6466141851028055
  0.6695736700882762  0.4580942881291463  0.4847558009231818
  0.0541137646728558  0.9351539652005769  0.5969136019360235
  0.7421175287803763  0.4089144031276106  0.4253003599961360
  0.9253168349881662  0.9310174196390477  0.6142685301983661
  0.6677140877946144  0.4094668556282741  0.4250754055982071
  0.9613082742634376  0.8898408376426588  0.5807641812182780
  0.5982605097274956  0.4056258232493875  0.5233203188841031
  0.0794432262811995  0.9776222075591789  0.5314023009658086
  0.5438925773821026  0.3350116336191391  0.4856376422494151
  0.0364238843844973  0.9177875688674035  0.4775399117246124
  0.5921307590994545  0.3342203048975279  0.4257172642765852
  0.9524778027678735  0.8812730860365505  0.5107737093995510
  0.6253598572575214  0.3793745885929951  0.5836513828038647
  0.1074512070419757  0.0563137440060402  0.5194034639293506
  0.7115589752417009  0.4232077246323414  0.5833634218648598
  0.1116465810762932  0.1007920852724951  0.5843205123638313
  0.7530709397723285  0.3784985040767452  0.5839967783110325
  0.0380773590963344  0.1109446246384422  0.5788699923360170
  0.5809762547448969  0.2914435712419774  0.5841147401345950
  0.0700426919282080  0.0539177238925532  0.4537027639171214
  0.6224995070904811  0.2467437294101344  0.5843334733587540
  0.0161656794530174  0.0872360274607757  0.4546056005900709
  0.7086849267521487  0.2905553282494751  0.5844915496723146
  0.0094057238775207  0.1355836899702254  0.5140700838378294
  0.5270806849672596  0.2647398027679699  0.5240854900010419
  0.0340058942490913  0.9748587310896824  0.4230682974683120
  0.7898402665686177  0.3333214362936943  0.4863337323794923
  0.9054748748612624  0.0384943513501881  0.5856052311345863
  0.8068001055721794  0.4042237518256186  0.5239072135695295
  0.9797308482626406  0.0688593186802322  0.6243235866808945
  0.7356333326867244  0.2633137246755837  0.5246806853968522
  0.9137936315938475  0.0807184204282620  0.5252071623974857
  0.6642179990949231  0.2101990398431468  0.4864379953948230
  0.8734330581298480  0.0152454523257148  0.4697324790152422
  0.5935708837586020  0.1890655509040613  0.5243625527272684
  0.9436608966080726  0.0284471716430730  0.4289662981723339
  0.5449086858789300  0.2111137045561691  0.4861074568898403
  0.9508121834208083  0.9561647101918638  0.4216690725516230
  0.7414937495883720  0.3331422576895662  0.4261262329807352
  0.8738845917045595  0.9521735036272787  0.5797830490761626
  0.6659270497550693  0.2579000410932437  0.4261114004177102
  0.8483819807748958  0.9295605470145603  0.5066387703839723
  0.5915057237254402  0.2584469056137308  0.4259222410773660
  0.9020597112809909  0.9019111828272202  0.4721892631889659
  0.2699438685728808  0.5266849003977612  0.4806719339109335
  0.1930765063319768  0.8472294122847330  0.6204505875955562
  0.1537490634318601  0.3744010509559956  0.5037085193027053
  0.5920590156837520  0.7589943359080351  0.3894884363065643
  0.3268562630787102  0.5809691612533072  0.4257514532255300
  0.1773801177784122  0.9065827826882611  0.5885963987926885
  0.1232449969283493  0.3022315884674498  0.4651754993499324
  0.6447543084894676  0.8123817970619314  0.3395255190207891
  0.2194331177798432  0.5669273064737581  0.4944834188192218
  0.2472370896502198  0.8321365137993126  0.5809931224730960
  0.2409777478047062  0.4365627982036813  0.4874692425811844
  0.5281300189543359  0.7809911394548905  0.4071150651137359
  0.2356721258489287  0.6252650759731750  0.4443175466063209
  0.2613488229914509  0.8791013536239873  0.5209423038134346
  0.2661914361558431  0.3854750738294896  0.4478244348886165
  0.5591584876060693  0.8615586904977235  0.3678637087444869
  0.3012634861036361  0.6355864515553620  0.4026905863115644
  0.2173210482820878  0.9243212162964483  0.5255483633468003
  0.1959977482218065  0.3095718628564015  0.4343410274084363
  0.6253519735130695  0.8751211211101619  0.3266897785162115
  0.2361026761889420  0.6048324253630426  0.5603696542387198
  0.2102053335935352  0.7407632317230224  0.5645336569722090
  0.2898540365731321  0.4539497331790017  0.5585030870985506
  0.5478296154117288  0.8142514410273947  0.4845075049654639
  0.2585517174466148  0.6957047010634909  0.5549589746289243
  0.2017577368431134  0.7410947622699453  0.4821003466229143
  0.3362660288504529  0.4080679240733645  0.5532921773944892
  0.5856662204721061  0.9059548481210982  0.4818127554073968
  0.2561409492567961  0.7060332843316459  0.4746937161207541
  0.2329345189695644  0.8288174825820676  0.4629618012663883
  0.3198625641501778  0.3705408253558389  0.4885422769030257
  0.5896906681695313  0.9306216072150875  0.4144192620607114
  0.3003113725791380  0.5994600675320854  0.5887894436201648
  0.1249675766079719  0.7100458647086185  0.5906455003340483
  0.2214698152027310  0.3991765691819182  0.6074482824450911
  0.6198416266920503  0.8050044936843292  0.5016483353169505
  0.3687332849557805  0.6798789829259775  0.5950099090089154
  0.0710709167403607  0.6882065576240279  0.5355427970850712
  0.2321224269499567  0.3343324304138591  0.6316556445798511
  0.6882789392145483  0.8814348867444863  0.5186104691346927
  0.3477254166839074  0.7379627802470807  0.5711352186246401
  0.1114446975094552  0.7049166152889441  0.4718244953063149
  0.2987812285273321  0.3370099644977529  0.5986185618014801
  0.6696051805835808  0.9434013614019108  0.5047621726180012
  0.3235320173238563  0.5468353325261290  0.5470613376987004
  0.1182710980017205  0.7731096131326467  0.6262615121610509
  0.1450499315392548  0.3589250328095019  0.5745893946309195
  0.6414195485936318  0.7706626405451971  0.4472276887078124
  0.4073843788136244  0.6119039757175102  0.5203008811505043
  0.0559832020828992  0.7863672933440924  0.5989666548088337
  0.1069567605290587  0.2705888548516882  0.5823303242305471
  0.7268586932821393  0.8238859913040244  0.4308219105861681
  0.4329972835076248  0.6857804034109023  0.5539436015136019
  0.0285199045397064  0.7351809460250038  0.5405182598033278
  0.1608452278853676  0.2555443029355047  0.6174650485948376
  0.7624815962864062  0.8944412652137785  0.4804063758086272
  0.4067664480886108  0.6254239838009141  0.4482351119754213
  0.0880549466268832  0.8768308951131232  0.5826471431046372
  0.0815160439170270  0.2260507924950588  0.5131531250977801
  0.7284586330909306  0.8530693572137906  0.3653756289816741
  0.4420325853318801  0.7171715015539206  0.4313385448472502
  0.0761756821273707  0.8687258019802115  0.4912987259192292
  0.1498261421001033  0.2076829920300867  0.5098554017785091
  0.7608024724663096  0.9408922114418630  0.3654410537216464
  0.4609552158501486  0.7564456361662266  0.5052224346760923
  0.0415514155590131  0.7788481139513692  0.4794276468381398
  0.1795338884085851  0.1970785566305864  0.5789696026668807
  0.7877710429084956  0.9764467362863485  0.4371197265775848
  0.3957640953053172  0.7793275231034329  0.5150165754773681
  0.0962355149937437  0.7639197476824435  0.4402853009220138
  0.2732590782298558  0.2587527208820077  0.5656243456005612
  0.7237062792978008  0.9984917118290113  0.4551063092022147
  0.3455993860840749  0.7590403642550925  0.4560873041406097
  0.1703811653909142  0.8394312974731122  0.4343501032898871
  0.2847153334437635  0.2816012817294649  0.4964071229882663
  0.6753516463824596  0.9886353236755880  0.3979761373232904
  0.3670242287648193  0.7176927422968902  0.4096448061927234
  0.1627332253266829  0.9007207422783097  0.4702727791160584
  0.2079337322812904  0.2458103659936057  0.4614639135831595
  0.6973580271266044  0.9530377986297864  0.3436132894431978
 
  0.00000000E+00  0.00000000E+00  0.00000000E+00
  0.00000000E+00  0.00000000E+00  0.00000000E+00
  0.00000000E+00  0.00000000E+00  0.00000000E+00
  0.00000000E+00  0.00000000E+00  0.00000000E+00
  0.00000000E+00  0.00000000E+00  0.00000000E+00
  0.00000000E+00  0.00000000E+00  0.00000000E+00
  0.00000000E+00  0.00000000E+00  0.00000000E+00
  0.00000000E+00  0.00000000E+00  0.00000000E+00
  0.00000000E+00  0.00000000E+00  0.00000000E+00
  0.00000000E+00  0.00000000E+00  0.00000000E+00
  0.00000000E+00  0.00000000E+00  0.00000000E+00
  0.00000000E+00  0.00000000E+00  0.00000000E+00
  0.00000000E+00  0.00000000E+00  0.00000000E+00
  0.00000000E+00  0.00000000E+00  0.00000000E+00
  0.00000000E+00  0.00000000E+00  0.00000000E+00
  0.00000000E+00  0.00000000E+00  0.00000000E+00
  0.00000000E+00  0.00000000E+00  0.00000000E+00
  0.00000000E+00  0.00000000E+00  0.00000000E+00
  0.00000000E+00  0.00000000E+00  0.00000000E+00
  0.00000000E+00  0.00000000E+00  0.00000000E+00
  0.00000000E+00  0.00000000E+00  0.00000000E+00
  0.00000000E+00  0.00000000E+00  0.00000000E+00
  0.00000000E+00  0.00000000E+00  0.00000000E+00
  0.00000000E+00  0.00000000E+00  0.00000000E+00
  0.00000000E+00  0.00000000E+00  0.00000000E+00
  0.00000000E+00  0.00000000E+00  0.00000000E+00
  0.00000000E+00  0.00000000E+00  0.00000000E+00
  0.00000000E+00  0.00000000E+00  0.00000000E+00
  0.00000000E+00  0.00000000E+00  0.00000000E+00
  0.00000000E+00  0.00000000E+00  0.00000000E+00
  0.00000000E+00  0.00000000E+00  0.00000000E+00
  0.00000000E+00  0.00000000E+00  0.00000000E+00
  0.00000000E+00  0.00000000E+00  0.00000000E+00
  0.00000000E+00  0.00000000E+00  0.00000000E+00
  0.00000000E+00  0.00000000E+00  0.00000000E+00
  0.00000000E+00  0.00000000E+00  0.00000000E+00
  0.00000000E+00  0.00000000E+00  0.00000000E+00
  0.00000000E+00  0.00000000E+00  0.00000000E+00
  0.00000000E+00  0.00000000E+00  0.00000000E+00
  0.00000000E+00  0.00000000E+00  0.00000000E+00
  0.00000000E+00  0.00000000E+00  0.00000000E+00
  0.00000000E+00  0.00000000E+00  0.00000000E+00
  0.00000000E+00  0.00000000E+00  0.00000000E+00
  0.00000000E+00  0.00000000E+00  0.00000000E+00
  0.00000000E+00  0.00000000E+00  0.00000000E+00
  0.00000000E+00  0.00000000E+00  0.00000000E+00
  0.00000000E+00  0.00000000E+00  0.00000000E+00
  0.00000000E+00  0.00000000E+00  0.00000000E+00
  0.00000000E+00  0.00000000E+00  0.00000000E+00
  0.00000000E+00  0.00000000E+00  0.00000000E+00
  0.00000000E+00  0.00000000E+00  0.00000000E+00
  0.00000000E+00  0.00000000E+00  0.00000000E+00
  0.00000000E+00  0.00000000E+00  0.00000000E+00
  0.00000000E+00  0.00000000E+00  0.00000000E+00
  0.00000000E+00  0.00000000E+00  0.00000000E+00
  0.00000000E+00  0.00000000E+00  0.00000000E+00
  0.00000000E+00  0.00000000E+00  0.00000000E+00
  0.00000000E+00  0.00000000E+00  0.00000000E+00
  0.00000000E+00  0.00000000E+00  0.00000000E+00
  0.00000000E+00  0.00000000E+00  0.00000000E+00
  0.00000000E+00  0.00000000E+00  0.00000000E+00
  0.00000000E+00  0.00000000E+00  0.00000000E+00
  0.00000000E+00  0.00000000E+00  0.00000000E+00
  0.00000000E+00  0.00000000E+00  0.00000000E+00
  0.00000000E+00  0.00000000E+00  0.00000000E+00
  0.00000000E+00  0.00000000E+00  0.00000000E+00
  0.00000000E+00  0.00000000E+00  0.00000000E+00
  0.00000000E+00  0.00000000E+00  0.00000000E+00
  0.00000000E+00  0.00000000E+00  0.00000000E+00
  0.00000000E+00  0.00000000E+00  0.00000000E+00
  0.00000000E+00  0.00000000E+00  0.00000000E+00
  0.00000000E+00  0.00000000E+00  0.00000000E+00
  0.00000000E+00  0.00000000E+00  0.00000000E+00
  0.00000000E+00  0.00000000E+00  0.00000000E+00
  0.00000000E+00  0.00000000E+00  0.00000000E+00
  0.00000000E+00  0.00000000E+00  0.00000000E+00
  0.00000000E+00  0.00000000E+00  0.00000000E+00
  0.00000000E+00  0.00000000E+00  0.00000000E+00
  0.00000000E+00  0.00000000E+00  0.00000000E+00
  0.00000000E+00  0.00000000E+00  0.00000000E+00
  0.00000000E+00  0.00000000E+00  0.00000000E+00
  0.00000000E+00  0.00000000E+00  0.00000000E+00
  0.00000000E+00  0.00000000E+00  0.00000000E+00
  0.00000000E+00  0.00000000E+00  0.00000000E+00
  0.00000000E+00  0.00000000E+00  0.00000000E+00
  0.00000000E+00  0.00000000E+00  0.00000000E+00
  0.00000000E+00  0.00000000E+00  0.00000000E+00
  0.00000000E+00  0.00000000E+00  0.00000000E+00
  0.00000000E+00  0.00000000E+00  0.00000000E+00
  0.00000000E+00  0.00000000E+00  0.00000000E+00
  0.00000000E+00  0.00000000E+00  0.00000000E+00
  0.00000000E+00  0.00000000E+00  0.00000000E+00
  0.00000000E+00  0.00000000E+00  0.00000000E+00
  0.00000000E+00  0.00000000E+00  0.00000000E+00
  0.00000000E+00  0.00000000E+00  0.00000000E+00
  0.00000000E+00  0.00000000E+00  0.00000000E+00
  0.00000000E+00  0.00000000E+00  0.00000000E+00
  0.00000000E+00  0.00000000E+00  0.00000000E+00
  0.00000000E+00  0.00000000E+00  0.00000000E+00
  0.00000000E+00  0.00000000E+00  0.00000000E+00
  0.00000000E+00  0.00000000E+00  0.00000000E+00
  0.00000000E+00  0.00000000E+00  0.00000000E+00
  0.00000000E+00  0.00000000E+00  0.00000000E+00
  0.00000000E+00  0.00000000E+00  0.00000000E+00
  0.00000000E+00  0.00000000E+00  0.00000000E+00
  0.00000000E+00  0.00000000E+00  0.00000000E+00
  0.00000000E+00  0.00000000E+00  0.00000000E+00
  0.00000000E+00  0.00000000E+00  0.00000000E+00
  0.00000000E+00  0.00000000E+00  0.00000000E+00
  0.00000000E+00  0.00000000E+00  0.00000000E+00
  0.00000000E+00  0.00000000E+00  0.00000000E+00
  0.00000000E+00  0.00000000E+00  0.00000000E+00
  0.00000000E+00  0.00000000E+00  0.00000000E+00
  0.00000000E+00  0.00000000E+00  0.00000000E+00
  0.00000000E+00  0.00000000E+00  0.00000000E+00
  0.00000000E+00  0.00000000E+00  0.00000000E+00
  0.00000000E+00  0.00000000E+00  0.00000000E+00
  0.00000000E+00  0.00000000E+00  0.00000000E+00
  0.00000000E+00  0.00000000E+00  0.00000000E+00
  0.00000000E+00  0.00000000E+00  0.00000000E+00
  0.00000000E+00  0.00000000E+00  0.00000000E+00
  0.00000000E+00  0.00000000E+00  0.00000000E+00
  0.00000000E+00  0.00000000E+00  0.00000000E+00
  0.00000000E+00  0.00000000E+00  0.00000000E+00
  0.00000000E+00  0.00000000E+00  0.00000000E+00
  0.00000000E+00  0.00000000E+00  0.00000000E+00
  0.00000000E+00  0.00000000E+00  0.00000000E+00
  0.00000000E+00  0.00000000E+00  0.00000000E+00
