Generated by VASPKIT code               
   1.00000000000000     
    19.3470306922931563   -0.2194337770374429    0.0000000000000000
    -9.8401659745459327   16.3260610560675552    0.0000000000000000
     0.0000000000000012    0.0000000000000020   19.7171749931299232
   C 
   128
Direct
  0.4739987234186529  0.7389485751421958  0.5133197706096837
  0.0475864476646777  0.0975366260124702  0.5086084475554671
  0.4565731241184210  0.6676446599479604  0.4756672337378305
  0.0849718940119644  0.0524191485936214  0.4975954647493523
  0.4551157787244762  0.7909304092735354  0.4748064836690489
  0.9646561000116805  0.0494154841682146  0.4916521448687732
  0.4073375876468219  0.6659443316789933  0.4157682487842251
  0.0227625271221044  0.9678472154733342  0.4879759692624646
  0.4075871390253170  0.7414000891674419  0.4152229752088488
  0.9457670246601069  0.9658731473462439  0.4839824352816322
  0.4057458637924114  0.8117040608980446  0.5128065915349254
  0.9127019477676157  0.0531830440716021  0.5473677383877984
  0.3339407402401662  0.7880638141313057  0.4750630194453720
  0.8586007532058986  0.9627145206839245  0.5665586082975835
  0.3322009459898325  0.7395437355992911  0.4153475166232852
  0.8825694220958908  0.9149815498155647  0.5290116471632373
  0.3773118692213089  0.7545095898185608  0.5731827588732585
  0.9732667615169674  0.0817436593853742  0.6085228491898462
  0.4197449600082308  0.7114161537140689  0.5734665934893428
  0.0531107716864696  0.1138891901528822  0.5847571079358715
  0.3752522388153636  0.6225197171975267  0.5739823484099844
  0.1028913382901493  0.0878303135689578  0.6136156806561246
  0.2901423768843756  0.7082353412946176  0.5737598355436759
  0.9412182747521598  0.0217216002639802  0.6614811810414594
  0.2456547078126405  0.6193509969400566  0.5742231702913756
  0.9900651792566606  0.9944357285107159  0.6907383394333237
  0.2880913507897702  0.5762417963170421  0.5741586322521499
  0.0708454578209228  0.0273743982086359  0.6663857592753786
  0.2621664033614479  0.7337911923157918  0.5137592199721936
  0.8675417640725485  0.9472059894695377  0.6349483702021885
  0.3302044122669372  0.5410217785711708  0.4761687458632693
  0.1050089091511452  0.9719417508862094  0.5759011947979431
  0.4024658563488046  0.5959834297073954  0.5141093969875783
  0.1405236399765002  0.0619443979222751  0.5557900517138918
  0.2589056338138533  0.5180997446359825  0.5144080365153769
  0.0747962299223204  0.9559249379461860  0.6431623751826123
  0.2090048652725685  0.5381862547055576  0.4764241251651455
  0.9976196171922211  0.8811737343052854  0.6497591104577083
  0.1906513156565453  0.5908506811020544  0.5145228937497848
  0.9449759017145851  0.9019761197556448  0.6799932441756908
  0.2075690363467899  0.6615188666522442  0.4761611468297957
  0.8722408280159613  0.8753605019670943  0.6439774517303078
  0.3311815568942151  0.5885860352977161  0.4160296542068025
  0.0348632929807025  0.9194653709085898  0.5354026829709397
  0.2557768674196836  0.5867227033655382  0.4162077895655827
  0.9665004555379610  0.8500325050883859  0.5774436829392471
  0.2560509348962938  0.6622061841891735  0.4160778864084307
  0.8809325223241373  0.8478393000231819  0.5716129944478539
  0.6956579611502107  0.4460977184036210  0.4022165422431314
  0.8794301331617049  0.1069655192695578  0.5327363099728828
  0.9239703520346794  0.7614360344175779  0.5493927386619077
  0.2436584769770604  0.2053958224006678  0.5051402770003577
  0.6774647926528985  0.4058220433367197  0.3334133945155457
  0.8248652360570929  0.1128900089982139  0.5875196126375926
  0.8924111247105913  0.6776367442884847  0.5831776168787997
  0.3192598774630397  0.2678632855997307  0.5331719493099811
  0.7749683463068280  0.4419197494650433  0.4243750901871124
  0.9442551180304122  0.2002040956410482  0.5197023652720461
  0.8415317195680032  0.7621149666306479  0.5375139409362788
  0.2261496290560174  0.1191338323714817  0.5304026166793534
  0.7936220745747633  0.4009677393477276  0.3665299488821816
  0.9335553510853458  0.2478417399688624  0.5670674726259932
  0.7734736802745772  0.6789428923150069  0.5629969225873097
  0.3061911017977650  0.1454789925997204  0.5684759343832155
  0.7357743648528512  0.3821989127121057  0.3157846055295295
  0.8608090114801428  0.1948137570666120  0.6080258797023887
  0.8062837075961156  0.6343702515470753  0.5910094436657403
  0.3557160284303791  0.2320614133763712  0.5727120434699486
  0.7360772396563036  0.3724108577178242  0.4743203160190959
  0.9323035076391193  0.2270509302896286  0.4534399473204260
  0.8280494772317581  0.7473411305812689  0.4605437569151363
  0.2444479572393234  0.0882161078613422  0.4637098396326209
  0.7473069159385162  0.3056039725336888  0.4571943278117772
  0.9217513197228797  0.2967643706318626  0.4586425548191002
  0.7542803136078362  0.6700680353247250  0.4458333308459217
  0.3162674195018482  0.0844671300441320  0.4690085196426423
  0.7880426211108187  0.3183058059057089  0.3865012466065352
  0.9196012800814728  0.3068069017325712  0.5304789218436952
  0.7209222815047553  0.6280583974784193  0.5082953805599928
  0.3540988722405416  0.1192084416858492  0.5326134441122790
  0.6511681710097790  0.3358070395441857  0.4820989976989765
  0.8612729699765751  0.1594082972537691  0.4241102732184672
  0.8907827061632432  0.7402246609106697  0.4301595142091372
  0.2576025501125230  0.1409776496392325  0.4081779131923966
  0.6045440501642645  0.2461960101477132  0.4772396749811207
  0.8035918474781383  0.1850241629285279  0.4106725885935134
  0.8540605378468697  0.6595291131579302  0.3946832986721276
  0.3382624852566991  0.1681499212810635  0.3783882119053672
  0.6638590313004613  0.2191262055711221  0.4595334115554053
  0.8394797762749775  0.2764379982290563  0.4256995004671680
  0.7686897805829958  0.6176492929477604  0.4024215123190942
  0.3729327381131142  0.1296286065804466  0.4143448582922034
  0.6242471356092736  0.3757464402919837  0.4393906089389006
  0.8264400264519765  0.0903773852972094  0.4694014086183742
  0.9453929460849650  0.7439445182265416  0.4795962292438460
  0.2592496847263988  0.2123131348848020  0.4320524000841246
  0.5541937977244515  0.3124445445579482  0.3977960758501453
  0.7492559053077059  0.0775873906879667  0.4872971546158382
  0.9388708122020475  0.6649895969658601  0.4770354400382644
  0.3396530711814378  0.2821630695748638  0.4164563623214619
  0.5421430075151719  0.2247206402524426  0.4212305444011051
  0.7348206619098718  0.1343443596056915  0.4499421831641826
  0.8862839821042741  0.6136912180381628  0.4228135089034168
  0.3882675300328486  0.2562263796087265  0.3799654261324434
  0.5989020642916785  0.3303392755662671  0.3308532670590409
  0.7467152093325069  0.0917183741554695  0.5580184241124897
  0.9063867284056499  0.6248686708363707  0.5403434632031647
  0.3772421042664789  0.3175690167313121  0.4797735088785444
  0.6064240850636011  0.2636818552338767  0.3088381338876047
  0.7295718995221989  0.1563443856418445  0.5669949688204099
  0.8323405115008597  0.5475120106051250  0.5261677854000339
  0.4484230937872127  0.3122127478827537  0.4856688316830500
  0.5783024652615794  0.2027575937880144  0.3635781168031755
  0.7137368054506368  0.1833058405982086  0.4969996207663598
  0.8182983135239397  0.5308703271779649  0.4503864384736289
  0.4656347451011200  0.2814227092977220  0.4200161398946847
  0.6456775633087659  0.1989146885668660  0.3850581605267038
  0.7916527468807075  0.2720830051124139  0.4907682840121410
  0.7367504570851011  0.5334077603231790  0.4340064300490027
  0.4549904397204827  0.1939684554627306  0.4429759654566752
  0.7155109971866196  0.2563617653273909  0.3438079067259139
  0.8423092018714016  0.2907492760254584  0.5512272234403355
  0.7141819116476142  0.5491272968123937  0.5050158518941643
  0.4348751263594721  0.1879580514062340  0.5186018326690132
  0.6915468357152648  0.2945184327431392  0.2963474853603856
  0.8032819149719472  0.2220606605405919  0.5960445497576359
  0.7691713686508095  0.5536872405250435  0.5554196580948982
  0.4354515637123626  0.2588129457214308  0.5411615747814338
 
  0.00000000E+00  0.00000000E+00  0.00000000E+00
  0.00000000E+00  0.00000000E+00  0.00000000E+00
  0.00000000E+00  0.00000000E+00  0.00000000E+00
  0.00000000E+00  0.00000000E+00  0.00000000E+00
  0.00000000E+00  0.00000000E+00  0.00000000E+00
  0.00000000E+00  0.00000000E+00  0.00000000E+00
  0.00000000E+00  0.00000000E+00  0.00000000E+00
  0.00000000E+00  0.00000000E+00  0.00000000E+00
  0.00000000E+00  0.00000000E+00  0.00000000E+00
  0.00000000E+00  0.00000000E+00  0.00000000E+00
  0.00000000E+00  0.00000000E+00  0.00000000E+00
  0.00000000E+00  0.00000000E+00  0.00000000E+00
  0.00000000E+00  0.00000000E+00  0.00000000E+00
  0.00000000E+00  0.00000000E+00  0.00000000E+00
  0.00000000E+00  0.00000000E+00  0.00000000E+00
  0.00000000E+00  0.00000000E+00  0.00000000E+00
  0.00000000E+00  0.00000000E+00  0.00000000E+00
  0.00000000E+00  0.00000000E+00  0.00000000E+00
  0.00000000E+00  0.00000000E+00  0.00000000E+00
  0.00000000E+00  0.00000000E+00  0.00000000E+00
  0.00000000E+00  0.00000000E+00  0.00000000E+00
  0.00000000E+00  0.00000000E+00  0.00000000E+00
  0.00000000E+00  0.00000000E+00  0.00000000E+00
  0.00000000E+00  0.00000000E+00  0.00000000E+00
  0.00000000E+00  0.00000000E+00  0.00000000E+00
  0.00000000E+00  0.00000000E+00  0.00000000E+00
  0.00000000E+00  0.00000000E+00  0.00000000E+00
  0.00000000E+00  0.00000000E+00  0.00000000E+00
  0.00000000E+00  0.00000000E+00  0.00000000E+00
  0.00000000E+00  0.00000000E+00  0.00000000E+00
  0.00000000E+00  0.00000000E+00  0.00000000E+00
  0.00000000E+00  0.00000000E+00  0.00000000E+00
  0.00000000E+00  0.00000000E+00  0.00000000E+00
  0.00000000E+00  0.00000000E+00  0.00000000E+00
  0.00000000E+00  0.00000000E+00  0.00000000E+00
  0.00000000E+00  0.00000000E+00  0.00000000E+00
  0.00000000E+00  0.00000000E+00  0.00000000E+00
  0.00000000E+00  0.00000000E+00  0.00000000E+00
  0.00000000E+00  0.00000000E+00  0.00000000E+00
  0.00000000E+00  0.00000000E+00  0.00000000E+00
  0.00000000E+00  0.00000000E+00  0.00000000E+00
  0.00000000E+00  0.00000000E+00  0.00000000E+00
  0.00000000E+00  0.00000000E+00  0.00000000E+00
  0.00000000E+00  0.00000000E+00  0.00000000E+00
  0.00000000E+00  0.00000000E+00  0.00000000E+00
  0.00000000E+00  0.00000000E+00  0.00000000E+00
  0.00000000E+00  0.00000000E+00  0.00000000E+00
  0.00000000E+00  0.00000000E+00  0.00000000E+00
  0.00000000E+00  0.00000000E+00  0.00000000E+00
  0.00000000E+00  0.00000000E+00  0.00000000E+00
  0.00000000E+00  0.00000000E+00  0.00000000E+00
  0.00000000E+00  0.00000000E+00  0.00000000E+00
  0.00000000E+00  0.00000000E+00  0.00000000E+00
  0.00000000E+00  0.00000000E+00  0.00000000E+00
  0.00000000E+00  0.00000000E+00  0.00000000E+00
  0.00000000E+00  0.00000000E+00  0.00000000E+00
  0.00000000E+00  0.00000000E+00  0.00000000E+00
  0.00000000E+00  0.00000000E+00  0.00000000E+00
  0.00000000E+00  0.00000000E+00  0.00000000E+00
  0.00000000E+00  0.00000000E+00  0.00000000E+00
  0.00000000E+00  0.00000000E+00  0.00000000E+00
  0.00000000E+00  0.00000000E+00  0.00000000E+00
  0.00000000E+00  0.00000000E+00  0.00000000E+00
  0.00000000E+00  0.00000000E+00  0.00000000E+00
  0.00000000E+00  0.00000000E+00  0.00000000E+00
  0.00000000E+00  0.00000000E+00  0.00000000E+00
  0.00000000E+00  0.00000000E+00  0.00000000E+00
  0.00000000E+00  0.00000000E+00  0.00000000E+00
  0.00000000E+00  0.00000000E+00  0.00000000E+00
  0.00000000E+00  0.00000000E+00  0.00000000E+00
  0.00000000E+00  0.00000000E+00  0.00000000E+00
  0.00000000E+00  0.00000000E+00  0.00000000E+00
  0.00000000E+00  0.00000000E+00  0.00000000E+00
  0.00000000E+00  0.00000000E+00  0.00000000E+00
  0.00000000E+00  0.00000000E+00  0.00000000E+00
  0.00000000E+00  0.00000000E+00  0.00000000E+00
  0.00000000E+00  0.00000000E+00  0.00000000E+00
  0.00000000E+00  0.00000000E+00  0.00000000E+00
  0.00000000E+00  0.00000000E+00  0.00000000E+00
  0.00000000E+00  0.00000000E+00  0.00000000E+00
  0.00000000E+00  0.00000000E+00  0.00000000E+00
  0.00000000E+00  0.00000000E+00  0.00000000E+00
  0.00000000E+00  0.00000000E+00  0.00000000E+00
  0.00000000E+00  0.00000000E+00  0.00000000E+00
  0.00000000E+00  0.00000000E+00  0.00000000E+00
  0.00000000E+00  0.00000000E+00  0.00000000E+00
  0.00000000E+00  0.00000000E+00  0.00000000E+00
  0.00000000E+00  0.00000000E+00  0.00000000E+00
  0.00000000E+00  0.00000000E+00  0.00000000E+00
  0.00000000E+00  0.00000000E+00  0.00000000E+00
  0.00000000E+00  0.00000000E+00  0.00000000E+00
  0.00000000E+00  0.00000000E+00  0.00000000E+00
  0.00000000E+00  0.00000000E+00  0.00000000E+00
  0.00000000E+00  0.00000000E+00  0.00000000E+00
  0.00000000E+00  0.00000000E+00  0.00000000E+00
  0.00000000E+00  0.00000000E+00  0.00000000E+00
  0.00000000E+00  0.00000000E+00  0.00000000E+00
  0.00000000E+00  0.00000000E+00  0.00000000E+00
  0.00000000E+00  0.00000000E+00  0.00000000E+00
  0.00000000E+00  0.00000000E+00  0.00000000E+00
  0.00000000E+00  0.00000000E+00  0.00000000E+00
  0.00000000E+00  0.00000000E+00  0.00000000E+00
  0.00000000E+00  0.00000000E+00  0.00000000E+00
  0.00000000E+00  0.00000000E+00  0.00000000E+00
  0.00000000E+00  0.00000000E+00  0.00000000E+00
  0.00000000E+00  0.00000000E+00  0.00000000E+00
  0.00000000E+00  0.00000000E+00  0.00000000E+00
  0.00000000E+00  0.00000000E+00  0.00000000E+00
  0.00000000E+00  0.00000000E+00  0.00000000E+00
  0.00000000E+00  0.00000000E+00  0.00000000E+00
  0.00000000E+00  0.00000000E+00  0.00000000E+00
  0.00000000E+00  0.00000000E+00  0.00000000E+00
  0.00000000E+00  0.00000000E+00  0.00000000E+00
  0.00000000E+00  0.00000000E+00  0.00000000E+00
  0.00000000E+00  0.00000000E+00  0.00000000E+00
  0.00000000E+00  0.00000000E+00  0.00000000E+00
  0.00000000E+00  0.00000000E+00  0.00000000E+00
  0.00000000E+00  0.00000000E+00  0.00000000E+00
  0.00000000E+00  0.00000000E+00  0.00000000E+00
  0.00000000E+00  0.00000000E+00  0.00000000E+00
  0.00000000E+00  0.00000000E+00  0.00000000E+00
  0.00000000E+00  0.00000000E+00  0.00000000E+00
  0.00000000E+00  0.00000000E+00  0.00000000E+00
  0.00000000E+00  0.00000000E+00  0.00000000E+00
  0.00000000E+00  0.00000000E+00  0.00000000E+00
  0.00000000E+00  0.00000000E+00  0.00000000E+00
  0.00000000E+00  0.00000000E+00  0.00000000E+00
  0.00000000E+00  0.00000000E+00  0.00000000E+00
