C                                       
   1.00000000000000     
    10.3876707748741843    0.3509815265709972    0.0000000000000000
    -4.9094385459764807    8.3233962134316180    0.0000000000000000
     0.0000000000000000    0.0000000000000000   16.0000000000000000
   C 
    64
Direct
  0.5716573193060385  0.3544622435116833  0.5888859548740654
  0.5920499440116349  0.4931465297483640  0.5409448134426269
  0.4711969428420725  0.2129648881246072  0.5566555277620074
  0.5108275935853160  0.4247369676138712  0.4541097596413251
  0.4213891512480307  0.2289592277721962  0.4667500013427319
  0.5192538130855250  0.0893775127874774  0.5657489068995478
  0.5213729386587136  0.0391740402268345  0.4716649714164089
  0.4904636046578981  0.1468745974167002  0.4179552312175855
  0.6812702086462866  0.1973975215454843  0.5842312262381156
  0.7120382902813399  0.3605619197259065  0.6005845589118302
  0.8213804537374669  0.4925777472328425  0.5622668183213009
  0.7457089636783945  0.1995559488082887  0.5116076002405208
  0.8835763272444321  0.3076902710504848  0.4738716677494795
  0.9334891867129315  0.4812120330359052  0.5030299880154144
  0.6760284655491474  0.0697297328939566  0.4498543067642528
  0.7879288385883360  0.6104635694264940  0.4325360493181103
  0.7540479379927024  0.5922358539415764  0.5266854743208338
  0.8931858019531547  0.5459164875322080  0.4211669594353486
  0.8343673851125033  0.4352759533809251  0.3599011111914233
  0.8430113132166543  0.2977954185212977  0.3807010089723964
  0.7091904660975924  0.1655369634223694  0.3708181869225413
  0.6407518502277439  0.4876730480694765  0.3925048597916952
  0.6748702585298694  0.3897707443176690  0.3468892390120051
  0.5979651379260633  0.2166928825960168  0.3586879842015445
  0.4293689256329460  0.8739598050360236  0.4939259862317771
  0.4295319600342473  0.9041007947729270  0.5895170290133105
  0.2805410766089806  0.7768656515573118  0.4639755143187028
  0.1700081334035071  0.7442450104010143  0.5328056842060199
  0.2689434760258226  0.7911997018873749  0.6079239004284165
  0.2830874433851354  0.6461207347717618  0.4283658059348761
  0.1796507103079570  0.5085959354702040  0.4658104480111619
  0.0924703265874306  0.5538908484957690  0.5304927504070918
  0.4310455671021585  0.6572493071506094  0.4347391311188564
  0.4235064763634263  0.5156789151060245  0.4751997989659194
  0.2619883562715447  0.4230789759963424  0.4983947931199149
  0.5095404328154747  0.7843243248613733  0.4831868149557269
  0.5914291706202577  0.7758428809537166  0.5604041468580907
  0.5105904838821456  0.5817246513292352  0.5621558024080200
  0.5030253172444576  0.8108314191470942  0.6245032073350038
  0.3954964071992115  0.6680941439971083  0.6589144331489978
  0.3919279797312782  0.5311833617648225  0.6266338958751689
  0.2361716892243989  0.4180822430495181  0.5954073890103728
  0.1541442961392312  0.5145641300256210  0.6085155642375276
  0.2512965861080896  0.6569480078192206  0.6488336257500095
  0.8895148701892701  0.0067327807090654  0.6083418674248221
  0.9720547242813268  0.1585952604338464  0.5786156739423948
  0.9959376129801292  0.9544021927271275  0.6293756870415604
  0.1459054020097271  0.0822570371014734  0.6103450980425498
  0.1379593585424648  0.2284240066604853  0.5850850544864211
  0.9670750232398402  0.8233458008232796  0.5844907669238184
  0.0966916812943216  0.8475537375552000  0.5293866794673833
  0.1991871512952478  0.0278388232412530  0.5477940112763918
  0.8315744576733516  0.7724121318432919  0.5348935807850401
  0.8791895637043159  0.7996639473818233  0.4385825297932450
  0.0447705592923953  0.8648199870993539  0.4440316600154275
  0.7633413485249588  0.8863706017902203  0.5506560287991261
  0.7899775693417098  0.0011839477261063  0.4687515759485643
  0.8638697996251865  0.9387897404453552  0.4072271203805392
  0.9296813283597986  0.1798171863297851  0.4924985611390735
  0.0509987922162485  0.1963661826214967  0.4387024713218491
  0.0112798927523249  0.0590529725644107  0.3942613909428676
  0.1249659255844584  0.0135011712933097  0.4114583167992814
  0.2486692212745327  0.1364171742758315  0.4702502423111838
  0.1853274350256598  0.2491134517288517  0.4891186437933531
 
  0.00000000E+00  0.00000000E+00  0.00000000E+00
  0.00000000E+00  0.00000000E+00  0.00000000E+00
  0.00000000E+00  0.00000000E+00  0.00000000E+00
  0.00000000E+00  0.00000000E+00  0.00000000E+00
  0.00000000E+00  0.00000000E+00  0.00000000E+00
  0.00000000E+00  0.00000000E+00  0.00000000E+00
  0.00000000E+00  0.00000000E+00  0.00000000E+00
  0.00000000E+00  0.00000000E+00  0.00000000E+00
  0.00000000E+00  0.00000000E+00  0.00000000E+00
  0.00000000E+00  0.00000000E+00  0.00000000E+00
  0.00000000E+00  0.00000000E+00  0.00000000E+00
  0.00000000E+00  0.00000000E+00  0.00000000E+00
  0.00000000E+00  0.00000000E+00  0.00000000E+00
  0.00000000E+00  0.00000000E+00  0.00000000E+00
  0.00000000E+00  0.00000000E+00  0.00000000E+00
  0.00000000E+00  0.00000000E+00  0.00000000E+00
  0.00000000E+00  0.00000000E+00  0.00000000E+00
  0.00000000E+00  0.00000000E+00  0.00000000E+00
  0.00000000E+00  0.00000000E+00  0.00000000E+00
  0.00000000E+00  0.00000000E+00  0.00000000E+00
  0.00000000E+00  0.00000000E+00  0.00000000E+00
  0.00000000E+00  0.00000000E+00  0.00000000E+00
  0.00000000E+00  0.00000000E+00  0.00000000E+00
  0.00000000E+00  0.00000000E+00  0.00000000E+00
  0.00000000E+00  0.00000000E+00  0.00000000E+00
  0.00000000E+00  0.00000000E+00  0.00000000E+00
  0.00000000E+00  0.00000000E+00  0.00000000E+00
  0.00000000E+00  0.00000000E+00  0.00000000E+00
  0.00000000E+00  0.00000000E+00  0.00000000E+00
  0.00000000E+00  0.00000000E+00  0.00000000E+00
  0.00000000E+00  0.00000000E+00  0.00000000E+00
  0.00000000E+00  0.00000000E+00  0.00000000E+00
  0.00000000E+00  0.00000000E+00  0.00000000E+00
  0.00000000E+00  0.00000000E+00  0.00000000E+00
  0.00000000E+00  0.00000000E+00  0.00000000E+00
  0.00000000E+00  0.00000000E+00  0.00000000E+00
  0.00000000E+00  0.00000000E+00  0.00000000E+00
  0.00000000E+00  0.00000000E+00  0.00000000E+00
  0.00000000E+00  0.00000000E+00  0.00000000E+00
  0.00000000E+00  0.00000000E+00  0.00000000E+00
  0.00000000E+00  0.00000000E+00  0.00000000E+00
  0.00000000E+00  0.00000000E+00  0.00000000E+00
  0.00000000E+00  0.00000000E+00  0.00000000E+00
  0.00000000E+00  0.00000000E+00  0.00000000E+00
  0.00000000E+00  0.00000000E+00  0.00000000E+00
  0.00000000E+00  0.00000000E+00  0.00000000E+00
  0.00000000E+00  0.00000000E+00  0.00000000E+00
  0.00000000E+00  0.00000000E+00  0.00000000E+00
  0.00000000E+00  0.00000000E+00  0.00000000E+00
  0.00000000E+00  0.00000000E+00  0.00000000E+00
  0.00000000E+00  0.00000000E+00  0.00000000E+00
  0.00000000E+00  0.00000000E+00  0.00000000E+00
  0.00000000E+00  0.00000000E+00  0.00000000E+00
  0.00000000E+00  0.00000000E+00  0.00000000E+00
  0.00000000E+00  0.00000000E+00  0.00000000E+00
  0.00000000E+00  0.00000000E+00  0.00000000E+00
  0.00000000E+00  0.00000000E+00  0.00000000E+00
  0.00000000E+00  0.00000000E+00  0.00000000E+00
  0.00000000E+00  0.00000000E+00  0.00000000E+00
  0.00000000E+00  0.00000000E+00  0.00000000E+00
  0.00000000E+00  0.00000000E+00  0.00000000E+00
  0.00000000E+00  0.00000000E+00  0.00000000E+00
  0.00000000E+00  0.00000000E+00  0.00000000E+00
  0.00000000E+00  0.00000000E+00  0.00000000E+00
