Generated by VASPKIT code               
   1.00000000000000     
    11.7553348114962120   -0.0012171851574124    0.0000000000000000
     0.0004713208237619   11.6151722998958178    0.0000000000000000
     0.0000000000000013    0.0000000000000013   19.7165644727401563
  C             
    88
Direct
  0.6275384813982180  0.9562239222341598  0.5986260360893809
  0.1352665456563503  0.6325729944122390  0.5539097157614157
  0.5176909819398369  0.9558339751296430  0.6323728229189268
  0.1248786188894908  0.5437925211421040  0.5995090019951109
  0.6366982453621772  0.8673460199402611  0.5530164156776862
  0.1939226497114633  0.5922007040874684  0.4917171344008988
  0.4485510913971757  0.8801604863975961  0.5887514428383711
  0.1426000351800926  0.4321896550266717  0.5659223764130696
  0.5231679513656587  0.8055214405242694  0.5438917842113874
  0.1900455712758936  0.4509211963109061  0.4952878785281472
  0.6940667205550730  0.9074860964132266  0.4903212077647047
  0.1074585737477365  0.6172169820425367  0.4377936537592542
  0.6064287703483642  0.8824006817013550  0.4371116126715900
  0.0691443765527041  0.5197530598237368  0.4048795248367575
  0.5037472639079099  0.8172253780119321  0.4624280284852261
  0.1027845939474851  0.4202040793989499  0.4427970078332229
  0.6904115009098383  0.0486956395710750  0.4938144501381063
  0.0043722701192505  0.6827046935800257  0.4621462675895237
  0.6446335029244886  0.0677022839464837  0.5648235053703909
  0.0220320309550894  0.6945069245069319  0.5438001673984141
  0.5486689422805844  0.1325519738520901  0.5802399046808118
  0.9463322066496420  0.6201180848049206  0.5880839923576330
  0.6021597386958295  0.0794940197657091  0.4420028725128694
  0.9039970621259356  0.6062618425764323  0.4429508533793414
  0.5016711502038896  0.1393175024050782  0.4575830859971208
  0.8117937791880239  0.5613655157014955  0.4906259186197732
  0.4784022096045591  0.1946636440658037  0.5256116189748401
  0.8529360255330144  0.5604354682275431  0.5631635985543122
  0.5674594301240036  0.9798614940520624  0.4044754717985031
  0.9437001186641091  0.5187563038299511  0.4015258127878549
  0.3684785859348499  0.0584491034595800  0.5894009652521729
  0.9711667353859442  0.4327520874177990  0.6264669887316598
  0.4746261374858087  0.0675751227809876  0.6267712554910095
  0.0142971777366374  0.5444433866823317  0.6323767700617831
  0.3606315644384350  0.1366272392058223  0.5374782275050887
  0.8660150576214344  0.4419534116485789  0.5881290898599033
  0.3077652199467303  0.0793546428256177  0.4769168796588734
  0.8591939762375369  0.3636354228370595  0.5362389719778742
  0.4028030600010827  0.0898405690351192  0.4273306341191432
  0.8076413598601024  0.4208910867142369  0.4752588438631525
  0.4419582189020635  0.9810351049615674  0.4022397210859073
  0.9037382601586101  0.4100568075852943  0.4263598679434777
  0.3544843901335068  0.9398469924028924  0.5646787258283227
  0.0461580602777543  0.3675371563552711  0.5805900531489883
  0.3119506857413692  0.9388786269625251  0.4924028842753781
  0.9770659886509686  0.3053539736324640  0.5254094050902480
  0.4031138656423251  0.8937873308162043  0.4441152233711796
  0.0018402823897959  0.3605456611952843  0.4575244144106721
  0.1095367154813388  0.9072420630901703  0.5460080278734158
  0.6017152046276701  0.3892926344217584  0.5331551825592424
  0.0654029239720440  0.0121665069828651  0.5694569014408760
  0.6753368964193835  0.4285132984867176  0.4735012403592549
  0.1815254989682841  0.9310158574043554  0.4843814230599308
  0.4913239997740932  0.3246727155264890  0.5134319724053483
  0.1755998265983211  0.0717939065728179  0.4749402573122115
  0.4885338766899459  0.3592938781446286  0.4388712355078366
  0.1006436048512099  0.1108504504530666  0.5340114463826214
  0.5913496354717056  0.4124501421780388  0.4169064399720504
  0.1054221939545617  0.8846954673470048  0.4279125028367879
  0.3953419007109630  0.4016357014831899  0.5392808007146875
  0.0592796790917330  0.9771677809850770  0.3923439757766753
  0.3186021028612742  0.4462419638141045  0.4847241282901315
  0.0928723657835031  0.0877761613450669  0.4176955703583956
  0.3888523146017585  0.4215659458065448  0.4218999728350881
  0.0053321360183205  0.8132808858143267  0.4528917130067346
  0.4430208512105686  0.4959331680096973  0.5726446024103200
  0.9008311582953817  0.8769440669611565  0.4311344721735014
  0.4048936504951421  0.6050253851732712  0.5507315479439917
  0.9333748898277527  0.9719192054300092  0.3937188325022977
  0.3251783296742935  0.5867052383022853  0.4903207185291745
  0.0107523280145202  0.8268786623345865  0.5340862431102347
  0.5671480636027230  0.4878204359554767  0.5689413875504312
  0.9037931574915933  0.8947567300289765  0.5497571724389342
  0.6106129845012720  0.5927832570526964  0.5451564434028503
  0.8253849841832614  0.9129866945127053  0.4887693685373997
  0.5115028729485765  0.6730601399611831  0.5342073012627691
  0.9412078555759975  0.0038387308308173  0.5720997619809175
  0.6812693665592863  0.5692595747370246  0.4829165483687155
  0.8942242100668865  0.0980623313344181  0.5383503341249668
  0.6038282681395326  0.6155433997901233  0.4271611038646081
  0.8188477385635957  0.0534315568451148  0.4831540113891578
  0.5042818956095175  0.6867105223619137  0.4530989318914825
  0.8902718001409456  0.0784126164544720  0.4208870463197127
  0.3993807760600837  0.6229414473117423  0.4321771844428662
  0.9894685383202074  0.1407654990027735  0.4387892651492553
  0.4310853756699942  0.5281285091709413  0.3943850814586046
  0.9905248743249180  0.1753176302337736  0.5133781109552031
  0.5569560890889695  0.5230715283473109  0.3919542031774074
 
  0.00000000E+00  0.00000000E+00  0.00000000E+00
  0.00000000E+00  0.00000000E+00  0.00000000E+00
  0.00000000E+00  0.00000000E+00  0.00000000E+00
  0.00000000E+00  0.00000000E+00  0.00000000E+00
  0.00000000E+00  0.00000000E+00  0.00000000E+00
  0.00000000E+00  0.00000000E+00  0.00000000E+00
  0.00000000E+00  0.00000000E+00  0.00000000E+00
  0.00000000E+00  0.00000000E+00  0.00000000E+00
  0.00000000E+00  0.00000000E+00  0.00000000E+00
  0.00000000E+00  0.00000000E+00  0.00000000E+00
  0.00000000E+00  0.00000000E+00  0.00000000E+00
  0.00000000E+00  0.00000000E+00  0.00000000E+00
  0.00000000E+00  0.00000000E+00  0.00000000E+00
  0.00000000E+00  0.00000000E+00  0.00000000E+00
  0.00000000E+00  0.00000000E+00  0.00000000E+00
  0.00000000E+00  0.00000000E+00  0.00000000E+00
  0.00000000E+00  0.00000000E+00  0.00000000E+00
  0.00000000E+00  0.00000000E+00  0.00000000E+00
  0.00000000E+00  0.00000000E+00  0.00000000E+00
  0.00000000E+00  0.00000000E+00  0.00000000E+00
  0.00000000E+00  0.00000000E+00  0.00000000E+00
  0.00000000E+00  0.00000000E+00  0.00000000E+00
  0.00000000E+00  0.00000000E+00  0.00000000E+00
  0.00000000E+00  0.00000000E+00  0.00000000E+00
  0.00000000E+00  0.00000000E+00  0.00000000E+00
  0.00000000E+00  0.00000000E+00  0.00000000E+00
  0.00000000E+00  0.00000000E+00  0.00000000E+00
  0.00000000E+00  0.00000000E+00  0.00000000E+00
  0.00000000E+00  0.00000000E+00  0.00000000E+00
  0.00000000E+00  0.00000000E+00  0.00000000E+00
  0.00000000E+00  0.00000000E+00  0.00000000E+00
  0.00000000E+00  0.00000000E+00  0.00000000E+00
  0.00000000E+00  0.00000000E+00  0.00000000E+00
  0.00000000E+00  0.00000000E+00  0.00000000E+00
  0.00000000E+00  0.00000000E+00  0.00000000E+00
  0.00000000E+00  0.00000000E+00  0.00000000E+00
  0.00000000E+00  0.00000000E+00  0.00000000E+00
  0.00000000E+00  0.00000000E+00  0.00000000E+00
  0.00000000E+00  0.00000000E+00  0.00000000E+00
  0.00000000E+00  0.00000000E+00  0.00000000E+00
  0.00000000E+00  0.00000000E+00  0.00000000E+00
  0.00000000E+00  0.00000000E+00  0.00000000E+00
  0.00000000E+00  0.00000000E+00  0.00000000E+00
  0.00000000E+00  0.00000000E+00  0.00000000E+00
  0.00000000E+00  0.00000000E+00  0.00000000E+00
  0.00000000E+00  0.00000000E+00  0.00000000E+00
  0.00000000E+00  0.00000000E+00  0.00000000E+00
  0.00000000E+00  0.00000000E+00  0.00000000E+00
  0.00000000E+00  0.00000000E+00  0.00000000E+00
  0.00000000E+00  0.00000000E+00  0.00000000E+00
  0.00000000E+00  0.00000000E+00  0.00000000E+00
  0.00000000E+00  0.00000000E+00  0.00000000E+00
  0.00000000E+00  0.00000000E+00  0.00000000E+00
  0.00000000E+00  0.00000000E+00  0.00000000E+00
  0.00000000E+00  0.00000000E+00  0.00000000E+00
  0.00000000E+00  0.00000000E+00  0.00000000E+00
  0.00000000E+00  0.00000000E+00  0.00000000E+00
  0.00000000E+00  0.00000000E+00  0.00000000E+00
  0.00000000E+00  0.00000000E+00  0.00000000E+00
  0.00000000E+00  0.00000000E+00  0.00000000E+00
  0.00000000E+00  0.00000000E+00  0.00000000E+00
  0.00000000E+00  0.00000000E+00  0.00000000E+00
  0.00000000E+00  0.00000000E+00  0.00000000E+00
  0.00000000E+00  0.00000000E+00  0.00000000E+00
  0.00000000E+00  0.00000000E+00  0.00000000E+00
  0.00000000E+00  0.00000000E+00  0.00000000E+00
  0.00000000E+00  0.00000000E+00  0.00000000E+00
  0.00000000E+00  0.00000000E+00  0.00000000E+00
  0.00000000E+00  0.00000000E+00  0.00000000E+00
  0.00000000E+00  0.00000000E+00  0.00000000E+00
  0.00000000E+00  0.00000000E+00  0.00000000E+00
  0.00000000E+00  0.00000000E+00  0.00000000E+00
  0.00000000E+00  0.00000000E+00  0.00000000E+00
  0.00000000E+00  0.00000000E+00  0.00000000E+00
  0.00000000E+00  0.00000000E+00  0.00000000E+00
  0.00000000E+00  0.00000000E+00  0.00000000E+00
  0.00000000E+00  0.00000000E+00  0.00000000E+00
  0.00000000E+00  0.00000000E+00  0.00000000E+00
  0.00000000E+00  0.00000000E+00  0.00000000E+00
  0.00000000E+00  0.00000000E+00  0.00000000E+00
  0.00000000E+00  0.00000000E+00  0.00000000E+00
  0.00000000E+00  0.00000000E+00  0.00000000E+00
  0.00000000E+00  0.00000000E+00  0.00000000E+00
  0.00000000E+00  0.00000000E+00  0.00000000E+00
  0.00000000E+00  0.00000000E+00  0.00000000E+00
  0.00000000E+00  0.00000000E+00  0.00000000E+00
  0.00000000E+00  0.00000000E+00  0.00000000E+00
  0.00000000E+00  0.00000000E+00  0.00000000E+00
