C20@C80 endohedral cage-in-cage (test case)
1.00000
10.09499035553145       0.0       0.0       
0.0       10.09499035553145       0.0       
0.0       0.0       22.552255454013313       
C  
100  
Direct
0.5037348729668201       0.8215883490330143       0.3893501495202293
0.5592731945609736       0.8773082105737046       0.44271407433281407
0.47155311586659593       0.905863999529898       0.49018026287280325
0.6921624812279992       0.8452253144683266       0.4565812089474547
0.5762851638635489       0.7296355825754054       0.3546561356234096
0.7465162456891732       0.5555340545774412       0.3581273772305883
0.7065184811914602       0.6885077346048446       0.37184107463722926
0.7646666496789196       0.750395733347387       0.42128568508353625
0.7348504045068169       0.8310995945667976       0.5168013345499785
0.6442187653511668       0.8497776782726768       0.5646403095060892
0.5132584298102866       0.8926830739821074       0.5505758140017969
0.6617753122687897       0.7713807392278939       0.6161149622085882
0.833916219368521       0.729411517382944       0.5188552478834172
0.8859101346011289       0.5094877792841672       0.5580265186340441
0.8448964577199307       0.6437403229998426       0.56858603017604
0.7610172198729109       0.6682412011218504       0.6177520998574431
0.832279380953545       0.48511660297756964       0.3960556396008671
0.8831718989671831       0.5445913017443649       0.4491703902680909
0.8532047779940557       0.6799034344405103       0.45967636545238505
0.9044471093448245       0.461145943084774       0.4991054428351592
0.5502967667098649       0.7271726021777232       0.6499023272598734
0.4190916937068826       0.7611398521082716       0.6331327827646167
0.4020786266689806       0.8483296047628258       0.5845887837723114
0.31622355562208515       0.6656612905010392       0.6444043745160395
0.5807341184189765       0.5977989698255854       0.6728128690519566
0.5167783899248172       0.36449798248790066       0.6703129219758202
0.4803607129118907       0.5001966662490855       0.6791099564706877
0.3469476205693435       0.5379916822240433       0.6670362417364617
0.8354824484454495       0.403679840467824       0.5931838830909515
0.74377895154248       0.42789419901103415       0.6395391996458066
0.7109202557356645       0.5620551589875203       0.6527275750598542
0.6451411487888243       0.32897000607499194       0.6510920142967556
0.20597142597395207       0.652746938347563       0.6051193964692456
0.1947875714810135       0.7332794457704037       0.5535860956547091
0.2907490367779927       0.8345286752555527       0.5449508331902604
0.1342860410324518       0.6765826647431039       0.5020237646454847
0.1677336829461452       0.5148308516613822       0.6039248483058852
0.1467983202419294       0.32018203090822717       0.5403701861119894
0.1168469658887692       0.4554015175650622       0.55080078140969
0.09560636868819317       0.538874428682841       0.5008271380361026
0.4238581204311068       0.27038024518056536       0.6453668707823941
0.2936360979871121       0.3114547932803583       0.6282098660480592
0.25350622926468647       0.4444429211560055       0.641879710835108
0.2354025898291051       0.249592322510304       0.578779473485739
0.17672275557201605       0.7121450490535496       0.4443735471624546
0.2813032389149578       0.8053001012361152       0.4358072348155628
0.33362634345182274       0.870076715912544       0.4868521725672807
0.3668061406602394       0.7866042754081426       0.3862495781728562
0.16467008465319893       0.5963960531408687       0.4067557546718654
0.2891289907910287       0.43794649937053304       0.34727329436555554
0.2563512430090257       0.5721735382535669       0.36041995659353554
0.35500685204787036       0.6710654459124701       0.34890172427111704
0.16604461896167189       0.27063243348338595       0.4811953116817935
0.15505694186956287       0.35626662523514374       0.4314308348469631
0.11417290351669701       0.49052323701961287       0.4419335443829031
0.23893024055944606       0.3317248087116644       0.3822665435452967
0.4192089842627149       0.40216470309827873       0.3272106535668104
0.5196406117032745       0.49979123718564517       0.32089004352931233
0.4834039218035203       0.635484368912806       0.32969499707358463
0.6530413684400851       0.4619768135280715       0.3329473574340386
0.44952152845439636       0.2727060205560379       0.3501194698003143
0.5977560374359107       0.15164520603229525       0.4154400964443634
0.5806965876669447       0.2387964225655675       0.3668708408603151
0.6836148504742846       0.33430297302971357       0.35556686118148895
0.26502767172978314       0.16889550978800416       0.4832900508705278
0.486639304774128       0.10735201763930852       0.4494876269047745
0.3556042825847656       0.1501720028705794       0.4354395690515733
0.3380353426627535       0.2285189483904167       0.3839312243621038
0.4964363416426553       0.1783959124546507       0.6106786141638418
0.5284793884943069       0.09416955823030171       0.5098831317164604
0.44078311380560814       0.12269898456861889       0.5573599557348811
0.30782211270098686       0.15478031604539494       0.5435141298311874
0.8233661463899512       0.2879232924028169       0.5555514803224867
0.6664027876455201       0.1299310250643761       0.5131478165593072
0.7187919523341499       0.19476754093396753       0.5641554808039898
0.6333328175222875       0.21342116999156696       0.613734408595114
0.7939267548913229       0.34724957740116275       0.39483141945387096
0.7091858777892305       0.16547153967061345       0.4550310088728722
0.8050972560539015       0.26671891050148766       0.4463616208439468
0.8656915443131508       0.32348831100749875       0.4978981971037374
0.3134276067787502       0.482678522908413       0.46983629984621134
0.31552505686132803       0.5329137149621406       0.5302084918185468
0.37925356537459776       0.35665468966710967       0.46983135205982907
0.4217101872231124       0.32971208791471046       0.5302090089367884
0.3780130668516034       0.43622818818160647       0.5696096675942908
0.4942075976590213       0.36244934297177633       0.4304244858399855
0.6082891129609       0.3470298133393538       0.469804842850883
0.5637474727250505       0.32372705312880135       0.5301925382941977
0.4999927538998133       0.5000130822473421       0.4111186654670449
0.6219879490240601       0.5637765911104187       0.43041356811667775
0.6844732921407489       0.4670760048450477       0.46979634408223103
0.38378598602959724       0.57377321343403       0.4304362928693859
0.43625913592510435       0.676268438567592       0.469813048189724
0.5783033977222145       0.6703115216579643       0.46980247072338216
0.3917006813375284       0.6529638727809829       0.5301867376356445
0.5057770072264559       0.6375571383758384       0.5695674059881215
0.6207512897177223       0.6433417279215464       0.5301747227237947
0.6865756468315328       0.5173069469635861       0.5301679138623552
0.6162099023472641       0.4262147113042559       0.569577279267064
0.500009296388055       0.5000033353759725       0.5888972527835151
