Generated by VASPKIT code               
   1.00000000000000     
    17.3171413241677143    0.2944861418279974    0.0000000000000000
     0.2498288908101168   16.3106088145348060    0.0000000000000000
     0.0000000000000012    0.0000000000000012   19.7181367959134661
   C 
   168
Direct
  0.5708199612069507  0.9640024659981634  0.5699598084940618
  0.0619656583617143  0.5585139794740499  0.6387935876451110
  0.5736251505836734  0.0481596241130475  0.5630908944226931
  0.9808121450340792  0.5527378608910993  0.6414217550039965
  0.4931242203678394  0.9379415097915853  0.5719486529547950
  0.0898366673954669  0.4779335404670846  0.6207854756972750
  0.4961906448915201  0.0813125312092779  0.5496385181802310
  0.9555316125836484  0.4705973999889110  0.6214767529151715
  0.4435095045406143  0.0119994030593702  0.5575703299728971
  0.0232380651479929  0.4215608581255239  0.6098057721214687
  0.4786978664262236  0.8743188224863232  0.5275903427596020
  0.1367404204131262  0.4749107720119170  0.5644056509205768
  0.4030289073897677  0.8950520862630711  0.4902708352308025
  0.1165271549418350  0.4035076086764988  0.5178475835707133
  0.3942277397145730  0.9893820575220218  0.5069727284868435
  0.0341050277953414  0.3827401792493603  0.5456274817444893
  0.5483829845680361  0.8609955347230169  0.4790142255015510
  0.1342394203829187  0.5598664920240353  0.5297110221464223
  0.6082610621167674  0.9257036085249553  0.5089460162088528
  0.0781974037059214  0.6171858075965631  0.5789433137525748
  0.6296463316978702  0.9973398941416889  0.4664813201079667
  0.9976058995994350  0.6355988304774129  0.5520914809646840
  0.5127652209940337  0.8923851119549511  0.4132563828122215
  0.0946867943794203  0.5364703456606179  0.4638470701722142
  0.5414203887081754  0.9581060859011714  0.3734373815265357
  0.0204792507358249  0.5700046100033092  0.4420916750672745
  0.5978977337337454  0.0113312932996692  0.4030712484739638
  0.9744889759424638  0.6212542972146693  0.4832523000972202
  0.4311842201215370  0.9071603158732771  0.4199598817797892
  0.0891944812863201  0.4512880599592819  0.4574486767416488
  0.5838310164827121  0.1388299111692177  0.4670920587286460
  0.8885332504542802  0.5644821977564121  0.5562157678687711
  0.6300011294710828  0.0741825398700513  0.5098469956039224
  0.9407704862042081  0.6112583545427981  0.5985371881167652
  0.5700839210882336  0.0974296234819718  0.4002587043056778
  0.8905476574444648  0.5893054799099460  0.4822533578220387
  0.4927346726179636  0.0948156118952568  0.3807417623072027
  0.8991875831190015  0.5053142526053378  0.4494263738420941
  0.4756965695988882  0.0137161884666313  0.3578788755452038
  0.9707527373793070  0.5009804509570870  0.4188349160748999
  0.4095430236971325  0.9846194496489460  0.3911077738462154
  0.0144663292334855  0.4268099264197289  0.4343055616894844
  0.4987183485479179  0.1336852530551980  0.4937131062659148
  0.8980868576922774  0.4817271320201684  0.5682764246391940
  0.4385094926872739  0.1238397310095536  0.4376216678092248
  0.8945301712191807  0.4326733351986007  0.5026336972587089
  0.3819711540191477  0.0436229633234220  0.4468395286343352
  0.9782964835753276  0.3925067489782208  0.4930789238093780
  0.9788834368628656  0.0842143616516182  0.4225451777514309
  0.5172095689322376  0.5792564706116323  0.5810774435632382
  0.7663644607913866  0.6966733126744060  0.5715757642027839
  0.2504504698586629  0.2451555652712969  0.5793976852646381
  0.3111650699126187  0.7697299870397529  0.6085674717645801
  0.6866079331196460  0.2570945153402135  0.5834428893648322
  0.0496994529274204  0.0436680329424988  0.4023847150134614
  0.5923741774730544  0.5446941160639653  0.5586946363350336
  0.8281766907198076  0.7548181502478926  0.5576009477019142
  0.1824081501455339  0.1998782345978256  0.5639927326882770
  0.2594341445849864  0.8437163459643813  0.6057038253969225
  0.7229300924237165  0.1748239800475915  0.5831519543220338
  0.9804825967945661  0.1041878703901276  0.4921883030867704
  0.4654374288203798  0.5143160452443212  0.5938470707192991
  0.7608736145608432  0.6407536170483183  0.5202761336061457
  0.2493514863572415  0.3180418267128076  0.5399281970773018
  0.3545843586284221  0.7604966271579556  0.5508780892523788
  0.6475458275688197  0.2738633944580968  0.5242020463315171
  0.0487460221355960  0.0658333842887942  0.5203980774985695
  0.5089207081264817  0.4395269939796265  0.5794873378724077
  0.8284610250741480  0.6565071585094984  0.4703214911792841
  0.1714969636636496  0.3302045346483808  0.5025246818712148
  0.3355305149568366  0.8387292163355937  0.5056648758691153
  0.6508581081060001  0.1995335852172033  0.4779922634146985
  0.1057201141797677  0.0411818351856397  0.4642946839152771
  0.5865109210976769  0.4601245967400160  0.5568565261888807
  0.8630092210680544  0.7387389410723628  0.4953769532101262
  0.1370099851929183  0.2443804343514984  0.5155992322176317
  0.2668942532682834  0.8839082857101133  0.5441138027074217
  0.7028222241863418  0.1265847216268554  0.5206649283470384
  0.9091218693338519  0.0765731784505164  0.5283041074035992
  0.3999666640996651  0.5225228129841355  0.5477910959821628
  0.6783514808877982  0.6461437729868109  0.4906716830192721
  0.3147315973129423  0.3137969198757773  0.4947573749168015
  0.3385154398236736  0.6721680376052177  0.5200653368365309
  0.6771863060292063  0.3552650498745322  0.4930789186744136
  0.9472408576083140  0.0094277683566304  0.5727376964918705
  0.4028578549652835  0.4511180830183221  0.5043202374785238
  0.6987915784101446  0.6882062798717072  0.4246143448308786
  0.2839874546513244  0.3071789313664866  0.4269988123545971
  0.2867511551532971  0.7052174060597522  0.4636675522093654
  0.7244629143454802  0.3139697259523473  0.4363409266190885
  0.0340187918572354  0.0097835696098301  0.5712685712406724
  0.4725408969704858  0.4014051512414341  0.5235161203878960
  0.7814791559183263  0.6926954631726758  0.4119420333813295
  0.2007059741187049  0.3158686991608306  0.4288099441206512
  0.2861206629459971  0.7937418400152225  0.4550075497860178
  0.7099386808825017  0.2269540834598800  0.4284058913910087
  0.8586052342388584  0.0326529692636583  0.4719774738355156
  0.4037847703546689  0.6051858030504604  0.5071590347956274
  0.6420240675440141  0.7220158736816629  0.5290530133325291
  0.3558373786247273  0.2346806250619267  0.5061069454311706
  0.2724322912274673  0.6414346290142348  0.5681073596232054
  0.7486900919587924  0.3733456546486948  0.5404620988002478
  0.8689303450608890  0.9386268915682123  0.4899537852040226
  0.4241317239700635  0.5672622761974822  0.4363230117802672
  0.6180909742547698  0.7933440219328958  0.4823961204432266
  0.3640160761326001  0.1819180691892583  0.4421382529515583
  0.1948020835429460  0.6295026514082807  0.5320223764515859
  0.8314354111814453  0.3679347380810327  0.5059770757123658
  0.9265021436979666  0.9345417532084710  0.5476460167500932
  0.4200366764391887  0.4798378840749038  0.4367696253745947
  0.6632578773427937  0.7662311242643156  0.4194943350541536
  0.3100926650894280  0.2317584342332779  0.3950475416574051
  0.2106674110583384  0.6795143217761961  0.4701090804914756
  0.8045459180343713  0.3220387528259039  0.4433726634766302
  0.9115216315550327  0.0340099383711490  0.4097325802543494
  0.4866431747471367  0.6284711317321339  0.5273202137222128
  0.6935815307931179  0.7452355080647379  0.5785103843222501
  0.3158630464589294  0.1935463701048761  0.5573094431795909
  0.2618186107280280  0.6995141564274974  0.6194577695150940
  0.7466319770682333  0.3179125732679537  0.5939062504457482
  0.9395452915884377  0.9582510417389400  0.3861781262549400
  0.5385668683235565  0.6251448533484378  0.4727188475680393
  0.7131778154273078  0.8298153197375129  0.5699093480764219
  0.2856969761457933  0.1190299416869323  0.5290700116327898
  0.1830524756667273  0.7313235606628865  0.6247052826861861
  0.8186765320451244  0.2699856619654852  0.5994506098423500
  0.9168214490252424  0.8870250148490157  0.4329369792764126
  0.5013916659832063  0.5853238046364524  0.4178457876379156
  0.6701922454572298  0.8628903661546943  0.5106500969955050
  0.3130656389563171  0.1031660793788305  0.4571560634984095
  0.1343310785728491  0.6884742813532370  0.5737354868861857
  0.8673353148886989  0.2939186379725101  0.5461850079846968
  0.0259237466879938  0.9642473521568036  0.3848564547905227
  0.6174125472599528  0.5817207620061993  0.4911045265831149
  0.7915463595311252  0.8344978841250352  0.5572725640965572
  0.2055999013253214  0.1210425593027935  0.5342297415173576
  0.1819630825126595  0.8174049536140728  0.6170102229032040
  0.8018411919843587  0.1836805726252706  0.5936879075600672
  0.0598085191579116  0.9066465539997992  0.4300624782247624
  0.6120514608608687  0.5031373425986203  0.4473272815425489
  0.8081823009402314  0.8760410964750989  0.4912873096611534
  0.1664998089414169  0.1071832478156480  0.4655384646397138
  0.1315598606033248  0.8496658617433042  0.5606002573240190
  0.8481638396151538  0.1462363690135007  0.5366653311359642
  0.9956277925952719  0.8687331429814833  0.4623963511829459
  0.5467503311540938  0.5099062391527838  0.4049449014311790
  0.7309391475047633  0.8766768256147799  0.4585961725596306
  0.2381338765763559  0.1131926703206361  0.4195634753984194
  0.1183452328784327  0.7632064768333748  0.5275368282884614
  0.8761165568212306  0.2249443878664508  0.5032803908466761
  0.9948231289857361  0.8864618103950122  0.5306309053691507
  0.4948480758356055  0.4434661585494553  0.4158552565541740
  0.7253979417576417  0.8214463240538095  0.4054752516514881
  0.2401201692926875  0.1880556552754484  0.3843873309981163
  0.1612639740156396  0.7529904252622899  0.4685182746932668
  0.8392423629781121  0.2392966370034273  0.4408099968605086
  0.0693939254869562  0.9240552570166471  0.5501301478344232
  0.5264101441531466  0.3929316197423702  0.4682092577525907
  0.7979839981104391  0.7754868881363777  0.3989033154435973
  0.1738489114013930  0.2404569835573795  0.4046719748437013
  0.2090545187095927  0.8222550773255577  0.4563632209160033
  0.7808177948353077  0.1805243115020048  0.4310706915764868
  0.1164465201527065  0.9460628055865570  0.4817769434046753
  0.6099268957628325  0.4210742121847986  0.4882923534708254
  0.8569045215065287  0.8126462160640813  0.4454539725716486
  0.1322092387869347  0.1972081043797189  0.4559887076419926
  0.1879370925802917  0.8894191975300103  0.5050538996934364
  0.7876886093627462  0.1113002520724109  0.4840934339780461
 
  0.00000000E+00  0.00000000E+00  0.00000000E+00
  0.00000000E+00  0.00000000E+00  0.00000000E+00
  0.00000000E+00  0.00000000E+00  0.00000000E+00
  0.00000000E+00  0.00000000E+00  0.00000000E+00
  0.00000000E+00  0.00000000E+00  0.00000000E+00
  0.00000000E+00  0.00000000E+00  0.00000000E+00
  0.00000000E+00  0.00000000E+00  0.00000000E+00
  0.00000000E+00  0.00000000E+00  0.00000000E+00
  0.00000000E+00  0.00000000E+00  0.00000000E+00
  0.00000000E+00  0.00000000E+00  0.00000000E+00
  0.00000000E+00  0.00000000E+00  0.00000000E+00
  0.00000000E+00  0.00000000E+00  0.00000000E+00
  0.00000000E+00  0.00000000E+00  0.00000000E+00
  0.00000000E+00  0.00000000E+00  0.00000000E+00
  0.00000000E+00  0.00000000E+00  0.00000000E+00
  0.00000000E+00  0.00000000E+00  0.00000000E+00
  0.00000000E+00  0.00000000E+00  0.00000000E+00
  0.00000000E+00  0.00000000E+00  0.00000000E+00
  0.00000000E+00  0.00000000E+00  0.00000000E+00
  0.00000000E+00  0.00000000E+00  0.00000000E+00
  0.00000000E+00  0.00000000E+00  0.00000000E+00
  0.00000000E+00  0.00000000E+00  0.00000000E+00
  0.00000000E+00  0.00000000E+00  0.00000000E+00
  0.00000000E+00  0.00000000E+00  0.00000000E+00
  0.00000000E+00  0.00000000E+00  0.00000000E+00
  0.00000000E+00  0.00000000E+00  0.00000000E+00
  0.00000000E+00  0.00000000E+00  0.00000000E+00
  0.00000000E+00  0.00000000E+00  0.00000000E+00
  0.00000000E+00  0.00000000E+00  0.00000000E+00
  0.00000000E+00  0.00000000E+00  0.00000000E+00
  0.00000000E+00  0.00000000E+00  0.00000000E+00
  0.00000000E+00  0.00000000E+00  0.00000000E+00
  0.00000000E+00  0.00000000E+00  0.00000000E+00
  0.00000000E+00  0.00000000E+00  0.00000000E+00
  0.00000000E+00  0.00000000E+00  0.00000000E+00
  0.00000000E+00  0.00000000E+00  0.00000000E+00
  0.00000000E+00  0.00000000E+00  0.00000000E+00
  0.00000000E+00  0.00000000E+00  0.00000000E+00
  0.00000000E+00  0.00000000E+00  0.00000000E+00
  0.00000000E+00  0.00000000E+00  0.00000000E+00
  0.00000000E+00  0.00000000E+00  0.00000000E+00
  0.00000000E+00  0.00000000E+00  0.00000000E+00
  0.00000000E+00  0.00000000E+00  0.00000000E+00
  0.00000000E+00  0.00000000E+00  0.00000000E+00
  0.00000000E+00  0.00000000E+00  0.00000000E+00
  0.00000000E+00  0.00000000E+00  0.00000000E+00
  0.00000000E+00  0.00000000E+00  0.00000000E+00
  0.00000000E+00  0.00000000E+00  0.00000000E+00
  0.00000000E+00  0.00000000E+00  0.00000000E+00
  0.00000000E+00  0.00000000E+00  0.00000000E+00
  0.00000000E+00  0.00000000E+00  0.00000000E+00
  0.00000000E+00  0.00000000E+00  0.00000000E+00
  0.00000000E+00  0.00000000E+00  0.00000000E+00
  0.00000000E+00  0.00000000E+00  0.00000000E+00
  0.00000000E+00  0.00000000E+00  0.00000000E+00
  0.00000000E+00  0.00000000E+00  0.00000000E+00
  0.00000000E+00  0.00000000E+00  0.00000000E+00
  0.00000000E+00  0.00000000E+00  0.00000000E+00
  0.00000000E+00  0.00000000E+00  0.00000000E+00
  0.00000000E+00  0.00000000E+00  0.00000000E+00
  0.00000000E+00  0.00000000E+00  0.00000000E+00
  0.00000000E+00  0.00000000E+00  0.00000000E+00
  0.00000000E+00  0.00000000E+00  0.00000000E+00
  0.00000000E+00  0.00000000E+00  0.00000000E+00
  0.00000000E+00  0.00000000E+00  0.00000000E+00
  0.00000000E+00  0.00000000E+00  0.00000000E+00
  0.00000000E+00  0.00000000E+00  0.00000000E+00
  0.00000000E+00  0.00000000E+00  0.00000000E+00
  0.00000000E+00  0.00000000E+00  0.00000000E+00
  0.00000000E+00  0.00000000E+00  0.00000000E+00
  0.00000000E+00  0.00000000E+00  0.00000000E+00
  0.00000000E+00  0.00000000E+00  0.00000000E+00
  0.00000000E+00  0.00000000E+00  0.00000000E+00
  0.00000000E+00  0.00000000E+00  0.00000000E+00
  0.00000000E+00  0.00000000E+00  0.00000000E+00
  0.00000000E+00  0.00000000E+00  0.00000000E+00
  0.00000000E+00  0.00000000E+00  0.00000000E+00
  0.00000000E+00  0.00000000E+00  0.00000000E+00
  0.00000000E+00  0.00000000E+00  0.00000000E+00
  0.00000000E+00  0.00000000E+00  0.00000000E+00
  0.00000000E+00  0.00000000E+00  0.00000000E+00
  0.00000000E+00  0.00000000E+00  0.00000000E+00
  0.00000000E+00  0.00000000E+00  0.00000000E+00
  0.00000000E+00  0.00000000E+00  0.00000000E+00
  0.00000000E+00  0.00000000E+00  0.00000000E+00
  0.00000000E+00  0.00000000E+00  0.00000000E+00
  0.00000000E+00  0.00000000E+00  0.00000000E+00
  0.00000000E+00  0.00000000E+00  0.00000000E+00
  0.00000000E+00  0.00000000E+00  0.00000000E+00
  0.00000000E+00  0.00000000E+00  0.00000000E+00
  0.00000000E+00  0.00000000E+00  0.00000000E+00
  0.00000000E+00  0.00000000E+00  0.00000000E+00
  0.00000000E+00  0.00000000E+00  0.00000000E+00
  0.00000000E+00  0.00000000E+00  0.00000000E+00
  0.00000000E+00  0.00000000E+00  0.00000000E+00
  0.00000000E+00  0.00000000E+00  0.00000000E+00
  0.00000000E+00  0.00000000E+00  0.00000000E+00
  0.00000000E+00  0.00000000E+00  0.00000000E+00
  0.00000000E+00  0.00000000E+00  0.00000000E+00
  0.00000000E+00  0.00000000E+00  0.00000000E+00
  0.00000000E+00  0.00000000E+00  0.00000000E+00
  0.00000000E+00  0.00000000E+00  0.00000000E+00
  0.00000000E+00  0.00000000E+00  0.00000000E+00
  0.00000000E+00  0.00000000E+00  0.00000000E+00
  0.00000000E+00  0.00000000E+00  0.00000000E+00
  0.00000000E+00  0.00000000E+00  0.00000000E+00
  0.00000000E+00  0.00000000E+00  0.00000000E+00
  0.00000000E+00  0.00000000E+00  0.00000000E+00
  0.00000000E+00  0.00000000E+00  0.00000000E+00
  0.00000000E+00  0.00000000E+00  0.00000000E+00
  0.00000000E+00  0.00000000E+00  0.00000000E+00
  0.00000000E+00  0.00000000E+00  0.00000000E+00
  0.00000000E+00  0.00000000E+00  0.00000000E+00
  0.00000000E+00  0.00000000E+00  0.00000000E+00
  0.00000000E+00  0.00000000E+00  0.00000000E+00
  0.00000000E+00  0.00000000E+00  0.00000000E+00
  0.00000000E+00  0.00000000E+00  0.00000000E+00
  0.00000000E+00  0.00000000E+00  0.00000000E+00
  0.00000000E+00  0.00000000E+00  0.00000000E+00
  0.00000000E+00  0.00000000E+00  0.00000000E+00
  0.00000000E+00  0.00000000E+00  0.00000000E+00
  0.00000000E+00  0.00000000E+00  0.00000000E+00
  0.00000000E+00  0.00000000E+00  0.00000000E+00
  0.00000000E+00  0.00000000E+00  0.00000000E+00
  0.00000000E+00  0.00000000E+00  0.00000000E+00
  0.00000000E+00  0.00000000E+00  0.00000000E+00
  0.00000000E+00  0.00000000E+00  0.00000000E+00
  0.00000000E+00  0.00000000E+00  0.00000000E+00
  0.00000000E+00  0.00000000E+00  0.00000000E+00
  0.00000000E+00  0.00000000E+00  0.00000000E+00
  0.00000000E+00  0.00000000E+00  0.00000000E+00
  0.00000000E+00  0.00000000E+00  0.00000000E+00
  0.00000000E+00  0.00000000E+00  0.00000000E+00
  0.00000000E+00  0.00000000E+00  0.00000000E+00
  0.00000000E+00  0.00000000E+00  0.00000000E+00
  0.00000000E+00  0.00000000E+00  0.00000000E+00
  0.00000000E+00  0.00000000E+00  0.00000000E+00
  0.00000000E+00  0.00000000E+00  0.00000000E+00
  0.00000000E+00  0.00000000E+00  0.00000000E+00
  0.00000000E+00  0.00000000E+00  0.00000000E+00
  0.00000000E+00  0.00000000E+00  0.00000000E+00
  0.00000000E+00  0.00000000E+00  0.00000000E+00
  0.00000000E+00  0.00000000E+00  0.00000000E+00
  0.00000000E+00  0.00000000E+00  0.00000000E+00
  0.00000000E+00  0.00000000E+00  0.00000000E+00
  0.00000000E+00  0.00000000E+00  0.00000000E+00
  0.00000000E+00  0.00000000E+00  0.00000000E+00
  0.00000000E+00  0.00000000E+00  0.00000000E+00
  0.00000000E+00  0.00000000E+00  0.00000000E+00
  0.00000000E+00  0.00000000E+00  0.00000000E+00
  0.00000000E+00  0.00000000E+00  0.00000000E+00
  0.00000000E+00  0.00000000E+00  0.00000000E+00
  0.00000000E+00  0.00000000E+00  0.00000000E+00
  0.00000000E+00  0.00000000E+00  0.00000000E+00
  0.00000000E+00  0.00000000E+00  0.00000000E+00
  0.00000000E+00  0.00000000E+00  0.00000000E+00
  0.00000000E+00  0.00000000E+00  0.00000000E+00
  0.00000000E+00  0.00000000E+00  0.00000000E+00
  0.00000000E+00  0.00000000E+00  0.00000000E+00
  0.00000000E+00  0.00000000E+00  0.00000000E+00
  0.00000000E+00  0.00000000E+00  0.00000000E+00
  0.00000000E+00  0.00000000E+00  0.00000000E+00
  0.00000000E+00  0.00000000E+00  0.00000000E+00
  0.00000000E+00  0.00000000E+00  0.00000000E+00
  0.00000000E+00  0.00000000E+00  0.00000000E+00
  0.00000000E+00  0.00000000E+00  0.00000000E+00
  0.00000000E+00  0.00000000E+00  0.00000000E+00
  0.00000000E+00  0.00000000E+00  0.00000000E+00
