C                                       
   1.00000000000000     
    13.1896839408962432    0.2560451662975434    0.0000000000000000
     0.2647259932051862   13.4247835464359238    0.0000000000000000
     0.0000000000000000    0.0000000000000000   16.0000000000000000
  C             
   128
Direct
  0.1087854381024470  0.0133540283481415  0.3707710509407106
  0.1619712602571918  0.9556457396248056  0.4328040385136329
  0.0099522407547452  0.9722076293345098  0.3698960029267781
  0.1009508384068135  0.8719444666946955  0.4610104417233541
  0.0035479591128102  0.8983883503282536  0.4345364310898092
  0.9235668245174190  0.0378654856786802  0.3748312079438121
  0.8377618894439881  0.9981680857758446  0.4312975009705806
  0.8969003212038692  0.9031222700251569  0.4740664715341437
  0.9697025273954438  0.1214150465844703  0.4125643403248300
  0.0857921378803481  0.1161021071175726  0.4072795103753267
  0.1315149407046951  0.1060374224464961  0.4966866887000159
  0.9234628234091712  0.1437089276680869  0.4895362868724829
  0.9784390656929556  0.1668933209358623  0.5721793270328392
  0.0698709239291261  0.1017136195485950  0.5691401540852253
  0.8474273440440375  0.0765615261065138  0.5006773133909854
  0.1795227435958580  0.9679911406540607  0.5868495893430491
  0.1935405289338982  0.0103609535466312  0.5046283881721094
  0.0980337008862881  0.0267401533039296  0.6254585959526932
  0.9979126227184495  0.0076845525002591  0.6590333950342829
  0.9254295751609289  0.0879528492016379  0.6366724569612608
  0.8559007005460414  0.0386659409971797  0.5818410859402394
  0.9651338682015841  0.8091186073001692  0.6276892960246762
  0.9621779882773187  0.9104979539452416  0.6263949252682132
  0.8914772317670074  0.9400162469434413  0.5649246516002706
  0.7614713120229951  0.3313022151107536  0.4845219793432883
  0.7316178043277221  0.3508842104345500  0.5721814678399892
  0.7208219443107018  0.2400251137486114  0.4635019561410536
  0.6634999556458921  0.2837149707342528  0.6038112182723041
  0.6527322020161407  0.2009279186906235  0.5363352566010156
  0.6529026052300937  0.2541195924279737  0.3933431920738840
  0.5556418197266876  0.2041762137761337  0.4095620717906606
  0.5527575620987685  0.2312790567402759  0.5007309665009479
  0.6350055424338950  0.3542438969528211  0.3733301566519752
  0.7040509277887212  0.4160045985247705  0.4269660834788269
  0.6424248311488046  0.4557409070753639  0.4998900772446744
  0.5259784202040513  0.3734307313935673  0.3780457847643416
  0.4826526695951479  0.4493082513639348  0.4340338242231681
  0.5443830498739499  0.4879167708852677  0.4983534499745862
  0.4743518911691564  0.2838089397158138  0.3888371470923435
  0.5938062292901157  0.4485403983931035  0.6340053745685599
  0.6935209161077388  0.4565110878294711  0.5856615774515571
  0.5021884593691993  0.5036121189382473  0.5906121713527853
  0.4286750300855473  0.4204162602549018  0.5730469548299801
  0.3941927093005293  0.4116150726119049  0.4782085109330528
  0.3983678494244915  0.2982974035113976  0.4601104741744818
  0.5754404767643694  0.3464753434846233  0.6350383106656170
  0.4722201444240862  0.3317810753899715  0.6007897258160099
  0.4632673573561141  0.2618626708371931  0.5328273851892755
  0.3443473466637430  0.6358454022398941  0.6763671000277480
  0.2489087839302276  0.6059033426337461  0.6502405008410294
  0.3268040504746164  0.7437550746012870  0.6804244968294914
  0.2218362481431176  0.7785140576041827  0.6588883427897546
  0.1732439404507993  0.6922141087740931  0.6391687686295231
  0.3816645261657035  0.7784548443741637  0.6175626514364382
  0.3371193137736406  0.8609449580279930  0.5654311536211630
  0.2190610937856396  0.8623807046616255  0.5921741538002113
  0.4702638304890734  0.7209549314923299  0.5807674147158344
  0.4367175920252864  0.7306630298633868  0.4817046742105729
  0.3475663795980952  0.8185181362016059  0.4755379080352024
  0.4388481370180830  0.6080863716085266  0.6082291689145519
  0.3647192538892861  0.5899276884006212  0.5417188743230611
  0.3683227204427669  0.6429294921438425  0.4708282025397988
  0.2640174061026808  0.5555793579809334  0.5685287242670578
  0.1872277233933868  0.6163876478052959  0.5111933715702057
  0.2603992623597060  0.6690556925408407  0.4540318329097333
  0.2486385334474105  0.7688096788896148  0.4614505084786315
  0.1590967767256994  0.8009098588216814  0.5151143518785002
  0.1193539062175384  0.6972104929382756  0.5521981207659897
  0.5755824625827605  0.9689055695898637  0.6271251526244844
  0.6609036722307942  0.9212608316510599  0.5823616100991390
  0.5009730385815553  0.8961783903296584  0.6254822185130351
  0.5497588816806729  0.7961112023038190  0.6070920218284286
  0.6513666223107367  0.8088710041916469  0.5892718935484611
  0.4139311004215095  0.9369679047060192  0.5829929114217528
  0.4174495532772709  0.8682166054543650  0.4163364888964785
  0.4966269633996872  0.7953609251519177  0.4188488556431199
  0.4463946638489556  0.0287529696078519  0.5438267464318016
  0.4620023324336065  0.0418472183517015  0.4559179618867570
  0.4517970117344425  0.9644848387706529  0.3967147591291869
  0.5397540398746965  0.0544764198711187  0.5847758370155373
  0.6207472701829972  0.0869957723357066  0.5261416006784428
  0.5636711100304629  0.0928898052298566  0.4355660646115316
  0.6847505684982488  0.9866872636332301  0.5187483433407371
  0.7201005568698789  0.9666456177717303  0.4292270321017808
  0.6255563089600046  0.0163218398033364  0.3863903650199068
  0.5571103618274307  0.9440117432507750  0.3699815177776760
  0.5912194516333715  0.8450878300887709  0.3964582933951745
  0.6913195061782189  0.8568353520807964  0.4250496752583707
  0.9889844328688921  0.4300523210551884  0.4690040924611529
  0.9860137030706929  0.3236256738640645  0.4656838413773495
  0.0311445668920101  0.4700289532531468  0.3842546041598032
  0.0632735444502450  0.3747683454169828  0.3358374809883595
  0.0372185472291086  0.2976939863598123  0.3883971505348607
  0.1317031896338622  0.4984170542836808  0.4099695029699501
  0.2175149056453004  0.4496537968986825  0.3805778127116351
  0.1777583119947296  0.3634455679120061  0.3386968936584746
  0.1361054476055510  0.5175447253071755  0.4991136998389291
  0.2262641083546604  0.4574904899328575  0.5330786201520645
  0.2828564902611124  0.4200525150815803  0.4549046120380987
  0.0433402635410328  0.4727548624019378  0.5454939009452802
  0.0803612659359303  0.3706863807938358  0.5838124674444495
  0.1856258175150165  0.3649823890781612  0.5698579623262536
  0.0344731719899805  0.2747117568195167  0.5427116728052082
  0.1360452336026971  0.2226856968309604  0.5022266082214099
  0.2205292857981672  0.2796426641028877  0.5260212619490937
  0.2822721867094427  0.3013314740731613  0.4505613444634107
  0.2162881799973008  0.2745699237550486  0.3737027025247295
  0.1229683279974409  0.2234886173716576  0.4022418065054424
  0.9605664939655612  0.5681369820066546  0.5580479601098038
  0.0056615043998435  0.6708059252179704  0.5270103878051631
  0.9146029043398578  0.5246281554306431  0.4789908729017214
  0.9512942226087762  0.5581188494638887  0.3931113180531174
  0.9834732717176616  0.6603817105993244  0.4284958816565924
  0.8125661695055092  0.5161885522650485  0.4860855221226312
  0.7567601641777296  0.5183274690905362  0.4075227797436579
  0.8472580999811927  0.5694034434766891  0.3510316676116387
  0.7630138149113805  0.5427548037420133  0.5676108324692978
  0.7002465404777117  0.6290873099624158  0.5263714072122414
  0.6998333134905270  0.6153729676310422  0.4389028308030817
  0.8554467570832937  0.5981420263295567  0.6021707990372273
  0.8338008896404041  0.6971596292418423  0.5894509646063807
  0.7266067495198018  0.7327173990076176  0.5531142195796959
  0.9229039766612500  0.7514243395810115  0.5564509033291491
  0.8686459152049132  0.7972367380443459  0.4683588026291909
  0.7550078394624545  0.7790489958837953  0.4644223442078764
  0.7401628639354459  0.6991645501921624  0.4021732783655420
  0.8296626867350673  0.6720834001255503  0.3585829732429889
  0.9101128462942539  0.7265716779365745  0.4023717295681156
 
  0.00000000E+00  0.00000000E+00  0.00000000E+00
  0.00000000E+00  0.00000000E+00  0.00000000E+00
  0.00000000E+00  0.00000000E+00  0.00000000E+00
  0.00000000E+00  0.00000000E+00  0.00000000E+00
  0.00000000E+00  0.00000000E+00  0.00000000E+00
  0.00000000E+00  0.00000000E+00  0.00000000E+00
  0.00000000E+00  0.00000000E+00  0.00000000E+00
  0.00000000E+00  0.00000000E+00  0.00000000E+00
  0.00000000E+00  0.00000000E+00  0.00000000E+00
  0.00000000E+00  0.00000000E+00  0.00000000E+00
  0.00000000E+00  0.00000000E+00  0.00000000E+00
  0.00000000E+00  0.00000000E+00  0.00000000E+00
  0.00000000E+00  0.00000000E+00  0.00000000E+00
  0.00000000E+00  0.00000000E+00  0.00000000E+00
  0.00000000E+00  0.00000000E+00  0.00000000E+00
  0.00000000E+00  0.00000000E+00  0.00000000E+00
  0.00000000E+00  0.00000000E+00  0.00000000E+00
  0.00000000E+00  0.00000000E+00  0.00000000E+00
  0.00000000E+00  0.00000000E+00  0.00000000E+00
  0.00000000E+00  0.00000000E+00  0.00000000E+00
  0.00000000E+00  0.00000000E+00  0.00000000E+00
  0.00000000E+00  0.00000000E+00  0.00000000E+00
  0.00000000E+00  0.00000000E+00  0.00000000E+00
  0.00000000E+00  0.00000000E+00  0.00000000E+00
  0.00000000E+00  0.00000000E+00  0.00000000E+00
  0.00000000E+00  0.00000000E+00  0.00000000E+00
  0.00000000E+00  0.00000000E+00  0.00000000E+00
  0.00000000E+00  0.00000000E+00  0.00000000E+00
  0.00000000E+00  0.00000000E+00  0.00000000E+00
  0.00000000E+00  0.00000000E+00  0.00000000E+00
  0.00000000E+00  0.00000000E+00  0.00000000E+00
  0.00000000E+00  0.00000000E+00  0.00000000E+00
  0.00000000E+00  0.00000000E+00  0.00000000E+00
  0.00000000E+00  0.00000000E+00  0.00000000E+00
  0.00000000E+00  0.00000000E+00  0.00000000E+00
  0.00000000E+00  0.00000000E+00  0.00000000E+00
  0.00000000E+00  0.00000000E+00  0.00000000E+00
  0.00000000E+00  0.00000000E+00  0.00000000E+00
  0.00000000E+00  0.00000000E+00  0.00000000E+00
  0.00000000E+00  0.00000000E+00  0.00000000E+00
  0.00000000E+00  0.00000000E+00  0.00000000E+00
  0.00000000E+00  0.00000000E+00  0.00000000E+00
  0.00000000E+00  0.00000000E+00  0.00000000E+00
  0.00000000E+00  0.00000000E+00  0.00000000E+00
  0.00000000E+00  0.00000000E+00  0.00000000E+00
  0.00000000E+00  0.00000000E+00  0.00000000E+00
  0.00000000E+00  0.00000000E+00  0.00000000E+00
  0.00000000E+00  0.00000000E+00  0.00000000E+00
  0.00000000E+00  0.00000000E+00  0.00000000E+00
  0.00000000E+00  0.00000000E+00  0.00000000E+00
  0.00000000E+00  0.00000000E+00  0.00000000E+00
  0.00000000E+00  0.00000000E+00  0.00000000E+00
  0.00000000E+00  0.00000000E+00  0.00000000E+00
  0.00000000E+00  0.00000000E+00  0.00000000E+00
  0.00000000E+00  0.00000000E+00  0.00000000E+00
  0.00000000E+00  0.00000000E+00  0.00000000E+00
  0.00000000E+00  0.00000000E+00  0.00000000E+00
  0.00000000E+00  0.00000000E+00  0.00000000E+00
  0.00000000E+00  0.00000000E+00  0.00000000E+00
  0.00000000E+00  0.00000000E+00  0.00000000E+00
  0.00000000E+00  0.00000000E+00  0.00000000E+00
  0.00000000E+00  0.00000000E+00  0.00000000E+00
  0.00000000E+00  0.00000000E+00  0.00000000E+00
  0.00000000E+00  0.00000000E+00  0.00000000E+00
  0.00000000E+00  0.00000000E+00  0.00000000E+00
  0.00000000E+00  0.00000000E+00  0.00000000E+00
  0.00000000E+00  0.00000000E+00  0.00000000E+00
  0.00000000E+00  0.00000000E+00  0.00000000E+00
  0.00000000E+00  0.00000000E+00  0.00000000E+00
  0.00000000E+00  0.00000000E+00  0.00000000E+00
  0.00000000E+00  0.00000000E+00  0.00000000E+00
  0.00000000E+00  0.00000000E+00  0.00000000E+00
  0.00000000E+00  0.00000000E+00  0.00000000E+00
  0.00000000E+00  0.00000000E+00  0.00000000E+00
  0.00000000E+00  0.00000000E+00  0.00000000E+00
  0.00000000E+00  0.00000000E+00  0.00000000E+00
  0.00000000E+00  0.00000000E+00  0.00000000E+00
  0.00000000E+00  0.00000000E+00  0.00000000E+00
  0.00000000E+00  0.00000000E+00  0.00000000E+00
  0.00000000E+00  0.00000000E+00  0.00000000E+00
  0.00000000E+00  0.00000000E+00  0.00000000E+00
  0.00000000E+00  0.00000000E+00  0.00000000E+00
  0.00000000E+00  0.00000000E+00  0.00000000E+00
  0.00000000E+00  0.00000000E+00  0.00000000E+00
  0.00000000E+00  0.00000000E+00  0.00000000E+00
  0.00000000E+00  0.00000000E+00  0.00000000E+00
  0.00000000E+00  0.00000000E+00  0.00000000E+00
  0.00000000E+00  0.00000000E+00  0.00000000E+00
  0.00000000E+00  0.00000000E+00  0.00000000E+00
  0.00000000E+00  0.00000000E+00  0.00000000E+00
  0.00000000E+00  0.00000000E+00  0.00000000E+00
  0.00000000E+00  0.00000000E+00  0.00000000E+00
  0.00000000E+00  0.00000000E+00  0.00000000E+00
  0.00000000E+00  0.00000000E+00  0.00000000E+00
  0.00000000E+00  0.00000000E+00  0.00000000E+00
  0.00000000E+00  0.00000000E+00  0.00000000E+00
  0.00000000E+00  0.00000000E+00  0.00000000E+00
  0.00000000E+00  0.00000000E+00  0.00000000E+00
  0.00000000E+00  0.00000000E+00  0.00000000E+00
  0.00000000E+00  0.00000000E+00  0.00000000E+00
  0.00000000E+00  0.00000000E+00  0.00000000E+00
  0.00000000E+00  0.00000000E+00  0.00000000E+00
  0.00000000E+00  0.00000000E+00  0.00000000E+00
  0.00000000E+00  0.00000000E+00  0.00000000E+00
  0.00000000E+00  0.00000000E+00  0.00000000E+00
  0.00000000E+00  0.00000000E+00  0.00000000E+00
  0.00000000E+00  0.00000000E+00  0.00000000E+00
  0.00000000E+00  0.00000000E+00  0.00000000E+00
  0.00000000E+00  0.00000000E+00  0.00000000E+00
  0.00000000E+00  0.00000000E+00  0.00000000E+00
  0.00000000E+00  0.00000000E+00  0.00000000E+00
  0.00000000E+00  0.00000000E+00  0.00000000E+00
  0.00000000E+00  0.00000000E+00  0.00000000E+00
  0.00000000E+00  0.00000000E+00  0.00000000E+00
  0.00000000E+00  0.00000000E+00  0.00000000E+00
  0.00000000E+00  0.00000000E+00  0.00000000E+00
  0.00000000E+00  0.00000000E+00  0.00000000E+00
  0.00000000E+00  0.00000000E+00  0.00000000E+00
  0.00000000E+00  0.00000000E+00  0.00000000E+00
  0.00000000E+00  0.00000000E+00  0.00000000E+00
  0.00000000E+00  0.00000000E+00  0.00000000E+00
  0.00000000E+00  0.00000000E+00  0.00000000E+00
  0.00000000E+00  0.00000000E+00  0.00000000E+00
  0.00000000E+00  0.00000000E+00  0.00000000E+00
  0.00000000E+00  0.00000000E+00  0.00000000E+00
  0.00000000E+00  0.00000000E+00  0.00000000E+00
  0.00000000E+00  0.00000000E+00  0.00000000E+00
  0.00000000E+00  0.00000000E+00  0.00000000E+00
