C 
 1.0000000000000000
    10.0339182880338953    0.0000000000000000    0.0000000000000000
     0.0000000000000000    9.1887057926695075    0.0000000000000000
     0.0000000000000000    0.0000000000000000   16.0000000000000000
 C  
  88
Direct
  0.7870586822475225  0.0773219120531166  0.3632698928236019
  0.8502066224702690  0.1982119041009927  0.4036998115006522
  0.8783808341962553 -0.0413292592209829  0.3537017652998035
  0.9791597182021584  0.1424267616416721  0.4359157631787912
  0.9963193900738533 -0.0038268662639903  0.4055071278667544
  0.8244149050811993 -0.1715909057191402  0.3892298790736267
  0.9149239167915039 -0.2332429120115234  0.4488247931987563
  1.0187207265578384 -0.1211661932376478  0.4634884895643583
  0.7052211413952416 -0.1262990750126602  0.4375817848321565
  0.6823892688155192  0.0259470667891147  0.4216882568408946
  0.6753997904745143  0.1272443679980756  0.4902471296970282
  0.7210473011395896 -0.1773872551246609  0.5220697456693472
  0.7140244269705719 -0.0761492684190444  0.5906076623418833
  0.6912170355719527  0.0761239258616967  0.5747186892521192
  0.8503690542151913 -0.2555343065613047  0.5276121863528140
  0.8585978731284425  0.2454245318045740  0.5482270709757174
  0.7755897408968332  0.2433905193337461  0.4754095786374446
  0.8015176530190751  0.1594163471004289  0.6138064553907436
  0.8950293192230729  0.0535314655492067  0.6433571565852791
  0.8387926571461677 -0.0895504256543960  0.6397366058625794
  0.9232419447541984 -0.1860928838762482  0.5933960418417719
  0.9842938502654284  0.1713403571845635  0.5243150585551434
  1.0065519878432594  0.0540238883418596  0.5823306250488595
  1.0237645387734062 -0.0922336966574492  0.5518955369215915
  0.3987606154475603 -0.1644552017102238  0.3781822760225431
  0.3420318491831785 -0.2508718360244503  0.4437127468293089
  0.3050918899350138 -0.0584260713246844  0.3489221456972106
  0.2165142309982039 -0.1766775555223846  0.4680541156696515
  0.1940162694139624 -0.0591049070171572  0.4102868281826504
  0.3614404913449503  0.0845526812025490  0.3525040876629816
  0.2773919063497770  0.1808270030287068  0.3993198342825315
  0.1770010200919275  0.0870673819442561  0.4409375460428864
  0.4865279531200402  0.0708691878364728  0.4013559496336218
  0.5093360080847017 -0.0814444173941210  0.4170484693365705
  0.5255975564786969 -0.1329861951121520  0.5014500777065871
  0.4800000594718121  0.1717930489359122  0.4700685069830138
  0.4962917163505891  0.1202929324282506  0.5544368110958295
  0.5190762295287458 -0.0320426751631541  0.5701402941288628
  0.3507126797925413  0.2501041845848830  0.4649943042088365
  0.3511748036698324 -0.2040500211889252  0.5882640031813859
  0.4254002409918249 -0.2491151752924446  0.5163123767848182
  0.4146999148167517 -0.0835262220549995  0.6288085621461481
  0.3235872281974157  0.0351866021017493  0.6386673785749575
  0.3774566158241944  0.1655120289142724  0.6030877213209364
  0.2866122478042425  0.2277337130095609  0.5438956630647201
  0.2221052553934984 -0.1480730398032647  0.5564756717775063
  0.2052370952135926 -0.0019027541036357  0.5871563369948880
  0.1826832557129500  0.1156577755053564  0.5293660666857560
  0.5557054901163767  0.6956110540306534  0.4518778224664066
  0.6732615446121891  0.6365982238967456  0.4110842066184544
  0.5824715108461994  0.7013110490624976  0.5399390021027538
  0.7164335980970543  0.6457408305705223  0.5530878879465940
  0.7780514412723654  0.6100156636921318  0.4727964001985389
  0.4858121026999170  0.6106116345749473  0.5843393263339404
  0.5652083669933208  0.4925276421796272  0.6200963042086867
  0.7057318768451797  0.5162716031693436  0.6028062677165975
  0.4081273096093192  0.5415560364055501  0.5184543761026893
  0.4229934219970253  0.3839411336735502  0.5200161259235994
  0.5277476004463751  0.3573783191406167  0.5817399553479726
  0.4409404447680945  0.6010900332928916  0.4366590865794567
  0.4952766974386951  0.4776937717634804  0.3900173704109356
  0.4845798949363470  0.3482000838593702  0.4397217411257811
  0.6357718034684680  0.5014614239186428  0.3727262502428489
  0.7151658945747341  0.3833753015612530  0.4084746997940900
  0.6185380326839776  0.2926552253166672  0.4528834516345409
  0.6453029805950296  0.2983634855017405  0.5409503435519530
  0.7600882817663999  0.3928853841254089  0.5561630481765630
  0.7928986321612214  0.4523972599662171  0.4743541649289482
 -0.0307379267172297  0.3365225158185932  0.4746752214088303
  0.1030857511567135  0.2791786623535145  0.4856255878201606
 -0.0271810570193866  0.4370723133515876  0.4060620921283226
  0.1088551454536493  0.4413466999805578  0.3749958890906101
  0.1917791548221713  0.3384843208635083  0.4215453711146597
 -0.0671835473926057  0.5814216936898743  0.4353438090814125
  0.0525450468651494  0.6707925979230097  0.4261427199429458
  0.1582950009512724  0.5862936350318514  0.3874392442166175
 -0.0835530773419561  0.5646689408042516  0.5252830446734098
  0.0097738915097771  0.6558370231096216  0.5712832481959214
  0.0984258290658202  0.7151580446959362  0.5071996163765480
 -0.0731551564144074  0.4127701566688323  0.5503924085633904
  0.0432219740276151  0.4080492726892778  0.6053901328101525
  0.0926809427572622  0.5529911559227682  0.6178493313363939
  0.1489366336024260  0.3235444716335933  0.5666882151614820
  0.2686660415302502  0.4129064382597824  0.5574941602090436
  0.2286985675827730  0.5572682034231733  0.5867674869597586
  0.2322492899689087  0.6578207634268345  0.5181481742671755
  0.2746836967553760  0.5815579181262129  0.4424285976819894
  0.2850931455778808  0.4296558530994298  0.4675550909750186
