C                                       
   1.00000000000000     
     9.5043618308332807    0.3312472531027863    0.0000000000000000
    -4.4759579583944822    8.4761570319024155    0.0000000000000000
     0.0000000000000000    0.0000000000000000   16.0000000000000000
   C 
    68
Direct
  0.7367989906501016  0.2276475988438353  0.6063014986768701
  0.6634957652983011  0.3187893317420234  0.6297553023031279
  0.6266886398703704  0.0789150049127201  0.5623361616227889
  0.4895520348113304  0.2508305033826898  0.5981553710887185
  0.5189300322521061  0.1492996631197847  0.5361940457155085
  0.7057965258143706  0.0814062056503009  0.4750652073849139
  0.5700498836205807  0.0492698596094840  0.4083994038472274
  0.4898470256772088  0.1349965425500001  0.4546163426154549
  0.8003349733617362  0.2477408388959266  0.4607715832603656
  0.8707322787028370  0.3242638158628340  0.5440255601167142
  0.8610701587536259  0.4781507569141384  0.5400577617655870
  0.7859777582726162  0.2957486617046172  0.3822341660663511
  0.7939004151513865  0.4487958500337355  0.3787072067567048
  0.8255628125412153  0.5295626147041383  0.4587999559229616
  0.6389028123691944  0.1804114529759335  0.3434018084118148
  0.6494672986956357  0.5427656630120403  0.5589172807706885
  0.7500405563934447  0.4764432652530958  0.5988968550325112
  0.7092568595454654  0.5740252378315834  0.4710965115475584
  0.5877516963536561  0.5163108828757351  0.4039098477236729
  0.6502957399793372  0.4337552827825559  0.3450178453748503
  0.5503506743711857  0.2669863257857011  0.3365948701835031
  0.4921585409594603  0.3886328078667723  0.5470980941677533
  0.4538676914968603  0.3719374228980038  0.4494427659035669
  0.4151321953864396  0.2161733253379069  0.4039493961874762
  0.0080351763510160  0.2726343052360333  0.5503928338674895
  0.1437841085289802  0.3048009678669393  0.6170498157664440
  0.0871509191492993  0.2751338669100510  0.4631160320526879
  0.2240039023025165  0.2190844152797497  0.5708389874009605
  0.1949041297487116  0.2047403653169275  0.4892667335374795
  0.9770388033636122  0.1263563771644970  0.4191530789317990
  0.0503413863772725  0.0352207234457659  0.3957059585561586
  0.2242706056636189  0.1032127936628799  0.4273095451881571
  0.8430807667529517  0.0297538190947231  0.4814460493958917
  0.9135136348868124  0.1062944664137506  0.5646786721945568
  0.9279015870973594  0.0583336130031009  0.6432293679289008
  0.8527891293868440  0.8758928213946279  0.4854525912518274
  0.8883132622271156  0.8244838109190967  0.5667038438491157
  0.9200172753366641  0.9053007373693261  0.6467794524438950
  0.9638071524568149  0.8775930073299920  0.4266152707965012
  0.1635648156064244  0.0871418179463452  0.6888474561331760
  0.0749661177999129  0.1736983882878624  0.6820528408137229
  0.0636490506143183  0.9203769770054727  0.6804588591843956
  0.1261766856076389  0.8378025626323720  0.6215797401402399
  0.0046276109188737  0.7800440166042834  0.5544056173865900
  0.0644131710539976  0.8113110160098044  0.4665742608210081
  0.2987604518062569  0.1379446173060898  0.6215077555435522
  0.2600154922713634  0.9821780108857833  0.5760241635891110
  0.2216821879578861  0.9654457227317378  0.4783726749616312
  0.1993005410804803  0.4566867288814719  0.4481430685347570
  0.1863695231143799  0.5177819709788354  0.5321736902149303
  0.3636357162097670  0.4712080023796368  0.4606785191569599
  0.4019160230536105  0.4873927112339708  0.5574245919772990
  0.2619805474994412  0.4837190845473401  0.6057856080495178
  0.4842495999775993  0.6135950443771271  0.4160072507169336
  0.5577730261284887  0.7152615305772804  0.4892712073630545
  0.5460883131653093  0.6395609686079815  0.5718755270606759
  0.3866884752215188  0.6994920581378813  0.3821179324738199
  0.4518368235565426  0.8703568791393131  0.4196769410986479
  0.5274519730236844  0.8362777513087446  0.4932947294962869
  0.2295904278896517  0.6136909268445864  0.4000765896721684
  0.1677984189697543  0.7145120880993131  0.4535902938110533
  0.3119279646539923  0.8666898791435170  0.4680339577425084
  0.1561032774431855  0.6388466113741098  0.5362024664709585
  0.2296331835439681  0.7404956329059437  0.6094733421362872
  0.3502259622603111  0.8828808675334066  0.5647849513549972
  0.5145369707230361  0.8973723801392518  0.5773145651526589
  0.4842563822750121  0.7403637470863842  0.6253899728494318
  0.3271543822312003  0.6545832983291741  0.6433619243703159
 
  0.00000000E+00  0.00000000E+00  0.00000000E+00
  0.00000000E+00  0.00000000E+00  0.00000000E+00
  0.00000000E+00  0.00000000E+00  0.00000000E+00
  0.00000000E+00  0.00000000E+00  0.00000000E+00
  0.00000000E+00  0.00000000E+00  0.00000000E+00
  0.00000000E+00  0.00000000E+00  0.00000000E+00
  0.00000000E+00  0.00000000E+00  0.00000000E+00
  0.00000000E+00  0.00000000E+00  0.00000000E+00
  0.00000000E+00  0.00000000E+00  0.00000000E+00
  0.00000000E+00  0.00000000E+00  0.00000000E+00
  0.00000000E+00  0.00000000E+00  0.00000000E+00
  0.00000000E+00  0.00000000E+00  0.00000000E+00
  0.00000000E+00  0.00000000E+00  0.00000000E+00
  0.00000000E+00  0.00000000E+00  0.00000000E+00
  0.00000000E+00  0.00000000E+00  0.00000000E+00
  0.00000000E+00  0.00000000E+00  0.00000000E+00
  0.00000000E+00  0.00000000E+00  0.00000000E+00
  0.00000000E+00  0.00000000E+00  0.00000000E+00
  0.00000000E+00  0.00000000E+00  0.00000000E+00
  0.00000000E+00  0.00000000E+00  0.00000000E+00
  0.00000000E+00  0.00000000E+00  0.00000000E+00
  0.00000000E+00  0.00000000E+00  0.00000000E+00
  0.00000000E+00  0.00000000E+00  0.00000000E+00
  0.00000000E+00  0.00000000E+00  0.00000000E+00
  0.00000000E+00  0.00000000E+00  0.00000000E+00
  0.00000000E+00  0.00000000E+00  0.00000000E+00
  0.00000000E+00  0.00000000E+00  0.00000000E+00
  0.00000000E+00  0.00000000E+00  0.00000000E+00
  0.00000000E+00  0.00000000E+00  0.00000000E+00
  0.00000000E+00  0.00000000E+00  0.00000000E+00
  0.00000000E+00  0.00000000E+00  0.00000000E+00
  0.00000000E+00  0.00000000E+00  0.00000000E+00
  0.00000000E+00  0.00000000E+00  0.00000000E+00
  0.00000000E+00  0.00000000E+00  0.00000000E+00
  0.00000000E+00  0.00000000E+00  0.00000000E+00
  0.00000000E+00  0.00000000E+00  0.00000000E+00
  0.00000000E+00  0.00000000E+00  0.00000000E+00
  0.00000000E+00  0.00000000E+00  0.00000000E+00
  0.00000000E+00  0.00000000E+00  0.00000000E+00
  0.00000000E+00  0.00000000E+00  0.00000000E+00
  0.00000000E+00  0.00000000E+00  0.00000000E+00
  0.00000000E+00  0.00000000E+00  0.00000000E+00
  0.00000000E+00  0.00000000E+00  0.00000000E+00
  0.00000000E+00  0.00000000E+00  0.00000000E+00
  0.00000000E+00  0.00000000E+00  0.00000000E+00
  0.00000000E+00  0.00000000E+00  0.00000000E+00
  0.00000000E+00  0.00000000E+00  0.00000000E+00
  0.00000000E+00  0.00000000E+00  0.00000000E+00
  0.00000000E+00  0.00000000E+00  0.00000000E+00
  0.00000000E+00  0.00000000E+00  0.00000000E+00
  0.00000000E+00  0.00000000E+00  0.00000000E+00
  0.00000000E+00  0.00000000E+00  0.00000000E+00
  0.00000000E+00  0.00000000E+00  0.00000000E+00
  0.00000000E+00  0.00000000E+00  0.00000000E+00
  0.00000000E+00  0.00000000E+00  0.00000000E+00
  0.00000000E+00  0.00000000E+00  0.00000000E+00
  0.00000000E+00  0.00000000E+00  0.00000000E+00
  0.00000000E+00  0.00000000E+00  0.00000000E+00
  0.00000000E+00  0.00000000E+00  0.00000000E+00
  0.00000000E+00  0.00000000E+00  0.00000000E+00
  0.00000000E+00  0.00000000E+00  0.00000000E+00
  0.00000000E+00  0.00000000E+00  0.00000000E+00
  0.00000000E+00  0.00000000E+00  0.00000000E+00
  0.00000000E+00  0.00000000E+00  0.00000000E+00
  0.00000000E+00  0.00000000E+00  0.00000000E+00
  0.00000000E+00  0.00000000E+00  0.00000000E+00
  0.00000000E+00  0.00000000E+00  0.00000000E+00
  0.00000000E+00  0.00000000E+00  0.00000000E+00
