C                                       
   1.00000000000000     
    16.3124095021734945    0.0997432849906558    0.0000000000000000
    -8.0685124306814231   14.3705439170700746    0.0000000000000000
     0.0000000000000000    0.0000000000000000   16.0000000000000000
  C             
   128
Direct
  0.4007068288501460  0.8431474595306507  0.6138661788669950
  0.3670732182014356  0.7514042231970939  0.6372539346001360
  0.4797999794826321  0.8804417246810384  0.5612083704376630
  0.4364770454430409  0.7287229526231598  0.6050356879054264
  0.4881628086201394  0.7978044454918526  0.5379283660919452
  0.3433743238514689  0.7821178267138317  0.3912948030186643
  0.4119067906915158  0.7530352641956709  0.3925077906161096
  0.4657513668797030  0.7474798367115931  0.4605674336257454
  0.2551709596033693  0.6971663360881594  0.4062233622713161
  0.2340833731293335  0.7129947872020744  0.4912330269977768
  0.2128375287330610  0.6449398773394087  0.5573166289352429
  0.2616076949508181  0.6251448099544683  0.3638718972323729
  0.2214739244787233  0.5287763182369173  0.3819200522944274
  0.1712754698667170  0.5396554567126869  0.5452587042560590
  0.3606114317400467  0.6593052200760390  0.3584197624571814
  0.3052707042543075  0.5938407502947110  0.6225282292955756
  0.2800419796570425  0.6688469473808918  0.6250882708333158
  0.2516246879096832  0.5250746524780896  0.5632667569704936
  0.3122865890603813  0.5115033378685285  0.5074315899255499
  0.3030645141471029  0.5209710984236962  0.4202742495043081
  0.3887301069669749  0.5975408128507134  0.3906408161935606
  0.4009687532682898  0.6327819409204968  0.6046134237234005
  0.4161590715489820  0.5793123912982132  0.5367366635482440
  0.4598287616111005  0.6500039124970773  0.4594318690544889
  0.8533974614932379  0.3939971077966002  0.5881307981787424
  0.7826410184599363  0.3648922011849257  0.6525850025071394
  0.8183362174703811  0.4302576804193146  0.5259936203537092
  0.7328455424432762  0.4216839848800391  0.6425095537138332
  0.7574001616216252  0.4598136595883626  0.5617314534709847
  0.7849421998702683  0.3941102977367084  0.4335641246650606
  0.7110364252159110  0.4306911457298255  0.4222023516068166
  0.6945456080944605  0.4587648774881048  0.5009085522479382
  0.7066178995004273  0.2903404024732572  0.4381451321449270
  0.7371756230555816  0.2523743230818017  0.5024725513869347
  0.6778797912369936  0.2144283339804488  0.5731596624845962
  0.6185448977070428  0.2686123839218498  0.4162584300093659
  0.5423477548390373  0.2010641248521538  0.4706809744877510
  0.5702028096679874  0.1693198015001822  0.5591873716428231
  0.6163324283014672  0.3550286545834793  0.4073265364096750
  0.6180125731601139  0.2774611811374476  0.6729480709729452
  0.7041260593755437  0.2740179670472199  0.6489076508831285
  0.5439524393891614  0.2207504495142799  0.6230203308639121
  0.5079854499197912  0.2763750194555513  0.5844677449966158
  0.5021919956530968  0.2656934174804513  0.4977231779300029
  0.5440988584336240  0.3536424318701084  0.4562058375994701
  0.6348308695433929  0.3736414254354613  0.6619669987793542
  0.5673602800824912  0.3721069217562687  0.6055132641115479
  0.5888020283024874  0.4311523096118076  0.5241237402577551
  0.1402623402673897  0.0999615356226210  0.4534887072857238
  0.1099531643801849  0.0975197629949942  0.5386596029610944
  0.0889441966053786  0.1256666348881081  0.3998433171139130
  0.0220515372681096  0.1468798388836255  0.4531578049868250
  0.0385026799664387  0.1219332921131690  0.5420759870253240
  0.0330635638880145  0.0435869867594809  0.3490816579671840
  0.9350575505092100  0.0094349743614950  0.3656821334538344
  0.9293038710587532  0.0624868272089678  0.4319507818126478
  0.0574246361304794  0.9718626702611431  0.3622360171508752
  0.9757018521181133  0.8961241106801119  0.3992009593723442
  0.8989973302608147  0.9153845029385962  0.3974068733229261
  0.1332175174063892  0.0062744272773647  0.4287863694097889
  0.0761869945246753  0.9481538888593876  0.5046773705958050
  0.9900998486494763  0.8724266233153495  0.4845355116264650
  0.0718941711563559  0.0033011586425688  0.5707979279375580
  0.9772407894510448  0.9672839073439202  0.5956819347682902
  0.9179890900600931  0.8772489456978299  0.5449807377915690
  0.8764094423045901  0.9183329794447975  0.4815686532412484
  0.8874635040354703  0.0065345019883450  0.5046659864346480
  0.9564797853322438  0.0394104236601852  0.5706397416679220
  0.3885425025187169  0.0456017736471234  0.5850871848768778
  0.4805930790393803  0.0640759702895859  0.5418248196259179
  0.3234579172835558  0.9525269580169995  0.6023432439191554
  0.3548268067872487  0.8880438743224546  0.5723236240752008
  0.4570198128606386  0.9551059391424516  0.5220978180252805
  0.2362303620737856  0.9305830822886635  0.5635723012647753
  0.2114847835579474  0.8601914250913574  0.5028959850803153
  0.2784653460097019  0.8212793492228981  0.5033449532615142
  0.2435606388480813  0.0132161018248043  0.5272037958901854
  0.2188194103813949  0.9971051055077902  0.4327557033368076
  0.2119998135558493  0.9004364621679326  0.4232804588464157
  0.3379609631262501  0.0829957287948485  0.5385655002772531
  0.3768825752643039  0.1077398732169814  0.4574629543548217
  0.3135150850120103  0.0584038637522258  0.3923929634363396
  0.4667378800712114  0.1027309282207964  0.4543411932338361
  0.4381116256443005  0.0244003511616024  0.3938346876966998
  0.3474804047151682  0.0015535676249252  0.3573835680493853
  0.2831994857362232  0.9044572215057901  0.3726762368476964
  0.3375891263742083  0.8621583141703631  0.4168856148343969
  0.4283560190041098  0.9470831437444791  0.4347304072232112
  0.9717052993567890  0.3065714149485831  0.5557106532565677
  0.9149262836654386  0.3598815912549075  0.5482288559406381
  0.0658021465726242  0.3666248703505671  0.5273137692887848
  0.0863764856741118  0.4650482806470997  0.5307638807850992
  0.9932209684719729  0.4457275087810281  0.5023425641353513
  0.0864563799371134  0.3254359704749182  0.4563096916810794
  0.1041909322670408  0.3681369318243554  0.3788458604496910
  0.1313785370755184  0.4638252207706666  0.3693564212069755
  0.0069026774443660  0.2275833052137014  0.4425070058447219
  0.9672484208759495  0.2326515555794426  0.3559865857242630
  0.0290261301659793  0.3137680813455698  0.3169657812235797
  0.9338190580640376  0.2293579372182576  0.5003684966401040
  0.8603867531450037  0.2247762464819569  0.4535158629740218
  0.8791682866735191  0.2334018554688909  0.3660400566668503
  0.8405988700729387  0.2980554726300449  0.4825945995160748
  0.8666664499702323  0.3707571117414950  0.4038793244928373
  0.8848949064866879  0.3166536764204696  0.3333744043315164
  0.9803559460064883  0.3686569586194097  0.3048017294647259
  0.0338184809116910  0.4514219679509879  0.3529033422659107
  0.9705240281159915  0.4461849475107261  0.4193500917081084
  0.7227605377685771  0.7038309871721391  0.6848184246463310
  0.6357035085889922  0.6144945507631075  0.6700527406104083
  0.7002572899096184  0.7747403779045937  0.6591065428799582
  0.6034069656813278  0.7273034460500744  0.6273677371837283
  0.5649484522997841  0.6306429999346408  0.6344642739745965
  0.7573604957879582  0.8218426368807307  0.5919120082295118
  0.6995865157885925  0.8046867785510563  0.5185053100358986
  0.6042850642669403  0.7489202476490685  0.5418539327714033
  0.8315459065768390  0.7917291908282817  0.5745350855680128
  0.7915698986148892  0.7371676455597213  0.4924810982622735
  0.7208657364097955  0.7531439931857884  0.4586910785437064
  0.7984804259854436  0.7083664229634256  0.6378276507288241
  0.7536681306827027  0.6230612815089114  0.5897238116145637
  0.7524373355665669  0.6415976491172773  0.5032010474318221
  0.6564367570944778  0.5646064896542217  0.6120740284837216
  0.5904744700109268  0.5263009342326865  0.5351458522735989
  0.6558408009169135  0.5962428422085833  0.4720210251438842
  0.6371092211368303  0.6645573045803627  0.4431663779300632
  0.5551726116281044  0.6616481582820508  0.4869043064739263
  0.5181702118217819  0.5789314238415212  0.5531077507503159
 
  0.00000000E+00  0.00000000E+00  0.00000000E+00
  0.00000000E+00  0.00000000E+00  0.00000000E+00
  0.00000000E+00  0.00000000E+00  0.00000000E+00
  0.00000000E+00  0.00000000E+00  0.00000000E+00
  0.00000000E+00  0.00000000E+00  0.00000000E+00
  0.00000000E+00  0.00000000E+00  0.00000000E+00
  0.00000000E+00  0.00000000E+00  0.00000000E+00
  0.00000000E+00  0.00000000E+00  0.00000000E+00
  0.00000000E+00  0.00000000E+00  0.00000000E+00
  0.00000000E+00  0.00000000E+00  0.00000000E+00
  0.00000000E+00  0.00000000E+00  0.00000000E+00
  0.00000000E+00  0.00000000E+00  0.00000000E+00
  0.00000000E+00  0.00000000E+00  0.00000000E+00
  0.00000000E+00  0.00000000E+00  0.00000000E+00
  0.00000000E+00  0.00000000E+00  0.00000000E+00
  0.00000000E+00  0.00000000E+00  0.00000000E+00
  0.00000000E+00  0.00000000E+00  0.00000000E+00
  0.00000000E+00  0.00000000E+00  0.00000000E+00
  0.00000000E+00  0.00000000E+00  0.00000000E+00
  0.00000000E+00  0.00000000E+00  0.00000000E+00
  0.00000000E+00  0.00000000E+00  0.00000000E+00
  0.00000000E+00  0.00000000E+00  0.00000000E+00
  0.00000000E+00  0.00000000E+00  0.00000000E+00
  0.00000000E+00  0.00000000E+00  0.00000000E+00
  0.00000000E+00  0.00000000E+00  0.00000000E+00
  0.00000000E+00  0.00000000E+00  0.00000000E+00
  0.00000000E+00  0.00000000E+00  0.00000000E+00
  0.00000000E+00  0.00000000E+00  0.00000000E+00
  0.00000000E+00  0.00000000E+00  0.00000000E+00
  0.00000000E+00  0.00000000E+00  0.00000000E+00
  0.00000000E+00  0.00000000E+00  0.00000000E+00
  0.00000000E+00  0.00000000E+00  0.00000000E+00
  0.00000000E+00  0.00000000E+00  0.00000000E+00
  0.00000000E+00  0.00000000E+00  0.00000000E+00
  0.00000000E+00  0.00000000E+00  0.00000000E+00
  0.00000000E+00  0.00000000E+00  0.00000000E+00
  0.00000000E+00  0.00000000E+00  0.00000000E+00
  0.00000000E+00  0.00000000E+00  0.00000000E+00
  0.00000000E+00  0.00000000E+00  0.00000000E+00
  0.00000000E+00  0.00000000E+00  0.00000000E+00
  0.00000000E+00  0.00000000E+00  0.00000000E+00
  0.00000000E+00  0.00000000E+00  0.00000000E+00
  0.00000000E+00  0.00000000E+00  0.00000000E+00
  0.00000000E+00  0.00000000E+00  0.00000000E+00
  0.00000000E+00  0.00000000E+00  0.00000000E+00
  0.00000000E+00  0.00000000E+00  0.00000000E+00
  0.00000000E+00  0.00000000E+00  0.00000000E+00
  0.00000000E+00  0.00000000E+00  0.00000000E+00
  0.00000000E+00  0.00000000E+00  0.00000000E+00
  0.00000000E+00  0.00000000E+00  0.00000000E+00
  0.00000000E+00  0.00000000E+00  0.00000000E+00
  0.00000000E+00  0.00000000E+00  0.00000000E+00
  0.00000000E+00  0.00000000E+00  0.00000000E+00
  0.00000000E+00  0.00000000E+00  0.00000000E+00
  0.00000000E+00  0.00000000E+00  0.00000000E+00
  0.00000000E+00  0.00000000E+00  0.00000000E+00
  0.00000000E+00  0.00000000E+00  0.00000000E+00
  0.00000000E+00  0.00000000E+00  0.00000000E+00
  0.00000000E+00  0.00000000E+00  0.00000000E+00
  0.00000000E+00  0.00000000E+00  0.00000000E+00
  0.00000000E+00  0.00000000E+00  0.00000000E+00
  0.00000000E+00  0.00000000E+00  0.00000000E+00
  0.00000000E+00  0.00000000E+00  0.00000000E+00
  0.00000000E+00  0.00000000E+00  0.00000000E+00
  0.00000000E+00  0.00000000E+00  0.00000000E+00
  0.00000000E+00  0.00000000E+00  0.00000000E+00
  0.00000000E+00  0.00000000E+00  0.00000000E+00
  0.00000000E+00  0.00000000E+00  0.00000000E+00
  0.00000000E+00  0.00000000E+00  0.00000000E+00
  0.00000000E+00  0.00000000E+00  0.00000000E+00
  0.00000000E+00  0.00000000E+00  0.00000000E+00
  0.00000000E+00  0.00000000E+00  0.00000000E+00
  0.00000000E+00  0.00000000E+00  0.00000000E+00
  0.00000000E+00  0.00000000E+00  0.00000000E+00
  0.00000000E+00  0.00000000E+00  0.00000000E+00
  0.00000000E+00  0.00000000E+00  0.00000000E+00
  0.00000000E+00  0.00000000E+00  0.00000000E+00
  0.00000000E+00  0.00000000E+00  0.00000000E+00
  0.00000000E+00  0.00000000E+00  0.00000000E+00
  0.00000000E+00  0.00000000E+00  0.00000000E+00
  0.00000000E+00  0.00000000E+00  0.00000000E+00
  0.00000000E+00  0.00000000E+00  0.00000000E+00
  0.00000000E+00  0.00000000E+00  0.00000000E+00
  0.00000000E+00  0.00000000E+00  0.00000000E+00
  0.00000000E+00  0.00000000E+00  0.00000000E+00
  0.00000000E+00  0.00000000E+00  0.00000000E+00
  0.00000000E+00  0.00000000E+00  0.00000000E+00
  0.00000000E+00  0.00000000E+00  0.00000000E+00
  0.00000000E+00  0.00000000E+00  0.00000000E+00
  0.00000000E+00  0.00000000E+00  0.00000000E+00
  0.00000000E+00  0.00000000E+00  0.00000000E+00
  0.00000000E+00  0.00000000E+00  0.00000000E+00
  0.00000000E+00  0.00000000E+00  0.00000000E+00
  0.00000000E+00  0.00000000E+00  0.00000000E+00
  0.00000000E+00  0.00000000E+00  0.00000000E+00
  0.00000000E+00  0.00000000E+00  0.00000000E+00
  0.00000000E+00  0.00000000E+00  0.00000000E+00
  0.00000000E+00  0.00000000E+00  0.00000000E+00
  0.00000000E+00  0.00000000E+00  0.00000000E+00
  0.00000000E+00  0.00000000E+00  0.00000000E+00
  0.00000000E+00  0.00000000E+00  0.00000000E+00
  0.00000000E+00  0.00000000E+00  0.00000000E+00
  0.00000000E+00  0.00000000E+00  0.00000000E+00
  0.00000000E+00  0.00000000E+00  0.00000000E+00
  0.00000000E+00  0.00000000E+00  0.00000000E+00
  0.00000000E+00  0.00000000E+00  0.00000000E+00
  0.00000000E+00  0.00000000E+00  0.00000000E+00
  0.00000000E+00  0.00000000E+00  0.00000000E+00
  0.00000000E+00  0.00000000E+00  0.00000000E+00
  0.00000000E+00  0.00000000E+00  0.00000000E+00
  0.00000000E+00  0.00000000E+00  0.00000000E+00
  0.00000000E+00  0.00000000E+00  0.00000000E+00
  0.00000000E+00  0.00000000E+00  0.00000000E+00
  0.00000000E+00  0.00000000E+00  0.00000000E+00
  0.00000000E+00  0.00000000E+00  0.00000000E+00
  0.00000000E+00  0.00000000E+00  0.00000000E+00
  0.00000000E+00  0.00000000E+00  0.00000000E+00
  0.00000000E+00  0.00000000E+00  0.00000000E+00
  0.00000000E+00  0.00000000E+00  0.00000000E+00
  0.00000000E+00  0.00000000E+00  0.00000000E+00
  0.00000000E+00  0.00000000E+00  0.00000000E+00
  0.00000000E+00  0.00000000E+00  0.00000000E+00
  0.00000000E+00  0.00000000E+00  0.00000000E+00
  0.00000000E+00  0.00000000E+00  0.00000000E+00
  0.00000000E+00  0.00000000E+00  0.00000000E+00
  0.00000000E+00  0.00000000E+00  0.00000000E+00
  0.00000000E+00  0.00000000E+00  0.00000000E+00
  0.00000000E+00  0.00000000E+00  0.00000000E+00
