C 
 1.0000000000000000
    15.4595500693795262    0.0000000000000000    0.0000000000000000
    -7.7297750346897729   13.3883630911601532    0.0000000000000000
     0.0000000000000000    0.0000000000000000   16.0000000000000000
 C  
 128
Direct
  0.3902299007971493  0.8067623452472771  0.5757694263812692
  0.3992790817723170  0.7382037602605358  0.6303507123284986
  0.4582426963383684  0.8338285116421617  0.5069894331224820
  0.4615749715988156  0.7053632888427176  0.5849173505569258
  0.4974726484997739  0.7636121689957177  0.5095733237410576
  0.4061532804872735  0.8154382888165992  0.4292116243421858
  0.4267761384255043  0.7530960201091828  0.3762863081488249
  0.4783856119470850  0.7144560558666747  0.4296971130098537
  0.2982382232950782  0.7561414582925229  0.4497318138255602
  0.2885192406640417  0.7508519774579135  0.5393756783457225
  0.2359930162105746  0.6552232791754679  0.5803629054402489
  0.2554029310436171  0.6657839761614542  0.4009903002683614
  0.2028714743244008  0.5701902979708454  0.4419511350365037
  0.1931639316007225  0.5648903318144750  0.5316076887658420
  0.3360239916307496  0.6674841076526077  0.3492281491528628
  0.3092627025910733  0.5626016256576446  0.6229133818402195
  0.3042773203611336  0.6502854733856078  0.6430243189152832
  0.2341232481449224  0.5023202449637078  0.5630217771219235
  0.2777206241167256  0.4818614735954323  0.4922261208818179
  0.2500168762003820  0.5110422963610312  0.4164451926058410
  0.3366875752831116  0.5774554435171251  0.3688079584344895
  0.4065166578941655  0.5979513226181734  0.5803884404744311
  0.3873166024523643  0.5487567685674545  0.5005248140970124
  0.4232647932102119  0.6070351608015019  0.4251818177522312
  0.8049543837556288  0.3893956008507762  0.5765886374392277
  0.7351207766657786  0.3973205848767512  0.6303912291171001
  0.8332899060856450  0.4585179270427868  0.5085229837625347
  0.7029910062680380  0.4601681727574119  0.5849200654691702
  0.7627940322563942  0.4974298363673655  0.5104854316576276
  0.8166750836159513  0.4077428221170710  0.4302484631381048
  0.7552913836564547  0.4290192028255259  0.3767017290598088
  0.7153085267867932  0.4795457148836743  0.4299288708894414
  0.7572048162911686  0.2994830393669288  0.4494549392128878
  0.7500529319397957  0.2882815032854107  0.5389660110954532
  0.6535921911383956  0.2348731905823499  0.5785101744604207
  0.6678795436367101  0.2572496056731317  0.3994027944945145
  0.5714544448510052  0.2038366113272320  0.4389209596408489
  0.5642917568801230  0.1926462552438859  0.5284446569152651
  0.6704146716550210  0.3386018720449406  0.3481190078065091
  0.5597100066715294  0.3070415060118235  0.6203540852509534
  0.6471121096396395  0.3019965667280918  0.6414821951303004
  0.5008411144827806  0.2328311550725999  0.5593334063142583
  0.4817037191206998  0.2774670973644890  0.4885481795163071
  0.5126084778270583  0.2511491224783380  0.4129748383099819
  0.5798432090175087  0.3386686182881368  0.3666227112409070
  0.5956956569990801  0.4049488307027642  0.5788009183808931
  0.5481717501732635  0.3869515480535935  0.4982558505492298
  0.6080041482071675  0.4242637163312800  0.4238228813105173
  0.1455904439285156  0.0843102892368882  0.4713506944326499
  0.1318976661964642  0.0591922922184947  0.5596945475025034
  0.0926909955710706  0.1363090056860913  0.4528455960552417
  0.0465652989119693  0.1430169895042850  0.5298647983711904
  0.0734722313492504  0.0989094429155101  0.5988626527802849
  0.0159284528977481  0.0803988585310852  0.3900261629282750
 -0.0785927736160128  0.0477293021381058  0.4336397145557092
 -0.0596574700863026  0.0880940746308182  0.5179524539288154
  0.0200625952553968 -0.0107778799727421  0.3774531721624824
 -0.0734765470313706 -0.0989108786659271  0.4010982002493782
 -0.1318962873472455 -0.0591853926114632  0.4402395678704177
  0.1046629998154481 -0.0067781852414694  0.4210646385936713
  0.0596526846346652 -0.0880941236153249  0.4819826495606138
 -0.0465757853670699 -0.1430368761001939  0.4700808382778023
  0.0786036488066390 -0.0477229672093296  0.5662772257915181
 -0.0159133923428169 -0.0803983825720604  0.6098929662841969
 -0.0926945543852979 -0.1363088528585310  0.5470904170715759
 -0.1455927131504438 -0.0843028206391868  0.5285817266828038
 -0.1046618085981880  0.0067882883016943  0.5788815245861020
 -0.0200656854424198  0.0107678163232555  0.6224987390209777
  0.3613670638431157  0.0630857443718896  0.5991419410850869
  0.4550359100128317  0.0924292776886670  0.5564965287718043
  0.3080706649361197 -0.0438296675197636  0.6057318537595675
  0.3690947009527333 -0.0799806565995493  0.5670945930311553
  0.4638369301581769  0.0043124254008383  0.5387538213785473
  0.2125670489990463 -0.0842002161923963  0.5618941332438451
  0.2207823404449201 -0.1405481393533335  0.4919143040824157
  0.3149587725484274 -0.1399713458604712  0.4965153534700203
  0.2153809049280423  0.0024766082716385  0.5232493800537279
  0.2111854562883217 -0.0054832102703853  0.4324841256001268
  0.2199587390490300 -0.0936080431074582  0.4147553702732536
  0.3019574787766027  0.0950976363373598  0.5508632014884387
  0.3600351618466534  0.1387929944296771  0.4747301717207578
  0.3059111759313490  0.0788173936081593  0.4041359109761677
  0.4541981806941930  0.1393757567954482  0.4793463077218830
  0.4624187556758032  0.0830380875412801  0.4093649154221278
  0.3669248034528233  0.0426525868538082  0.3655140644906536
  0.3136239363128471 -0.0642691552903392  0.3721090732371686
  0.3730496763827170 -0.0962768812240088  0.4203868276340973
  0.4596337074350389 -0.0036400802799048  0.4479874254924456
 -0.0436320588093445  0.3079036793386828  0.6065205599618421
 -0.0798719890028285  0.3689700075224608  0.5681278448962126
  0.0632747933438881  0.3612243722667790  0.5998335335787143
  0.0925190912005291  0.4549552183197695  0.5573160700809884
  0.0043532328301016  0.4637612418024911  0.5398041704170485
  0.0951806758928101  0.3018723290414447  0.5513361474639985
  0.1387077941073395  0.3600661785670298  0.4752377706459091
  0.1393103144403700  0.4542439385640701  0.4800513474335739
  0.0024812415408457  0.2153257440078943  0.5237374391344262
 -0.0056566903128815  0.2112632132803103  0.4329830058984381
  0.0785787941492631  0.3060357740320505  0.4046720964751612
 -0.0840991781881184  0.2124669582553161  0.5625705313722363
 -0.1406050465508197  0.2207601708116766  0.4927423391616809
 -0.0938313790070349  0.2200445905952441  0.4154646324409806
 -0.1400058317465943  0.3149198555959757  0.4975715410151081
 -0.0964891301921233  0.3731086840612189  0.4214728849585526
 -0.0645707095050993  0.3137800459232014  0.3729607005561398
  0.0423432973937050  0.3671029831424168  0.3662779299081053
  0.0828061767875076  0.4625516695151233  0.4102275273672293
 -0.0037921770883891  0.4596835635750967  0.4490494881234945
 -0.2864961917912950 -0.3403191126114880  0.6429788646072723
 -0.3539223532478605 -0.4405442838882426  0.6124127001379385
 -0.3401031895382778 -0.2867210010338678  0.6431145537963326
 -0.4403742709307189 -0.3541215696928132  0.6126035641404109
 -0.4525290060754717 -0.4526975211583750  0.5961821420895016
 -0.2897186899663477 -0.1999711808165298  0.5879436693029534
 -0.3606419884094162 -0.2206489309625429  0.5198959429123513
 -0.4531176849702521 -0.3131421445705408  0.5361937233653625
 -0.2091787484716788 -0.2092769798236597  0.5498570737778775
 -0.2211920327393833 -0.2211582205097140  0.4595826672961941
 -0.3197778896331626 -0.2332815429646443  0.4433624681145886
 -0.1998294832045442 -0.2898638761427775  0.5877377886239104
 -0.2205820100079837 -0.3606840971016905  0.5195750506733511
 -0.2333235202210152 -0.3197191018331719  0.4431518054696756
 -0.3130370513133107 -0.4531613395373106  0.5358860642546456
 -0.3839554634046727 -0.4738445648114546  0.4678374253937065
 -0.3335967194446650 -0.3871066867529287  0.4126547971921603
 -0.3872051630161196 -0.3335032711045801  0.4127949850011196
 -0.4738838211786866 -0.3839746728229652  0.4680370915326623
 -0.4645273523870572 -0.4645712356801111  0.5059056186134837
