C                                       
   1.00000000000000     
    10.2949155324335315   -0.1989708002150730    0.0000000000000000
    -0.2847774811320823   16.9238966951891321    0.0000000000000000
     0.0000000000000000    0.0000000000000000   16.0000000000000000
  C             
   128
Direct
  0.6833232573056904  0.8589635705970521  0.5562746704732322
  0.7443543496175316  0.8750847341780215  0.4731808149903520
  0.7813931662284479  0.8923530957418330  0.6193334476498962
  0.8519262809515656  0.9184402742665392  0.4868516605042138
  0.9017731207711072  0.9235711683141618  0.5698152636425228
  0.7294507805225989  0.9595292272958804  0.6529262482928686
  0.8182319547463551  0.0273362472573766  0.6602012803841302
  0.9278862522631209  0.0064447764576309  0.6059220617412565
  0.6200696345480483  0.9850372194187244  0.6016595380482068
  0.5901069867966985  0.9282088240147145  0.5421298282375995
  0.5649059424294558  0.9516588155430051  0.4489950870098184
  0.6476086229411797  0.0698041100468040  0.5841109986235731
  0.6467292567752361  0.0984400426515429  0.5034654444201179
  0.5911087919948467  0.0458274222655752  0.4357702297834436
  0.7666339854902287  0.0943714535277212  0.6250160925005636
  0.7671307155479800  0.9659828521157364  0.3655140004692639
  0.6793735851770267  0.9148549510995523  0.4065371067951615
  0.7216231219573759  0.0445936836596562  0.3804510083639649
  0.8188861665610663  0.0927942252922550  0.4153993309525372
  0.7737768934559331  0.1452052262457695  0.4820319233989450
  0.8552739703906173  0.1389502244931170  0.5631166696963981
  0.9051756201342988  0.9637716650039696  0.4190037909292685
  0.9375939642801492  0.0510297606970583  0.4400818267221575
  0.9504167943607053  0.0758693405239602  0.5444700216896927
  0.3166681009144555  0.1410403526011660  0.5562742824265466
  0.2556497570152951  0.1249265385112421  0.4731774168302234
  0.2186059005417513  0.1076528756090741  0.6193295017825996
  0.1480574411532350  0.0815609852056413  0.4868507783887310
  0.0982212694417174  0.0764336812233312  0.5698111923944186
  0.2705394985512525  0.0404754116658328  0.6529235242555456
  0.1817566674313572  0.9726663769406938  0.6602021955897958
  0.0721045884723172  0.9935595225380244  0.6059206082915852
  0.3799194313632366  0.0149661707687325  0.6016572945225453
  0.4098841157344338  0.0717924309355790  0.5421267131005347
  0.4350906468128665  0.0483441940195007  0.4489943203481004
  0.3523828879343265  0.9301964181162024  0.5841093425399096
  0.3532664141170421  0.9015630661050504  0.5034648532971002
  0.4088909775596201  0.9541756203088646  0.4357679627974564
  0.2333567954201559  0.9056309566021740  0.6250128136905166
  0.2328693331402706  0.0340208540071386  0.3655138223382228
  0.3206223801438902  0.0851468904657912  0.4065333959495069
  0.2783745675329379  0.9554066657363517  0.3804484151539875
  0.1811119028170682  0.9072065401204741  0.4153995801149141
  0.2262179262114667  0.8547919416193347  0.4820282112118850
  0.1447232141362448  0.8610488047698770  0.5631112876998771
  0.0948235727327324  0.0362323371384577  0.4190028807655387
  0.0624005926717279  0.9489743806170576  0.4400801869417685
  0.0495758888280649  0.9241331673653607  0.5444691658967359
  0.3436537376635572  0.3448745710894890  0.6479906281602611
  0.4104274848749661  0.2816133676044179  0.6196288802067514
  0.2041093259260165  0.3445387981052625  0.6093296346262436
  0.1925802000090215  0.2725516184463739  0.5494914778339067
  0.3337852554110369  0.2293986087235518  0.5576273879977365
  0.2326798582061007  0.4092981616004297  0.5505233359527515
  0.1975389329442720  0.3970249170880440  0.4603169948169606
  0.1926658879976634  0.3051288571546459  0.4563391341444731
  0.3410841633337384  0.4533919965607043  0.5662138208375834
  0.4006562976174534  0.4777649772136945  0.4856650629448906
  0.3252486438237461  0.4277670123364698  0.4211140437150802
  0.4203062677393085  0.4207954017866279  0.6297931054315363
  0.5440656214613239  0.4027657383055990  0.5842355615744083
  0.5295711344176695  0.4377960750882345  0.4923548023997948
  0.5382882829953721  0.3110009224268025  0.5823076207074604
  0.5343639549130019  0.2887660125712949  0.4878140677524433
  0.5381232806065132  0.3664831144696112  0.4330025028808310
  0.3983066585961867  0.3649511987478586  0.3955907535443029
  0.3267358872357147  0.2911266657439823  0.4201965289253303
  0.4022534413655948  0.2525501784196644  0.4760601964469676
  0.6563598244421934  0.6551345263274564  0.6480196050634847
  0.5895707340768603  0.7183882737316715  0.6196342796383457
  0.7959022393983353  0.6554672202533010  0.6093439002859934
  0.8074246227964190  0.7274487230203260  0.5494871545885189
  0.6662191654699574  0.7706024685510056  0.5576280016253318
  0.7673090459231411  0.5906900857877435  0.5505390345427111
  0.8024556179418117  0.6029731392318848  0.4603130807228185
  0.8073466226817720  0.6948698525352124  0.4563362655815323
  0.6589277923264401  0.5465854105155639  0.5662156453142723
  0.5993239549954344  0.5222303815117731  0.4856688815046371
  0.6747416045267918  0.5722288310183788  0.4211156016805451
  0.5796996777599747  0.5792316314620144  0.6297558550895148
  0.4559068223096076  0.5972296480941691  0.5842284932578563
  0.4704200035692336  0.5621984796659920  0.4923498013054275
  0.4617132037791155  0.6889923862306907  0.5823060980489355
  0.4656457434082082  0.7112242916984530  0.4878151799901345
  0.4618658404566571  0.6335119958566765  0.4329965693537233
  0.6016915729586605  0.6350436754090153  0.3955844132430478
  0.6732669200473372  0.7088723438423258  0.4201934981439862
  0.5977550072689883  0.7474462728996910  0.4760609336867329
  0.8945537637868439  0.3544265044954600  0.6398422599164574
  0.8204205092611212  0.2851063572218638  0.6202461617349276
  0.0344502129701715  0.3547488019402421  0.6078998601168295
  0.0309969102902997  0.2759733896946394  0.5507347784963810
  0.8928091427353146  0.2306226068473309  0.5653737445270550
  0.0306183516525623  0.4334867626622317  0.5548611618227375
  0.0447868774220060  0.3997947670975330  0.4624092047167204
  0.0333895998635919  0.3057538715968411  0.4584946682964826
  0.9034388699054482  0.4775603614875030  0.5627088134012340
  0.8456102660462163  0.4577909330239096  0.4810018023528363
  0.9214074421547068  0.4218930433140940  0.4190411809221059
  0.8261031019445023  0.4254638960170436  0.6230436739922329
  0.6979976128841937  0.4004959466853554  0.5840522058333557
  0.7327371220360976  0.4169736864943566  0.4949684036311522
  0.6919469080481575  0.3083355887433604  0.5835957779775506
  0.6881809754740470  0.2830667388918489  0.4874350618764687
  0.7016537282393055  0.3563579721904531  0.4315437835830949
  0.8415054797727247  0.3517478520835265  0.3948303478252304
  0.8991860230214119  0.2830048798852038  0.4189196563386085
  0.8056609819046241  0.2341559231285888  0.4741858008610448
  0.1054434235709114  0.6455706822374603  0.6398559707405195
  0.1795856992305730  0.7148844664969927  0.6202322073201874
  0.9655560497696153  0.6452489485731139  0.6079039691188063
  0.9690087298470794  0.7240314560016811  0.5507381799444727
  0.1071900117383391  0.7693759225249714  0.5653703341699036
  0.9693958111955600  0.5665108425870597  0.5548626322596171
  0.9552229157403017  0.6002055067305224  0.4624146420740671
  0.9666200485396991  0.6942475422720139  0.4584937726826383
  0.0965690870797824  0.5224345275957346  0.5627052044636615
  0.1543983653474089  0.5422151976878438  0.4810065258755398
  0.0785975671093263  0.5781018148695301  0.4190352443485981
  0.1739001236743185  0.5745322206783049  0.6230372583945940
  0.3020050049029192  0.5995086264000958  0.5840396866105606
  0.2672751047389305  0.5830300103413633  0.4949638985578080
  0.3080538805800687  0.6916614007621886  0.5835844549684693
  0.3118261119071254  0.7169267963729860  0.4874310076331552
  0.2983601564601955  0.6436395759489550  0.4315336781907202
  0.1585100014072712  0.6482539596767485  0.3948270313788921
  0.1008263787339845  0.7169921216813196  0.4189239828365927
  0.1943442298133142  0.7658415722350123  0.4741895609568582
 
  0.00000000E+00  0.00000000E+00  0.00000000E+00
  0.00000000E+00  0.00000000E+00  0.00000000E+00
  0.00000000E+00  0.00000000E+00  0.00000000E+00
  0.00000000E+00  0.00000000E+00  0.00000000E+00
  0.00000000E+00  0.00000000E+00  0.00000000E+00
  0.00000000E+00  0.00000000E+00  0.00000000E+00
  0.00000000E+00  0.00000000E+00  0.00000000E+00
  0.00000000E+00  0.00000000E+00  0.00000000E+00
  0.00000000E+00  0.00000000E+00  0.00000000E+00
  0.00000000E+00  0.00000000E+00  0.00000000E+00
  0.00000000E+00  0.00000000E+00  0.00000000E+00
  0.00000000E+00  0.00000000E+00  0.00000000E+00
  0.00000000E+00  0.00000000E+00  0.00000000E+00
  0.00000000E+00  0.00000000E+00  0.00000000E+00
  0.00000000E+00  0.00000000E+00  0.00000000E+00
  0.00000000E+00  0.00000000E+00  0.00000000E+00
  0.00000000E+00  0.00000000E+00  0.00000000E+00
  0.00000000E+00  0.00000000E+00  0.00000000E+00
  0.00000000E+00  0.00000000E+00  0.00000000E+00
  0.00000000E+00  0.00000000E+00  0.00000000E+00
  0.00000000E+00  0.00000000E+00  0.00000000E+00
  0.00000000E+00  0.00000000E+00  0.00000000E+00
  0.00000000E+00  0.00000000E+00  0.00000000E+00
  0.00000000E+00  0.00000000E+00  0.00000000E+00
  0.00000000E+00  0.00000000E+00  0.00000000E+00
  0.00000000E+00  0.00000000E+00  0.00000000E+00
  0.00000000E+00  0.00000000E+00  0.00000000E+00
  0.00000000E+00  0.00000000E+00  0.00000000E+00
  0.00000000E+00  0.00000000E+00  0.00000000E+00
  0.00000000E+00  0.00000000E+00  0.00000000E+00
  0.00000000E+00  0.00000000E+00  0.00000000E+00
  0.00000000E+00  0.00000000E+00  0.00000000E+00
  0.00000000E+00  0.00000000E+00  0.00000000E+00
  0.00000000E+00  0.00000000E+00  0.00000000E+00
  0.00000000E+00  0.00000000E+00  0.00000000E+00
  0.00000000E+00  0.00000000E+00  0.00000000E+00
  0.00000000E+00  0.00000000E+00  0.00000000E+00
  0.00000000E+00  0.00000000E+00  0.00000000E+00
  0.00000000E+00  0.00000000E+00  0.00000000E+00
  0.00000000E+00  0.00000000E+00  0.00000000E+00
  0.00000000E+00  0.00000000E+00  0.00000000E+00
  0.00000000E+00  0.00000000E+00  0.00000000E+00
  0.00000000E+00  0.00000000E+00  0.00000000E+00
  0.00000000E+00  0.00000000E+00  0.00000000E+00
  0.00000000E+00  0.00000000E+00  0.00000000E+00
  0.00000000E+00  0.00000000E+00  0.00000000E+00
  0.00000000E+00  0.00000000E+00  0.00000000E+00
  0.00000000E+00  0.00000000E+00  0.00000000E+00
  0.00000000E+00  0.00000000E+00  0.00000000E+00
  0.00000000E+00  0.00000000E+00  0.00000000E+00
  0.00000000E+00  0.00000000E+00  0.00000000E+00
  0.00000000E+00  0.00000000E+00  0.00000000E+00
  0.00000000E+00  0.00000000E+00  0.00000000E+00
  0.00000000E+00  0.00000000E+00  0.00000000E+00
  0.00000000E+00  0.00000000E+00  0.00000000E+00
  0.00000000E+00  0.00000000E+00  0.00000000E+00
  0.00000000E+00  0.00000000E+00  0.00000000E+00
  0.00000000E+00  0.00000000E+00  0.00000000E+00
  0.00000000E+00  0.00000000E+00  0.00000000E+00
  0.00000000E+00  0.00000000E+00  0.00000000E+00
  0.00000000E+00  0.00000000E+00  0.00000000E+00
  0.00000000E+00  0.00000000E+00  0.00000000E+00
  0.00000000E+00  0.00000000E+00  0.00000000E+00
  0.00000000E+00  0.00000000E+00  0.00000000E+00
  0.00000000E+00  0.00000000E+00  0.00000000E+00
  0.00000000E+00  0.00000000E+00  0.00000000E+00
  0.00000000E+00  0.00000000E+00  0.00000000E+00
  0.00000000E+00  0.00000000E+00  0.00000000E+00
  0.00000000E+00  0.00000000E+00  0.00000000E+00
  0.00000000E+00  0.00000000E+00  0.00000000E+00
  0.00000000E+00  0.00000000E+00  0.00000000E+00
  0.00000000E+00  0.00000000E+00  0.00000000E+00
  0.00000000E+00  0.00000000E+00  0.00000000E+00
  0.00000000E+00  0.00000000E+00  0.00000000E+00
  0.00000000E+00  0.00000000E+00  0.00000000E+00
  0.00000000E+00  0.00000000E+00  0.00000000E+00
  0.00000000E+00  0.00000000E+00  0.00000000E+00
  0.00000000E+00  0.00000000E+00  0.00000000E+00
  0.00000000E+00  0.00000000E+00  0.00000000E+00
  0.00000000E+00  0.00000000E+00  0.00000000E+00
  0.00000000E+00  0.00000000E+00  0.00000000E+00
  0.00000000E+00  0.00000000E+00  0.00000000E+00
  0.00000000E+00  0.00000000E+00  0.00000000E+00
  0.00000000E+00  0.00000000E+00  0.00000000E+00
  0.00000000E+00  0.00000000E+00  0.00000000E+00
  0.00000000E+00  0.00000000E+00  0.00000000E+00
  0.00000000E+00  0.00000000E+00  0.00000000E+00
  0.00000000E+00  0.00000000E+00  0.00000000E+00
  0.00000000E+00  0.00000000E+00  0.00000000E+00
  0.00000000E+00  0.00000000E+00  0.00000000E+00
  0.00000000E+00  0.00000000E+00  0.00000000E+00
  0.00000000E+00  0.00000000E+00  0.00000000E+00
  0.00000000E+00  0.00000000E+00  0.00000000E+00
  0.00000000E+00  0.00000000E+00  0.00000000E+00
  0.00000000E+00  0.00000000E+00  0.00000000E+00
  0.00000000E+00  0.00000000E+00  0.00000000E+00
  0.00000000E+00  0.00000000E+00  0.00000000E+00
  0.00000000E+00  0.00000000E+00  0.00000000E+00
  0.00000000E+00  0.00000000E+00  0.00000000E+00
  0.00000000E+00  0.00000000E+00  0.00000000E+00
  0.00000000E+00  0.00000000E+00  0.00000000E+00
  0.00000000E+00  0.00000000E+00  0.00000000E+00
  0.00000000E+00  0.00000000E+00  0.00000000E+00
  0.00000000E+00  0.00000000E+00  0.00000000E+00
  0.00000000E+00  0.00000000E+00  0.00000000E+00
  0.00000000E+00  0.00000000E+00  0.00000000E+00
  0.00000000E+00  0.00000000E+00  0.00000000E+00
  0.00000000E+00  0.00000000E+00  0.00000000E+00
  0.00000000E+00  0.00000000E+00  0.00000000E+00
  0.00000000E+00  0.00000000E+00  0.00000000E+00
  0.00000000E+00  0.00000000E+00  0.00000000E+00
  0.00000000E+00  0.00000000E+00  0.00000000E+00
  0.00000000E+00  0.00000000E+00  0.00000000E+00
  0.00000000E+00  0.00000000E+00  0.00000000E+00
  0.00000000E+00  0.00000000E+00  0.00000000E+00
  0.00000000E+00  0.00000000E+00  0.00000000E+00
  0.00000000E+00  0.00000000E+00  0.00000000E+00
  0.00000000E+00  0.00000000E+00  0.00000000E+00
  0.00000000E+00  0.00000000E+00  0.00000000E+00
  0.00000000E+00  0.00000000E+00  0.00000000E+00
  0.00000000E+00  0.00000000E+00  0.00000000E+00
  0.00000000E+00  0.00000000E+00  0.00000000E+00
  0.00000000E+00  0.00000000E+00  0.00000000E+00
  0.00000000E+00  0.00000000E+00  0.00000000E+00
  0.00000000E+00  0.00000000E+00  0.00000000E+00
  0.00000000E+00  0.00000000E+00  0.00000000E+00
  0.00000000E+00  0.00000000E+00  0.00000000E+00
  0.00000000E+00  0.00000000E+00  0.00000000E+00
