C 
 1.0000000000000000
     9.2792048393186484    0.0000000000000000    0.0000000000000000
    -4.6396024196593295    8.0360271177694500    0.0000000000000000
     0.0000000000000000    0.0000000000000000   16.0000000000000000
 C  
  64
Direct
  0.4662545947164790  0.3338485548518603  0.5931623345160613
  0.5295789904273975  0.4806733583130703  0.5426587674785599
  0.3818497330900688  0.1871300938563826  0.5427306642015681
  0.5130345069534977  0.4234733698070440  0.4547393748639364
  0.4230705897143916  0.2443335395278862  0.4547592339426593
  0.4487808643506099  0.0797037147036943  0.5567764006585757
  0.4995363021767480  0.0402396077345248  0.4795566975054708
  0.4946762795250924  0.1543941924893224  0.4161731917140382
  0.6033748376730561  0.1780994475218730  0.6060040950089058
  0.6140267421863952  0.3335330349818421  0.6282559386755883
  0.7592806953091805  0.4886310304684297  0.6060324576540141
  0.7380234138232910  0.1776411536786217  0.5615210582447770
  0.8832454868490498  0.3326667194605613  0.5393241941021844
  0.8938983290755997  0.4881286246865023  0.5615606512736038
  0.6692559758185720  0.0786636178382729  0.4838945554296891
  0.7938403210616827  0.6264825932330905  0.4796354094530575
  0.7039297245072624  0.5879487437111780  0.5568396368331650
  0.9244384715800921  0.5868893996282958  0.4839663016987595
  0.9115989680298526  0.4796353819000807  0.4165227842141939
  0.9069417079369136  0.3326790151285480  0.4476380649375844
  0.7639017444850044  0.1860222236644513  0.4165561417260486
  0.6746742805382467  0.5126952669916535  0.4161911746722601
  0.7464169909149264  0.4228244504514341  0.3776734758603640
  0.6563784492565904  0.2436548653713776  0.3776738253749258
  0.3386180517922320  0.8489687697768117  0.4492812201760333
  0.3503134609067775  0.8746678123913594  0.5391730796188750
  0.1909175533320923  0.6929182145588836  0.4328033525297253
  0.1121560389812621  0.6230007619797695  0.5126195388928675
  0.2058325916848172  0.7379398251934282  0.5803495789722012
  0.2362481591127679  0.5809006966555565  0.3910952521314280
  0.1923653993867641  0.4462536167949117  0.4510817942262846
  0.1130345680412232  0.4700196116472632  0.5239520999184484
  0.4174838969770953  0.6720574530982250  0.3900038401685070
  0.4854335742529565  0.5860897592355313  0.4377462346539460
  0.3409493269957292  0.4493562378222880  0.4788952044772244
  0.4839155254738262  0.8426175666913617  0.4187273945333668
  0.5782350177021964  0.8539996859495953  0.4941189288064333
  0.5791429682540628  0.7010299864556876  0.5054649496870218
  0.4989123817219345  0.8777836338278783  0.5669686902116498
  0.4550444516003992  0.7431507972071153  0.6269574521084035
  0.5003526509349139  0.6311035052899356  0.5852683401826052
  0.3526404101490234  0.4750472745913623  0.5687859097870249
  0.2073379056274796  0.4814068364875734  0.5993520575894566
  0.2738022265953994  0.6519799135531865  0.6280843165640659
 -0.0658551097086333  0.0088452574573776  0.6282362200546141
  0.0526143747483688  0.1739426907654403  0.5976125632371971
  0.0156357985462553 -0.0880507246376957  0.6282452256904457
  0.1840359607723933  0.0177041467674888  0.5975991339591968
  0.2130753595991536  0.1852849029893772  0.5812162537688945
 -0.0742923729454007 -0.2317533409910824  0.5731102361464894
  0.0420734993220544 -0.2031872469401239  0.5049506365131698
  0.2004409970931519 -0.0537066376528032  0.5211421612806063
 -0.2036834718755612 -0.2081170664682832  0.5351707889944534
 -0.1834363733988623 -0.1889711543933945  0.4448826549705108
 -0.0230118287560459 -0.1776781549020031  0.4284967227050543
 -0.2109360005866036 -0.0692448728735393  0.5731167919255133
 -0.1708393184178715  0.0499719332307798  0.5049607316727660
 -0.1544360204358355 -0.0214139721152268  0.4284903666938578
 -0.0125066866780648  0.1994271879944976  0.5211655161195635
  0.1038518110672216  0.2280031231541860  0.4530050159228357
  0.0139663665929804  0.0843184755904946  0.3978582447140429
  0.0954591179577468 -0.0125867231963267  0.3978717432023666
  0.2405608732457797  0.0655299353160304  0.4529921907097839
  0.2332975891196445  0.2044193623443543  0.4909260244160111
