C                                       
   1.00000000000000     
    12.7939259235699314    0.7377796485634311    0.0000000000000000
    -5.7987268141005268   11.7278956398216856    0.0000000000000000
     0.0000000000000000    0.0000000000000000   16.0000000000000000
  C             
   104
Direct
  0.1373529758084134  0.9821802385733208  0.5284840869666925
  0.0353495663491747  0.9299527951702454  0.5773146877025913
  0.1347182460644726  0.9369628115403553  0.4436739034856729
  0.9397568306904571  0.8573195851064483  0.5194097609972234
  0.0010469119299186  0.8818529550286980  0.4284809313600738
  0.1727814561233106  0.0431775900924875  0.3897483156111589
  0.0773485372613359  0.0378677310198139  0.3436016528547818
  0.9727865486002891  0.9486745900775130  0.3663488525648486
  0.2020996481461659  0.1501624473741786  0.4463965323834671
  0.1651399315221798  0.0939505055982860  0.5300387562546668
  0.0897597880791518  0.1164952533245082  0.5879528445063220
  0.1076251407946434  0.1898364791609114  0.4146475186032407
  0.0512870552020877  0.2426436917420274  0.4717743393754669
  0.0268565846852157  0.1735668789354724  0.5541920101215224
  0.0502765370223253  0.1368142596847437  0.3458705208522505
  0.8916107110843610  0.9951611411187065  0.6085003595424476
  0.0121917383989761  0.0080677929279124  0.6236320766110508
  0.9126249889694760  0.1003850999773390  0.5633209812383798
  0.8638727186667663  0.0846504465528923  0.4868898870649666
  0.9028778421727444  0.1770015655183192  0.4268211883190518
  0.9293955109613352  0.1084341393486241  0.3590079998385306
  0.8526881204692958  0.9058377364865291  0.5351964280054515
  0.8193426912479399  0.9647171578258716  0.4586923734330485
  0.8873796909723813  0.9902421837453242  0.3787984399929690
  0.6427205351545540  0.2746108172880238  0.6555139456558743
  0.7606033696435819  0.3436862604395069  0.6380297689338850
  0.6177336012157463  0.1539928289592097  0.6379024412422571
  0.7314965834281035  0.1615138519392686  0.5964956594647158
  0.8139941431593296  0.2797467075672664  0.6025425579137856
  0.5192747913984220  0.1156867984519890  0.5717670911494869
  0.5780186372743540  0.1018007942568456  0.4870613431866088
  0.7084712531756897  0.1313443980955223  0.5030048069618063
  0.4869831117528908  0.2256038705040250  0.5524729470384273
  0.5496441058911508  0.2547929594759529  0.4727735153342348
  0.5901058289576984  0.1909621768395806  0.4271159016149157
  0.5746167112040752  0.3128350271949357  0.6098878889254649
  0.6366507317754676  0.4232185219845008  0.5648202161070897
  0.6096180884903659  0.3747606517869733  0.4715982904502438
  0.7662926869521840  0.4419925381299445  0.5823333017524988
  0.7870567327100310  0.3929253920376978  0.5029332786769444
  0.7181280023874189  0.3734108111972440  0.4338009700169866
  0.7083525419010833  0.2649143431664217  0.4063364343730219
  0.7974642011155473  0.2247273337582379  0.4482149052357407
  0.8547720790537603  0.3244355959320349  0.5143756470502313
  0.1756034725954179  0.7315430214562126  0.4020555225439643
  0.1348169130894404  0.8126946094035955  0.4484018915113208
  0.0795188089372285  0.6542412096402177  0.3609245953177126
  0.9768905612379246  0.6700780668817334  0.3754994853942686
  0.0039028569939740  0.7682691051042985  0.4268370331991133
  0.0566155432247566  0.5413790774929086  0.3858323680147768
  0.9477073047286262  0.4907361211218016  0.4226089623696901
  0.8975618028006781  0.5765824119913733  0.4203803734770518
  0.1297785069078320  0.5425623234354069  0.4489493344773994
  0.0768396646050383  0.4820894825425776  0.5322054011973052
  0.9560368550741566  0.4227233315529529  0.4926572903158054
  0.2151530952473345  0.6567835487272131  0.4626346284032093
  0.1637853810158774  0.6780153721404768  0.5422385828736344
  0.0778778976248728  0.5819096499688812  0.5793060231732229
  0.1273496778886719  0.7654840989162702  0.5362094732981433
  0.0159816359780783  0.7204781755234687  0.5690622016471775
  0.9810386318935401  0.6085519234464194  0.5970583470195119
  0.8614365291049634  0.5514845589090054  0.5711474190071242
  0.8578582355338314  0.6125579268568347  0.4956981126122409
  0.9352114275441361  0.7351087818850144  0.5095958207438641
  0.1571575414600455  0.3534005086394070  0.4917865913953405
  0.2541258999175152  0.4234530007132576  0.4279881692143182
  0.1527196541609601  0.4285767362132276  0.5608873084901299
  0.3156836576042436  0.6307240460724922  0.4778736854617765
  0.3341216826803402  0.5402806132072990  0.4413863731608805
  0.2529516373221720  0.4440415763544234  0.6141411088187871
  0.3701279509881257  0.5235917538279484  0.6257620227728314
  0.4017610391856811  0.6435025990771861  0.6241123520464437
  0.2701365329313584  0.3410960360271881  0.6047487185447911
  0.3845994130803564  0.3530935117342056  0.6031616023101342
  0.4478847353358569  0.4673791132040568  0.6100807319530236
  0.2303778766910669  0.3014793147448032  0.5288087969945029
  0.2982337699937107  0.2617284034764899  0.4707479806460717
  0.4088427592181111  0.2920218965800041  0.5299087700741681
  0.3238328329345566  0.3621972029895746  0.4141462211630547
  0.4379911107390491  0.4350436502368438  0.4189789371805869
  0.5021553200621303  0.4018757341957856  0.4798177560253230
  0.5465549438671377  0.4960568483491449  0.5474360306099434
  0.5421168433895034  0.5986365866828678  0.4956437096213274
  0.4483101724827444  0.5427961574547461  0.4380640994107810
  0.5850927983059785  0.7088628552773341  0.5164738160797419
  0.5798982666864555  0.8133231006665749  0.4744516863313799
  0.3700431133258090  0.6872405993092248  0.5536356410522877
  0.4040489609798890  0.8033875900330448  0.5462758093108424
  0.4956779141529336  0.8555715062074009  0.4865009714409965
  0.4780590324760697  0.7274885842463851  0.6789751206173149
  0.4656060282188158  0.8308853465214806  0.6871730684947150
  0.4204750353180811  0.8709282343100231  0.6170579330149368
  0.6024373073054134  0.7633542052080243  0.6718927340346569
  0.6598767834443071  0.8791342605134299  0.7023565317074989
  0.5736541967012310  0.9194162426083397  0.7116038935200331
  0.6483537132753419  0.7556648744614026  0.5937401564091042
  0.7343789111970942  0.8641723032606794  0.5711150586164095
  0.7552541467825956  0.9493607275579525  0.6428201156736015
  0.6930272807133045  0.9087772225676307  0.4903917558908391
  0.6693832072396497  0.0043231750448244  0.5220428989586868
  0.7040871115333491  0.0344907299365515  0.6144592562293467
  0.5943870317421683  0.0223642776369278  0.6606330196120908
  0.4958612262997144  0.9881581640686602  0.5951691644111152
  0.5462337057235076  0.9768779091873782  0.5084475618691983
 
  0.00000000E+00  0.00000000E+00  0.00000000E+00
  0.00000000E+00  0.00000000E+00  0.00000000E+00
  0.00000000E+00  0.00000000E+00  0.00000000E+00
  0.00000000E+00  0.00000000E+00  0.00000000E+00
  0.00000000E+00  0.00000000E+00  0.00000000E+00
  0.00000000E+00  0.00000000E+00  0.00000000E+00
  0.00000000E+00  0.00000000E+00  0.00000000E+00
  0.00000000E+00  0.00000000E+00  0.00000000E+00
  0.00000000E+00  0.00000000E+00  0.00000000E+00
  0.00000000E+00  0.00000000E+00  0.00000000E+00
  0.00000000E+00  0.00000000E+00  0.00000000E+00
  0.00000000E+00  0.00000000E+00  0.00000000E+00
  0.00000000E+00  0.00000000E+00  0.00000000E+00
  0.00000000E+00  0.00000000E+00  0.00000000E+00
  0.00000000E+00  0.00000000E+00  0.00000000E+00
  0.00000000E+00  0.00000000E+00  0.00000000E+00
  0.00000000E+00  0.00000000E+00  0.00000000E+00
  0.00000000E+00  0.00000000E+00  0.00000000E+00
  0.00000000E+00  0.00000000E+00  0.00000000E+00
  0.00000000E+00  0.00000000E+00  0.00000000E+00
  0.00000000E+00  0.00000000E+00  0.00000000E+00
  0.00000000E+00  0.00000000E+00  0.00000000E+00
  0.00000000E+00  0.00000000E+00  0.00000000E+00
  0.00000000E+00  0.00000000E+00  0.00000000E+00
  0.00000000E+00  0.00000000E+00  0.00000000E+00
  0.00000000E+00  0.00000000E+00  0.00000000E+00
  0.00000000E+00  0.00000000E+00  0.00000000E+00
  0.00000000E+00  0.00000000E+00  0.00000000E+00
  0.00000000E+00  0.00000000E+00  0.00000000E+00
  0.00000000E+00  0.00000000E+00  0.00000000E+00
  0.00000000E+00  0.00000000E+00  0.00000000E+00
  0.00000000E+00  0.00000000E+00  0.00000000E+00
  0.00000000E+00  0.00000000E+00  0.00000000E+00
  0.00000000E+00  0.00000000E+00  0.00000000E+00
  0.00000000E+00  0.00000000E+00  0.00000000E+00
  0.00000000E+00  0.00000000E+00  0.00000000E+00
  0.00000000E+00  0.00000000E+00  0.00000000E+00
  0.00000000E+00  0.00000000E+00  0.00000000E+00
  0.00000000E+00  0.00000000E+00  0.00000000E+00
  0.00000000E+00  0.00000000E+00  0.00000000E+00
  0.00000000E+00  0.00000000E+00  0.00000000E+00
  0.00000000E+00  0.00000000E+00  0.00000000E+00
  0.00000000E+00  0.00000000E+00  0.00000000E+00
  0.00000000E+00  0.00000000E+00  0.00000000E+00
  0.00000000E+00  0.00000000E+00  0.00000000E+00
  0.00000000E+00  0.00000000E+00  0.00000000E+00
  0.00000000E+00  0.00000000E+00  0.00000000E+00
  0.00000000E+00  0.00000000E+00  0.00000000E+00
  0.00000000E+00  0.00000000E+00  0.00000000E+00
  0.00000000E+00  0.00000000E+00  0.00000000E+00
  0.00000000E+00  0.00000000E+00  0.00000000E+00
  0.00000000E+00  0.00000000E+00  0.00000000E+00
  0.00000000E+00  0.00000000E+00  0.00000000E+00
  0.00000000E+00  0.00000000E+00  0.00000000E+00
  0.00000000E+00  0.00000000E+00  0.00000000E+00
  0.00000000E+00  0.00000000E+00  0.00000000E+00
  0.00000000E+00  0.00000000E+00  0.00000000E+00
  0.00000000E+00  0.00000000E+00  0.00000000E+00
  0.00000000E+00  0.00000000E+00  0.00000000E+00
  0.00000000E+00  0.00000000E+00  0.00000000E+00
  0.00000000E+00  0.00000000E+00  0.00000000E+00
  0.00000000E+00  0.00000000E+00  0.00000000E+00
  0.00000000E+00  0.00000000E+00  0.00000000E+00
  0.00000000E+00  0.00000000E+00  0.00000000E+00
  0.00000000E+00  0.00000000E+00  0.00000000E+00
  0.00000000E+00  0.00000000E+00  0.00000000E+00
  0.00000000E+00  0.00000000E+00  0.00000000E+00
  0.00000000E+00  0.00000000E+00  0.00000000E+00
  0.00000000E+00  0.00000000E+00  0.00000000E+00
  0.00000000E+00  0.00000000E+00  0.00000000E+00
  0.00000000E+00  0.00000000E+00  0.00000000E+00
  0.00000000E+00  0.00000000E+00  0.00000000E+00
  0.00000000E+00  0.00000000E+00  0.00000000E+00
  0.00000000E+00  0.00000000E+00  0.00000000E+00
  0.00000000E+00  0.00000000E+00  0.00000000E+00
  0.00000000E+00  0.00000000E+00  0.00000000E+00
  0.00000000E+00  0.00000000E+00  0.00000000E+00
  0.00000000E+00  0.00000000E+00  0.00000000E+00
  0.00000000E+00  0.00000000E+00  0.00000000E+00
  0.00000000E+00  0.00000000E+00  0.00000000E+00
  0.00000000E+00  0.00000000E+00  0.00000000E+00
  0.00000000E+00  0.00000000E+00  0.00000000E+00
  0.00000000E+00  0.00000000E+00  0.00000000E+00
  0.00000000E+00  0.00000000E+00  0.00000000E+00
  0.00000000E+00  0.00000000E+00  0.00000000E+00
  0.00000000E+00  0.00000000E+00  0.00000000E+00
  0.00000000E+00  0.00000000E+00  0.00000000E+00
  0.00000000E+00  0.00000000E+00  0.00000000E+00
  0.00000000E+00  0.00000000E+00  0.00000000E+00
  0.00000000E+00  0.00000000E+00  0.00000000E+00
  0.00000000E+00  0.00000000E+00  0.00000000E+00
  0.00000000E+00  0.00000000E+00  0.00000000E+00
  0.00000000E+00  0.00000000E+00  0.00000000E+00
  0.00000000E+00  0.00000000E+00  0.00000000E+00
  0.00000000E+00  0.00000000E+00  0.00000000E+00
  0.00000000E+00  0.00000000E+00  0.00000000E+00
  0.00000000E+00  0.00000000E+00  0.00000000E+00
  0.00000000E+00  0.00000000E+00  0.00000000E+00
  0.00000000E+00  0.00000000E+00  0.00000000E+00
  0.00000000E+00  0.00000000E+00  0.00000000E+00
  0.00000000E+00  0.00000000E+00  0.00000000E+00
  0.00000000E+00  0.00000000E+00  0.00000000E+00
  0.00000000E+00  0.00000000E+00  0.00000000E+00
  0.00000000E+00  0.00000000E+00  0.00000000E+00
