C 
 1.0000000000000000
     8.7163105330779231    0.0000000000000000    0.0000000000000000
    -4.3581552665389660    7.5485463489193627    0.0000000000000000
     0.0000000000000000    0.0000000000000000   16.0000000000000000
 C  
  44
Direct
  0.8800151800340843  0.5973202326002103  0.4290846833999779
  0.9731998966208402  0.5510361759530451  0.4884996643895321
  0.7975197092255528  0.4626238421492272  0.3665694556907727
  0.9171984563197683  0.3626431565353825  0.4720287966469537
  0.8097913241213525  0.3085590627517094  0.3976819727216042
  0.6122612683554264  0.4035343991606345  0.3610053323742035
  0.5089345336196014  0.2150144896232216  0.3705979312808230
  0.6335619687256862  0.1573279631706775  0.3999970199874582
  0.5700535385378420  0.4798572189760301  0.4344107911961673
  0.7338455456369113  0.5983879149284570  0.4760363798701071
  0.7562895542160867  0.5737470238758698  0.5632715900837438
  0.4285216887626138  0.3365865008649786  0.4800051563740449
  0.4509205598052401  0.3119719350168526  0.5672107832302309
  0.6147413492451507  0.4304880140537147  0.6088443533680095
  0.3801896983307666  0.1687053618008318  0.4355911065477130
  0.8605525882541355  0.3923249534158380  0.6138608626522761
  0.9170958453027364  0.5572442726694535  0.5719033882826557
  0.6849698163110715  0.3224064381539524  0.6464950221525541
  0.5719489460407008  0.1448222036899105  0.6179214770074566
  0.4171727557604233  0.1287052394462471  0.5783895476036811
  0.3961547935199380  0.0562865945730334  0.4959856623250305
  0.8483350938606294  0.2655853015021415  0.5487168360978224
  0.6720502689859892  0.1144586733293763  0.5510913379975345
  0.5646836204074561  0.0603550317592074  0.4767133699905295
 -0.1957775263034340 -0.1252077795377826  0.6111930042189142
 -0.0199222677572502 -0.0747162249669476  0.6419885793931966
 -0.2268319268606961 -0.2315770958992259  0.5378204863502257
 -0.0699479971674283 -0.2461984144045410  0.5236592502512700
  0.0593837032017761 -0.1551689624575751  0.5902291114678755
 -0.2571896198551863 -0.1454373522120972  0.4663548090172194
 -0.1062895922811854 -0.0976699235930625  0.4110302329100179
  0.0047981261415325 -0.1631743123294954  0.4450249395859777
 -0.2279853506798550  0.0230558796379630  0.4990479715480315
 -0.0797440171325347  0.1721835930078879  0.4575538681559891
 -0.0004926215253176  0.0917144762863289  0.4057861865988397
 -0.2051297200535530  0.0329021897884149  0.5894131086257033
 -0.0252035650338194  0.1801844609142093  0.6027472976071866
  0.0495758166287342  0.2632450667555763  0.5241192858369393
  0.0858396423125741  0.1146695805921645  0.6367466436141694
  0.2367444046099549  0.1624487052409162  0.5814287957884267
  0.2064272152911240  0.2485871409349203  0.5099531133907339
  0.1753615395651898  0.1422042476782794  0.4365776611836285
  0.1847339286448592 -0.0159090372162747  0.4583648928884341
  0.2076138793874416 -0.0060257187015938  0.5487358901609889
