Generated by VASPKIT code               
   1.00000000000000     
    10.1680951271574589   -0.1077327989701174    0.0000000000000000
    -5.1937609328620296    8.3778867714222578    0.0000000000000000
     0.0000000000000013    0.0000000000000021   19.7153525052897542
   C 
    64
Direct
  0.8464947226836159  0.8889309560457619  0.6120538386837211
  0.7802262496086882  0.7328663740998493  0.5714044460145331
  0.0111433745337663  0.9644990996649199  0.6301749774276288
  0.9380954877763159  0.7467541336184027  0.5522820254376342
  0.0643104265027148  0.8919386233642967  0.5870864561646485
  0.1050136333733178  0.1386474668715536  0.6131390944338477
  0.2536671234170811  0.1868041794612125  0.5714133805564501
  0.1831896697514352  0.0149107162166189  0.5453722011188518
  0.0011923669072971  0.1528159290487849  0.5718869710780652
  0.8499755285947401  0.0065123521400352  0.5709788842208994
  0.7596646768208473  0.9371703813888033  0.5065082810312731
  0.0733510415186913  0.2468541221688199  0.5084403185374882
  0.0056757605275735  0.1505025279907457  0.4424848679947644
  0.8556897566513584  0.0038489384961409  0.4423327770421110
  0.2381575738494774  0.2701960042307547  0.5051997795610319
  0.7972241371892608  0.7303099297743927  0.4452827428229753
  0.7226654645207091  0.7634915653196970  0.5042066605535709
  0.8601370773567325  0.8837933988445457  0.4043474101536404
  0.0228086837986652  0.9570648489621405  0.3883753157391681
  0.1117260203410453  0.1298215390622559  0.4038677547408369
  0.2560515091954798  0.1763334980245688  0.4461448878064047
  0.9457559517379650  0.7432708227366476  0.4718233806267946
  0.0737549335478249  0.8854681814989007  0.4349835283338308
  0.1881640787365555  0.0118766444896821  0.4764368857217391
  0.1498376374328245  0.6742072467550599  0.4691068215418781
  0.5965522905167759  0.3670805096112844  0.6122379761572816
  0.1982926675947425  0.7135014615010533  0.5373671097237889
  0.6952172581020051  0.5378980883003521  0.5752338450560259
  0.0846125070407666  0.5010464693981049  0.4475998051527341
  0.6913660984586798  0.3055765618415904  0.6116279195542589
  0.1439922659773742  0.4382337970438002  0.5069159722365697
  0.8456279593039469  0.4149539797189021  0.5802645908156734
  0.2122288307145368  0.5834403617197594  0.5575370986024879
  0.8543826760526372  0.5607279302626864  0.5550798571377200
  0.2174745926769575  0.5457278904643985  0.3946723076328027
  0.6158295423927456  0.1523395279855819  0.5759325004025229
  0.3301403719765901  0.5176507219353752  0.4187272274847231
  0.7106802603119320  0.1767408434155868  0.5205874421186110
  0.2995687841880184  0.4467364013457242  0.4891608786427710
  0.8466009244929964  0.3329015345682294  0.5229897542824347
  0.3082483503189763  0.7197026150546861  0.3792724835273305
  0.4533723425363547  0.0894377698009023  0.5532140267471704
  0.4735027869841701  0.7926356613506513  0.3894993108762748
  0.4681806532055219  0.1028970842138150  0.4718377758210366
  0.4838290036665143  0.6647176386471187  0.4162065207344057
  0.6300217183317400  0.1313941572459072  0.4527524543287882
  0.2545533885635223  0.7937975726356541  0.4226493210563689
  0.4345899171476262  0.2403753452911559  0.5757426991291368
  0.3856814411137890  0.9242777045168324  0.4618550655956710
  0.4923356158199894  0.3276019236104091  0.5094432488524632
  0.5358241108347528  0.9328913710123601  0.4410609741823137
  0.4533461520209414  0.2402887808386964  0.4444800895828251
  0.3566891457099644  0.8803144269796874  0.5405236571201968
  0.6138114399681598  0.4772027709821884  0.5095245718634729
  0.4650092138874697  0.8284495221855082  0.5577971284856531
  0.7095654017695878  0.5294806526883704  0.4463138924050583
  0.5819965627633508  0.8708668267193147  0.5024730092298597
  0.6279564160235296  0.3605492368077989  0.4122701059020386
  0.5546602559858940  0.6984558336555295  0.4855368823267625
  0.7216192236395713  0.2986349628711125  0.4183798624779627
  0.4276091105453617  0.5792868937966986  0.5285552202952601
  0.8893623348148267  0.4197221559400361  0.4549576116746579
  0.3773239921383507  0.6564156581740761  0.5694328835387310
  0.8643715060353685  0.5571578755944273  0.4748984768190709
 
  0.00000000E+00  0.00000000E+00  0.00000000E+00
  0.00000000E+00  0.00000000E+00  0.00000000E+00
  0.00000000E+00  0.00000000E+00  0.00000000E+00
  0.00000000E+00  0.00000000E+00  0.00000000E+00
  0.00000000E+00  0.00000000E+00  0.00000000E+00
  0.00000000E+00  0.00000000E+00  0.00000000E+00
  0.00000000E+00  0.00000000E+00  0.00000000E+00
  0.00000000E+00  0.00000000E+00  0.00000000E+00
  0.00000000E+00  0.00000000E+00  0.00000000E+00
  0.00000000E+00  0.00000000E+00  0.00000000E+00
  0.00000000E+00  0.00000000E+00  0.00000000E+00
  0.00000000E+00  0.00000000E+00  0.00000000E+00
  0.00000000E+00  0.00000000E+00  0.00000000E+00
  0.00000000E+00  0.00000000E+00  0.00000000E+00
  0.00000000E+00  0.00000000E+00  0.00000000E+00
  0.00000000E+00  0.00000000E+00  0.00000000E+00
  0.00000000E+00  0.00000000E+00  0.00000000E+00
  0.00000000E+00  0.00000000E+00  0.00000000E+00
  0.00000000E+00  0.00000000E+00  0.00000000E+00
  0.00000000E+00  0.00000000E+00  0.00000000E+00
  0.00000000E+00  0.00000000E+00  0.00000000E+00
  0.00000000E+00  0.00000000E+00  0.00000000E+00
  0.00000000E+00  0.00000000E+00  0.00000000E+00
  0.00000000E+00  0.00000000E+00  0.00000000E+00
  0.00000000E+00  0.00000000E+00  0.00000000E+00
  0.00000000E+00  0.00000000E+00  0.00000000E+00
  0.00000000E+00  0.00000000E+00  0.00000000E+00
  0.00000000E+00  0.00000000E+00  0.00000000E+00
  0.00000000E+00  0.00000000E+00  0.00000000E+00
  0.00000000E+00  0.00000000E+00  0.00000000E+00
  0.00000000E+00  0.00000000E+00  0.00000000E+00
  0.00000000E+00  0.00000000E+00  0.00000000E+00
  0.00000000E+00  0.00000000E+00  0.00000000E+00
  0.00000000E+00  0.00000000E+00  0.00000000E+00
  0.00000000E+00  0.00000000E+00  0.00000000E+00
  0.00000000E+00  0.00000000E+00  0.00000000E+00
  0.00000000E+00  0.00000000E+00  0.00000000E+00
  0.00000000E+00  0.00000000E+00  0.00000000E+00
  0.00000000E+00  0.00000000E+00  0.00000000E+00
  0.00000000E+00  0.00000000E+00  0.00000000E+00
  0.00000000E+00  0.00000000E+00  0.00000000E+00
  0.00000000E+00  0.00000000E+00  0.00000000E+00
  0.00000000E+00  0.00000000E+00  0.00000000E+00
  0.00000000E+00  0.00000000E+00  0.00000000E+00
  0.00000000E+00  0.00000000E+00  0.00000000E+00
  0.00000000E+00  0.00000000E+00  0.00000000E+00
  0.00000000E+00  0.00000000E+00  0.00000000E+00
  0.00000000E+00  0.00000000E+00  0.00000000E+00
  0.00000000E+00  0.00000000E+00  0.00000000E+00
  0.00000000E+00  0.00000000E+00  0.00000000E+00
  0.00000000E+00  0.00000000E+00  0.00000000E+00
  0.00000000E+00  0.00000000E+00  0.00000000E+00
  0.00000000E+00  0.00000000E+00  0.00000000E+00
  0.00000000E+00  0.00000000E+00  0.00000000E+00
  0.00000000E+00  0.00000000E+00  0.00000000E+00
  0.00000000E+00  0.00000000E+00  0.00000000E+00
  0.00000000E+00  0.00000000E+00  0.00000000E+00
  0.00000000E+00  0.00000000E+00  0.00000000E+00
  0.00000000E+00  0.00000000E+00  0.00000000E+00
  0.00000000E+00  0.00000000E+00  0.00000000E+00
  0.00000000E+00  0.00000000E+00  0.00000000E+00
  0.00000000E+00  0.00000000E+00  0.00000000E+00
  0.00000000E+00  0.00000000E+00  0.00000000E+00
  0.00000000E+00  0.00000000E+00  0.00000000E+00
