Generated by VASPKIT code               
   1.00000000000000     
     8.8259543855716203    0.0015213356144695    0.0000000000000000
     0.0164626602364011    7.2389319635738918    0.0000000000000000
     0.0000000000000014    0.0000000000000012   19.7162603615712939
   C 
    44
Direct
  0.0124440140526261  0.3266607251977334  0.5086003282457412
  0.1325239484886751  0.2798840755645315  0.5636481537342917
  0.0650943575921588  0.2552666268167130  0.4485576935188007
  0.2055540207196316  0.1074110304538607  0.5304423194602776
  0.2109785847310093  0.1443649080779608  0.4547066014879348
  0.9580297897931516  0.1529877209870349  0.4117695417297753
  0.0179155168481486  0.9736125757503871  0.3931281742132740
  0.1561662586367447  0.9484098619356871  0.4262256549373546
  0.8359782159481952  0.1239323879075442  0.4580630783804054
  0.8471140861155533  0.2506080647074853  0.5209454566785396
  0.8802224158083334  0.1395461394835849  0.5837636032417137
  0.8101214727543464  0.9396501662059222  0.4615645820871563
  0.7848785680137667  0.8382045670491891  0.5266859438295199
  0.8371602012076025  0.9529822405706483  0.5889465211039067
  0.9094245187933367  0.8361475672013086  0.4162276589741438
  0.0888450536446896  0.9978683240095023  0.6281205342808462
  0.0285519856294911  0.1748077462285593  0.6141798059661454
  0.9690517196573651  0.8648075217407154  0.6199985895063236
  0.0162109784602080  0.7304742314276922  0.5732668981834976
  0.9169791642821110  0.7007763083121574  0.5210602814225922
  0.9881268108012904  0.7104954512729549  0.4577209061538525
  0.1937563520591112  0.9537804258787617  0.5708553576875630
  0.1735791151430988  0.7518431567918569  0.5479721962001491
  0.1568514812847752  0.7462163265647845  0.4615453621833154
  0.3313750338335666  0.2655217389542130  0.4285465994989437
  0.2712867539792327  0.4101830304154248  0.5728230713550033
  0.4845100031347158  0.2396222352744672  0.4489608833261727
  0.5332870410747788  0.2631903237639719  0.5183550048411476
  0.4371056367214905  0.3512495137413367  0.5691985971352906
  0.5810267162303191  0.3528942932215386  0.4059498817304146
  0.6933430856282925  0.4393250310866037  0.4453079418847210
  0.7009746202028566  0.3627494624664891  0.5158054566044186
  0.4842092338327291  0.4922165517798405  0.3776108286722035
  0.5413638945912993  0.6656904663800134  0.4010733304427774
  0.6697024654906087  0.6284969377069345  0.4431116667716495
  0.3297871465191307  0.4603891351056575  0.4022878888892549
  0.2828836457127082  0.6386838483139670  0.4313714277681413
  0.4257019944147657  0.7341875247576510  0.4452529470111273
  0.2768721570610637  0.6059838610561457  0.5709894498425570
  0.4275562424773511  0.6677884597079711  0.5698782719310245
  0.4880610386701534  0.7606681682400378  0.5126989303012834
  0.6561748271301298  0.7115584909587440  0.5131057007252053
  0.6642118031931119  0.5336268602239613  0.5547169075973386
  0.5250080296362682  0.5152359167084555  0.5856604125204896
 
  0.00000000E+00  0.00000000E+00  0.00000000E+00
  0.00000000E+00  0.00000000E+00  0.00000000E+00
  0.00000000E+00  0.00000000E+00  0.00000000E+00
  0.00000000E+00  0.00000000E+00  0.00000000E+00
  0.00000000E+00  0.00000000E+00  0.00000000E+00
  0.00000000E+00  0.00000000E+00  0.00000000E+00
  0.00000000E+00  0.00000000E+00  0.00000000E+00
  0.00000000E+00  0.00000000E+00  0.00000000E+00
  0.00000000E+00  0.00000000E+00  0.00000000E+00
  0.00000000E+00  0.00000000E+00  0.00000000E+00
  0.00000000E+00  0.00000000E+00  0.00000000E+00
  0.00000000E+00  0.00000000E+00  0.00000000E+00
  0.00000000E+00  0.00000000E+00  0.00000000E+00
  0.00000000E+00  0.00000000E+00  0.00000000E+00
  0.00000000E+00  0.00000000E+00  0.00000000E+00
  0.00000000E+00  0.00000000E+00  0.00000000E+00
  0.00000000E+00  0.00000000E+00  0.00000000E+00
  0.00000000E+00  0.00000000E+00  0.00000000E+00
  0.00000000E+00  0.00000000E+00  0.00000000E+00
  0.00000000E+00  0.00000000E+00  0.00000000E+00
  0.00000000E+00  0.00000000E+00  0.00000000E+00
  0.00000000E+00  0.00000000E+00  0.00000000E+00
  0.00000000E+00  0.00000000E+00  0.00000000E+00
  0.00000000E+00  0.00000000E+00  0.00000000E+00
  0.00000000E+00  0.00000000E+00  0.00000000E+00
  0.00000000E+00  0.00000000E+00  0.00000000E+00
  0.00000000E+00  0.00000000E+00  0.00000000E+00
  0.00000000E+00  0.00000000E+00  0.00000000E+00
  0.00000000E+00  0.00000000E+00  0.00000000E+00
  0.00000000E+00  0.00000000E+00  0.00000000E+00
  0.00000000E+00  0.00000000E+00  0.00000000E+00
  0.00000000E+00  0.00000000E+00  0.00000000E+00
  0.00000000E+00  0.00000000E+00  0.00000000E+00
  0.00000000E+00  0.00000000E+00  0.00000000E+00
  0.00000000E+00  0.00000000E+00  0.00000000E+00
  0.00000000E+00  0.00000000E+00  0.00000000E+00
  0.00000000E+00  0.00000000E+00  0.00000000E+00
  0.00000000E+00  0.00000000E+00  0.00000000E+00
  0.00000000E+00  0.00000000E+00  0.00000000E+00
  0.00000000E+00  0.00000000E+00  0.00000000E+00
  0.00000000E+00  0.00000000E+00  0.00000000E+00
  0.00000000E+00  0.00000000E+00  0.00000000E+00
  0.00000000E+00  0.00000000E+00  0.00000000E+00
  0.00000000E+00  0.00000000E+00  0.00000000E+00
