C                                       
   1.00000000000000     
    10.0595191785987730    0.3287159091683090    0.0000000000000000
     0.3556018935198609   10.1044840850877247    0.0000000000000000
     0.0000000000000000    0.0000000000000000   16.0000000000000000
   C 
    68
Direct
  0.2632296384699278  0.4442914675228948  0.6543207884394443
  0.2368081920898887  0.5832336095470119  0.6318106369894555
  0.1533330854474004  0.3629151986396618  0.6443511417358724
  0.1021484757538483  0.5933361356875241  0.5829300416008159
  0.0832983776668008  0.4498643066086960  0.5848676051571461
  0.1904706638745667  0.2419820159550785  0.5982522292555581
  0.1037743601851155  0.2334633623179769  0.5189175916931774
  0.0783902527739014  0.3843591320139627  0.5104838407918771
  0.3218199730838641  0.2618389237336268  0.5679526441341284
  0.3710330430618545  0.3824061783182803  0.6041844685113121
  0.4215240158131760  0.4830037476784907  0.5549667418087343
  0.3209661035221580  0.2487892070081736  0.4780679554076145
  0.3936580881769601  0.3386064160001755  0.4218486955712183
  0.4451980499784821  0.4703526760868728  0.4610994417598616
  0.1987200898943640  0.2205499907489837  0.4458864411542958
  0.2901989963982236  0.6563726746837029  0.4952227536647381
  0.3372474134904684  0.6067452675203883  0.5729631189330610
  0.3485409542323272  0.5821302454871742  0.4279124152621460
  0.2554179888294652  0.5375539759584842  0.3709940324673696
  0.2815660543569748  0.3959561514718971  0.3641223100406620
  0.1684964137642168  0.3269367222476948  0.3847517631100594
  0.1427129958601016  0.6530856664563909  0.4925543865962990
  0.1109718830755535  0.5712909165907264  0.4109150879927271
  0.0916145235010231  0.4299889161184833  0.4298414701555544
  0.7467751516665320  0.7307025155813475  0.6413047967763873
  0.6442179734629235  0.8315107717608861  0.6223968053841916
  0.8799891279243424  0.7673878525109167  0.6167529242854852
  0.7172631184320478  0.9289876871357272  0.5676157773579309
  0.8499613569884513  0.8649082331823098  0.5602189662433511
  0.9632001936961443  0.6659493815134429  0.5707238681827402
  0.0084232217373422  0.7402795679827953  0.4882316008102618
  0.9274305133357673  0.8915371557404307  0.4855268981032865
  0.8483750490614000  0.5664866172136880  0.5438377879437938
  0.7289527688357474  0.6266744077534149  0.5846403114515850
  0.6077026143560362  0.6413848347626365  0.5412493101830853
  0.8578315054941218  0.5636631279841530  0.4448469114106523
  0.7257432558392163  0.5859393244136081  0.3951728716928930
  0.6117787662040692  0.6398856282041793  0.4512405106209721
  0.9607539871679014  0.6614527470136455  0.4112953169552422
  0.5248586513474119  0.8432817975247713  0.4930448970113901
  0.5489185492108296  0.7732509511507794  0.5679228984871538
  0.5493094256377044  0.7582890277362515  0.4198367627740656
  0.6375242583675284  0.8064004757311160  0.3587071045993346
  0.7471203901570220  0.7105317931715978  0.3454136035723580
  0.8728459954274973  0.7578034851306543  0.3587320741903579
  0.6291546253733720  0.9378319255407063  0.4883509585710060
  0.6948782338830428  0.9229049688936692  0.3972287727656561
  0.8499986023661863  0.8980807163050539  0.3959423393405876
  0.6584853532279146  0.3985704741202230  0.5329941018644800
  0.8092751850340772  0.4102946414140599  0.5373002899172070
  0.6336702059140789  0.2726526140241792  0.5616155448521176
  0.7579421580252172  0.2004002529932393  0.5865005643744576
  0.8623468313694149  0.2737947656328064  0.5675714383252514
  0.5652972082926428  0.2023697353289085  0.5018755544023541
  0.6443538643075237  0.0834944403388241  0.4833806973859789
  0.7632053510104368  0.0726233136778705  0.5438926500670274
  0.5385634699247829  0.2784554891826506  0.4217363612618696
  0.6311577746271185  0.2083189841853028  0.3582076694571166
  0.6914435215158794  0.0769785905800973  0.3924549945791828
  0.5948154545528843  0.4108339181189896  0.4462377843996019
  0.7147086588334052  0.4262211502583012  0.3880764961421769
  0.7323965724984052  0.2886072020991905  0.3408766028640791
  0.8425218559575479  0.4102482014652262  0.4425294676468011
  0.9137475027345278  0.2789590796129744  0.4267039501904226
  0.8614256592360248  0.2112641093031193  0.3632293267066272
  0.8450662432582574  0.0704838006079566  0.3940534500204423
  0.8966678888267249  0.0604384394369985  0.4877654867393144
  0.9595832524131136  0.1990095839499560  0.5062615857846890
 
  0.00000000E+00  0.00000000E+00  0.00000000E+00
  0.00000000E+00  0.00000000E+00  0.00000000E+00
  0.00000000E+00  0.00000000E+00  0.00000000E+00
  0.00000000E+00  0.00000000E+00  0.00000000E+00
  0.00000000E+00  0.00000000E+00  0.00000000E+00
  0.00000000E+00  0.00000000E+00  0.00000000E+00
  0.00000000E+00  0.00000000E+00  0.00000000E+00
  0.00000000E+00  0.00000000E+00  0.00000000E+00
  0.00000000E+00  0.00000000E+00  0.00000000E+00
  0.00000000E+00  0.00000000E+00  0.00000000E+00
  0.00000000E+00  0.00000000E+00  0.00000000E+00
  0.00000000E+00  0.00000000E+00  0.00000000E+00
  0.00000000E+00  0.00000000E+00  0.00000000E+00
  0.00000000E+00  0.00000000E+00  0.00000000E+00
  0.00000000E+00  0.00000000E+00  0.00000000E+00
  0.00000000E+00  0.00000000E+00  0.00000000E+00
  0.00000000E+00  0.00000000E+00  0.00000000E+00
  0.00000000E+00  0.00000000E+00  0.00000000E+00
  0.00000000E+00  0.00000000E+00  0.00000000E+00
  0.00000000E+00  0.00000000E+00  0.00000000E+00
  0.00000000E+00  0.00000000E+00  0.00000000E+00
  0.00000000E+00  0.00000000E+00  0.00000000E+00
  0.00000000E+00  0.00000000E+00  0.00000000E+00
  0.00000000E+00  0.00000000E+00  0.00000000E+00
  0.00000000E+00  0.00000000E+00  0.00000000E+00
  0.00000000E+00  0.00000000E+00  0.00000000E+00
  0.00000000E+00  0.00000000E+00  0.00000000E+00
  0.00000000E+00  0.00000000E+00  0.00000000E+00
  0.00000000E+00  0.00000000E+00  0.00000000E+00
  0.00000000E+00  0.00000000E+00  0.00000000E+00
  0.00000000E+00  0.00000000E+00  0.00000000E+00
  0.00000000E+00  0.00000000E+00  0.00000000E+00
  0.00000000E+00  0.00000000E+00  0.00000000E+00
  0.00000000E+00  0.00000000E+00  0.00000000E+00
  0.00000000E+00  0.00000000E+00  0.00000000E+00
  0.00000000E+00  0.00000000E+00  0.00000000E+00
  0.00000000E+00  0.00000000E+00  0.00000000E+00
  0.00000000E+00  0.00000000E+00  0.00000000E+00
  0.00000000E+00  0.00000000E+00  0.00000000E+00
  0.00000000E+00  0.00000000E+00  0.00000000E+00
  0.00000000E+00  0.00000000E+00  0.00000000E+00
  0.00000000E+00  0.00000000E+00  0.00000000E+00
  0.00000000E+00  0.00000000E+00  0.00000000E+00
  0.00000000E+00  0.00000000E+00  0.00000000E+00
  0.00000000E+00  0.00000000E+00  0.00000000E+00
  0.00000000E+00  0.00000000E+00  0.00000000E+00
  0.00000000E+00  0.00000000E+00  0.00000000E+00
  0.00000000E+00  0.00000000E+00  0.00000000E+00
  0.00000000E+00  0.00000000E+00  0.00000000E+00
  0.00000000E+00  0.00000000E+00  0.00000000E+00
  0.00000000E+00  0.00000000E+00  0.00000000E+00
  0.00000000E+00  0.00000000E+00  0.00000000E+00
  0.00000000E+00  0.00000000E+00  0.00000000E+00
  0.00000000E+00  0.00000000E+00  0.00000000E+00
  0.00000000E+00  0.00000000E+00  0.00000000E+00
  0.00000000E+00  0.00000000E+00  0.00000000E+00
  0.00000000E+00  0.00000000E+00  0.00000000E+00
  0.00000000E+00  0.00000000E+00  0.00000000E+00
  0.00000000E+00  0.00000000E+00  0.00000000E+00
  0.00000000E+00  0.00000000E+00  0.00000000E+00
  0.00000000E+00  0.00000000E+00  0.00000000E+00
  0.00000000E+00  0.00000000E+00  0.00000000E+00
  0.00000000E+00  0.00000000E+00  0.00000000E+00
  0.00000000E+00  0.00000000E+00  0.00000000E+00
  0.00000000E+00  0.00000000E+00  0.00000000E+00
  0.00000000E+00  0.00000000E+00  0.00000000E+00
  0.00000000E+00  0.00000000E+00  0.00000000E+00
  0.00000000E+00  0.00000000E+00  0.00000000E+00
