Generated by VASPKIT code               
   1.00000000000000     
     9.8380754455558392    0.0608269259784015    0.0000000000000000
     0.0583229541257679   10.1225754019824379    0.0000000000000000
     0.0000000000000013    0.0000000000000013   19.7109622032732972
   C 
    68
Direct
  0.5536097493681211  0.9559191575943373  0.6175472969894571
  0.0341855792853138  0.5631084312283718  0.6105174899620565
  0.6687681886741714  0.0170111466739939  0.5823408927858225
  0.9548431280762415  0.6583945965480211  0.5785179044535340
  0.4464010573568089  0.0441588437611671  0.6175559269061281
  0.9657358006316059  0.4367773604058129  0.6104932987979552
  0.6313256783938215  0.1361045302308099  0.5519955625492301
  0.8243262383594825  0.6017467442077091  0.5513176109427036
  0.4843329297412566  0.1747485789068719  0.5775473545277308
  0.8302511675299442  0.4460969359128484  0.5713068246745294
  0.3312612227395348  0.9830506474048519  0.5823331819473552
  0.0450879951020369  0.3415145583989982  0.5785020653316053
  0.2860882799842912  0.0713136130644259  0.5274433985346292
  0.9742779362055742  0.2850155696707048  0.5202821324530404
  0.3896553580087669  0.1556859792907161  0.5166794268327024
  0.8606654391330295  0.3619648160805582  0.5103530142539938
  0.3686927437197411  0.8639675263399411  0.5519844597573211
  0.1756395268556190  0.3981670342913617  0.5513491352669462
  0.5156904116787118  0.8253032764900254  0.5775421760777135
  0.1697019307317831  0.5538216373217537  0.5713549379970431
  0.6103633321855995  0.8443587598297171  0.5166744260008187
  0.1393060290188544  0.6379832405306871  0.5104080712886372
  0.3371062064500663  0.8757023911288755  0.4781921803907565
  0.1708576671225472  0.3682379569067322  0.4734780990904355
  0.4348418761943691  0.8608569350993562  0.4281185797607918
  0.1567398285786510  0.4657907153128917  0.4133615520958713
  0.5769918788850035  0.8119070414385661  0.4409819564194635
  0.1742133556303216  0.6099333084678094  0.4368214787513764
  0.2738745655821191  0.0054875707082402  0.4629106095152054
  0.0469928468884149  0.2842485593223358  0.4568585027963010
  0.7261350254249805  0.9945935507595536  0.4629140401904337
  0.9530025671993485  0.7156781369973757  0.4568730155336311
  0.7139054778115934  0.9287653770680748  0.5274420829318771
  0.0256789544735341  0.7149305902604794  0.5203137847673105
  0.6653699390774293  0.9258590971664091  0.4078585043363390
  0.0371584232391768  0.6719133518745650  0.4030730387801142
  0.5675471261591696  0.0202226002452903  0.3843165706081066
  0.9664800459620864  0.5606664967951360  0.3744858828497399
  0.4324913568939124  0.9798800265002185  0.3843234409479166
  0.0335999321149458  0.4393191798997975  0.3744991977816881
  0.3346462774156720  0.0742295909474748  0.4078569092847033
  0.9629072151852682  0.3280358892726696  0.4030375289008745
  0.6629239979517365  0.1243878559310900  0.4782064139285112
  0.8291489159669680  0.6316846980618180  0.4734467586004243
  0.5651804545748149  0.1392199871989206  0.4281321785334598
  0.8432776874145418  0.5341831646603339  0.4133074945389907
  0.4230271470536806  0.1881379187303480  0.4409893638115889
  0.8257890465560536  0.3900256505194548  0.4367664099123374
  0.2939570126972200  0.4105072836769139  0.4356091051709399
  0.3341903428675934  0.5588883343220346  0.4447498854231213
  0.3151143617457919  0.3935113337658578  0.5805048655132765
  0.3305942504848360  0.5383349030089732  0.5824501103660396
  0.3832382362089746  0.5875126547660017  0.5133660490368754
  0.4511860688263951  0.3265336460135444  0.5859070807691751
  0.5344892451561165  0.4395810845773056  0.6194601036341894
  0.4655214946996153  0.5604045261122153  0.6194713565974226
  0.4904413435510406  0.3619212214554395  0.5136540842599331
  0.6167788389873010  0.4124965977305521  0.5133399823784544
  0.6693849199060296  0.4616412542438653  0.5824190417198309
  0.4275974992625819  0.3400731521870739  0.4403114969426412
  0.5286236716377388  0.4371514259498639  0.4077630363787534
  0.6657973294200019  0.4410879550364442  0.4447101852032489
  0.4713213835281778  0.5628327495804371  0.4077813741761886
  0.5723988710769277  0.6599361792936449  0.4403051100344015
  0.7060482353272874  0.5894663082347762  0.4355607058549253
  0.6848472304653939  0.6064594756321782  0.5804657294970497
  0.5488055349858740  0.6734749524984949  0.5859212094693760
  0.5095665905783946  0.6380743364568744  0.5136862497703518
 
  0.00000000E+00  0.00000000E+00  0.00000000E+00
  0.00000000E+00  0.00000000E+00  0.00000000E+00
  0.00000000E+00  0.00000000E+00  0.00000000E+00
  0.00000000E+00  0.00000000E+00  0.00000000E+00
  0.00000000E+00  0.00000000E+00  0.00000000E+00
  0.00000000E+00  0.00000000E+00  0.00000000E+00
  0.00000000E+00  0.00000000E+00  0.00000000E+00
  0.00000000E+00  0.00000000E+00  0.00000000E+00
  0.00000000E+00  0.00000000E+00  0.00000000E+00
  0.00000000E+00  0.00000000E+00  0.00000000E+00
  0.00000000E+00  0.00000000E+00  0.00000000E+00
  0.00000000E+00  0.00000000E+00  0.00000000E+00
  0.00000000E+00  0.00000000E+00  0.00000000E+00
  0.00000000E+00  0.00000000E+00  0.00000000E+00
  0.00000000E+00  0.00000000E+00  0.00000000E+00
  0.00000000E+00  0.00000000E+00  0.00000000E+00
  0.00000000E+00  0.00000000E+00  0.00000000E+00
  0.00000000E+00  0.00000000E+00  0.00000000E+00
  0.00000000E+00  0.00000000E+00  0.00000000E+00
  0.00000000E+00  0.00000000E+00  0.00000000E+00
  0.00000000E+00  0.00000000E+00  0.00000000E+00
  0.00000000E+00  0.00000000E+00  0.00000000E+00
  0.00000000E+00  0.00000000E+00  0.00000000E+00
  0.00000000E+00  0.00000000E+00  0.00000000E+00
  0.00000000E+00  0.00000000E+00  0.00000000E+00
  0.00000000E+00  0.00000000E+00  0.00000000E+00
  0.00000000E+00  0.00000000E+00  0.00000000E+00
  0.00000000E+00  0.00000000E+00  0.00000000E+00
  0.00000000E+00  0.00000000E+00  0.00000000E+00
  0.00000000E+00  0.00000000E+00  0.00000000E+00
  0.00000000E+00  0.00000000E+00  0.00000000E+00
  0.00000000E+00  0.00000000E+00  0.00000000E+00
  0.00000000E+00  0.00000000E+00  0.00000000E+00
  0.00000000E+00  0.00000000E+00  0.00000000E+00
  0.00000000E+00  0.00000000E+00  0.00000000E+00
  0.00000000E+00  0.00000000E+00  0.00000000E+00
  0.00000000E+00  0.00000000E+00  0.00000000E+00
  0.00000000E+00  0.00000000E+00  0.00000000E+00
  0.00000000E+00  0.00000000E+00  0.00000000E+00
  0.00000000E+00  0.00000000E+00  0.00000000E+00
  0.00000000E+00  0.00000000E+00  0.00000000E+00
  0.00000000E+00  0.00000000E+00  0.00000000E+00
  0.00000000E+00  0.00000000E+00  0.00000000E+00
  0.00000000E+00  0.00000000E+00  0.00000000E+00
  0.00000000E+00  0.00000000E+00  0.00000000E+00
  0.00000000E+00  0.00000000E+00  0.00000000E+00
  0.00000000E+00  0.00000000E+00  0.00000000E+00
  0.00000000E+00  0.00000000E+00  0.00000000E+00
  0.00000000E+00  0.00000000E+00  0.00000000E+00
  0.00000000E+00  0.00000000E+00  0.00000000E+00
  0.00000000E+00  0.00000000E+00  0.00000000E+00
  0.00000000E+00  0.00000000E+00  0.00000000E+00
  0.00000000E+00  0.00000000E+00  0.00000000E+00
  0.00000000E+00  0.00000000E+00  0.00000000E+00
  0.00000000E+00  0.00000000E+00  0.00000000E+00
  0.00000000E+00  0.00000000E+00  0.00000000E+00
  0.00000000E+00  0.00000000E+00  0.00000000E+00
  0.00000000E+00  0.00000000E+00  0.00000000E+00
  0.00000000E+00  0.00000000E+00  0.00000000E+00
  0.00000000E+00  0.00000000E+00  0.00000000E+00
  0.00000000E+00  0.00000000E+00  0.00000000E+00
  0.00000000E+00  0.00000000E+00  0.00000000E+00
  0.00000000E+00  0.00000000E+00  0.00000000E+00
  0.00000000E+00  0.00000000E+00  0.00000000E+00
  0.00000000E+00  0.00000000E+00  0.00000000E+00
  0.00000000E+00  0.00000000E+00  0.00000000E+00
  0.00000000E+00  0.00000000E+00  0.00000000E+00
  0.00000000E+00  0.00000000E+00  0.00000000E+00
