C                                       
   1.00000000000000     
    16.4926452996237707    0.6966969320477083    0.0000000000000000
     0.5561774571687902   11.1386448372680587    0.0000000000000000
     0.0000000000000000    0.0000000000000000   16.0000000000000000
  C             
   128
Direct
  0.6646052404675536  0.6579478389630409  0.4630682763939571
  0.6292497449124802  0.7054431416998997  0.3819384650766577
  0.6668939782063490  0.7699556997011766  0.5181546672780620
  0.5958631499687526  0.8312964221479630  0.3876664032103435
  0.6200848854131942  0.8788436940900944  0.4712714329848941
  0.6089436949401336  0.7531695409714785  0.5892738773920450
  0.5482194262989284  0.8472732327211783  0.6008374857637218
  0.5481536624910962  0.9280119119405430  0.5225669677304722
  0.5660434661955767  0.6472804686927803  0.5728030825693033
  0.5929570285972259  0.6029792736652464  0.4971494473344406
  0.5492291946302330  0.5541006498874264  0.4276768191530005
  0.4793932445604152  0.6760842624654860  0.5873085411842613
  0.4257417058820473  0.6505389952455312  0.5181697273492194
  0.4539515269682892  0.5837385223618299  0.4360445066173095
  0.4691987094343557  0.7991270510913389  0.6119074034486116
  0.5008372723873100  0.7151112991130534  0.3310789335586333
  0.5712527714367942  0.6332992409793309  0.3532700121276495
  0.4333279825194849  0.6838475373660130  0.3733414837649309
  0.3958103785588158  0.7916137067602546  0.4160754513881121
  0.3834722513614519  0.7620404718522680  0.5005163921937537
  0.4018636034958811  0.8645307745314660  0.5588613536149425
  0.5150706186372589  0.8398972748091426  0.3592702255823678
  0.4456291465616653  0.8871425308460130  0.4109683556191803
  0.4565212567426936  0.9351098218219720  0.5006341090855697
  0.3353956747888872  0.3420317650542983  0.4630825956088276
  0.3707972126932388  0.2945640245650784  0.3819655638496513
  0.3331231095075537  0.2300030420440335  0.5181455431839699
  0.4041683591959747  0.1687232935657337  0.3876649555793857
  0.3799384497555105  0.1211258799339791  0.4712605667611997
  0.3910682746357451  0.2468026948222184  0.5892628321110417
  0.4517965040850572  0.1527091772846783  0.6008260360410222
  0.4518693090709231  0.0719654019734973  0.5225684232744512
  0.4339403064428097  0.3527260190542231  0.5728111094002849
  0.4070108899825215  0.3970588059440892  0.4971693212040122
  0.4507176316554028  0.4460026676289897  0.4276903908964791
  0.5205913564529850  0.3239352989460365  0.5873013053494801
  0.5742395285929219  0.3495331076424507  0.5181856970675609
  0.5460074219798051  0.4163497438958552  0.4360639695631960
  0.5308089841648302  0.2008723948795881  0.6118781513186003
  0.4991626864072704  0.2850023550205285  0.3310798180595667
  0.4287198488271484  0.3667925855209979  0.3532653441755587
  0.5666446778366807  0.3162679849385127  0.3733694744394891
  0.6041581580924219  0.2085028415110600  0.4161036500093323
  0.6165338437332788  0.2380237346467218  0.5005266747797485
  0.5981525772960969  0.1354738366861314  0.5588508535224248
  0.4849572300439027  0.1601737508351312  0.3592763370855685
  0.5543964432943439  0.1129089075814479  0.4109580676647579
  0.5435078525931227  0.0648778889251856  0.5006213163963350
  0.8921821483307864  0.9656009208343060  0.6419414008102989
  0.9521799158700794  0.0142305161312929  0.5765524322746610
  0.8610959628981818  0.8615068831918532  0.6096143641509204
  0.8846136233616685  0.8455932909805772  0.5240300329607873
  0.9282313771531961  0.9461999832576244  0.4992886431819744
  0.7718346270361308  0.8722528804281489  0.6107529356697055
  0.7400652412653542  0.8422246063550168  0.5265229311689841
  0.8166043792041198  0.8360316290796469  0.4707881988747747
  0.7415555067190901  0.9832201249217065  0.6401159994075072
  0.6840216558588389  0.0544404445821033  0.5722838972546159
  0.6909407902955191  0.9591267528416741  0.4941524604359344
  0.8187175162018809  0.0427174290842672  0.6568160492661772
  0.8193735895546130  0.1373862220008081  0.6010233489642863
  0.7491664907418452  0.1357423230924811  0.5491621798195916
  0.8981623274824149  0.1470235316869328  0.5515495102732401
  0.8633569876118984  0.1364204696739931  0.4586872133839766
  0.7750018418961585  0.1185052256406809  0.4676772358688669
  0.7476267793814413  0.0133557476891272  0.4342019607866729
  0.8177366207563913  0.9374282000508549  0.4157276347628896
  0.8903899064057832  0.0059390721317943  0.4324378942211866
  0.1078191195509095  0.0344188126826997  0.6419359214418643
  0.0478127013085349  0.9858002156178491  0.5765500584513698
  0.1389180785297559  0.1385018114583731  0.6096023475942596
  0.1153948567695742  0.1544058452939352  0.5240170883934786
  0.0717711070121106  0.0538131689218331  0.4992884077975064
  0.2281795688040106  0.1277255273065360  0.6107290728510497
  0.2599524972748317  0.1577377526952870  0.5265058246818476
  0.1834098604565087  0.1639495887929917  0.4707701160451077
  0.2584476210076498  0.0167620452973255  0.6400975212918444
  0.3159835773051523  0.9455280833574997  0.5722819602962591
  0.3090722721288275  0.0408331031613631  0.4941381914588306
  0.1812753911370254  0.9572776296802294  0.6568080885347874
  0.1806184644557098  0.8625942603696655  0.6010381298240793
  0.2508360998209844  0.8642208934486887  0.5491811789707397
  0.1018268733918651  0.8529645326858485  0.5515614191486234
  0.1366319893971794  0.8635708821565539  0.4587052380272086
  0.2249849601222852  0.8814936395365630  0.4677054569915061
  0.2523606837572823  0.9866188195135137  0.4342176276060076
  0.1822622658716211  0.0625521807367888  0.4157080066166514
  0.1096045654535870  0.9940510067628094  0.4324403874251485
  0.1524313956055457  0.6371868903988089  0.5943616771186733
  0.2306470843722960  0.6119804348485903  0.5528472471510136
  0.1251508437190518  0.5308675216103013  0.6245561327605837
  0.1860537650791599  0.4365629390379107  0.5962823062945480
  0.2537326027419262  0.4892617725636358  0.5559382153409148
  0.0457488785493455  0.5140493532153798  0.5823970558858497
  0.0627782120007866  0.4031349428006212  0.5240095849010559
  0.1500805505953804  0.3689959956802935  0.5362486659806089
  0.0278694824226424  0.6265521037283102  0.5244069740966462
  0.0347752993336022  0.5817578868246116  0.4298985532883845
  0.0557788190571408  0.4431257059961739  0.4310463967555369
  0.0931048704595585  0.7140315626237358  0.5397308456100198
  0.1387709553322266  0.7208913029976911  0.4477542909354216
  0.1036827470485614  0.6358096870928727  0.3877441274515760
  0.2235349403404413  0.6511056212836789  0.4655337314521313
  0.2437258259969453  0.5548722809230652  0.4125581938771188
  0.1639744531449720  0.5414359617363129  0.3716518531984044
  0.1378701791933142  0.4255291415788091  0.3937421333529018
  0.1893537470045463  0.3784999905405778  0.4562166115823326
  0.2655976448353584  0.4383634207199567  0.4670040030711279
  0.8475559675588641  0.3627681346389782  0.5943293595874626
  0.7693393761084810  0.3879648734026949  0.5528078084933417
  0.8748356307503439  0.4690621423888757  0.6245420454762783
  0.8139299748258029  0.5633689631604784  0.5962837149878346
  0.7462598334003685  0.5106764259728513  0.5559160161458754
  0.9542448840968442  0.4858984528519765  0.5823929112331204
  0.9372179336751730  0.5968272652818034  0.5240217405353553
  0.8499119390531734  0.6309626109228187  0.5362660998199400
  0.9721269791252785  0.3734161697521369  0.5243925242319100
  0.9652297142915175  0.4182225798042019  0.4298848928770248
  0.9442258630318956  0.5568521611437575  0.4310572664224288
  0.9068928464005384  0.2859363488150762  0.5397060574842644
  0.8612340947725965  0.2790893879129815  0.4477190770627985
  0.8963260862023905  0.3641863478061666  0.3877204834321598
  0.7764644354968016  0.3488683161583600  0.4654913805939395
  0.7562858095803104  0.4451306226328711  0.4125349648880707
  0.8360346232904313  0.4585780144625460  0.3716444627710467
  0.8621371519948312  0.5744816230933915  0.3937535829067705
  0.8106436475981581  0.6215014534444880  0.4562272897187786
  0.7344007985361798  0.5616169703959715  0.4669919714656349
 
  0.00000000E+00  0.00000000E+00  0.00000000E+00
  0.00000000E+00  0.00000000E+00  0.00000000E+00
  0.00000000E+00  0.00000000E+00  0.00000000E+00
  0.00000000E+00  0.00000000E+00  0.00000000E+00
  0.00000000E+00  0.00000000E+00  0.00000000E+00
  0.00000000E+00  0.00000000E+00  0.00000000E+00
  0.00000000E+00  0.00000000E+00  0.00000000E+00
  0.00000000E+00  0.00000000E+00  0.00000000E+00
  0.00000000E+00  0.00000000E+00  0.00000000E+00
  0.00000000E+00  0.00000000E+00  0.00000000E+00
  0.00000000E+00  0.00000000E+00  0.00000000E+00
  0.00000000E+00  0.00000000E+00  0.00000000E+00
  0.00000000E+00  0.00000000E+00  0.00000000E+00
  0.00000000E+00  0.00000000E+00  0.00000000E+00
  0.00000000E+00  0.00000000E+00  0.00000000E+00
  0.00000000E+00  0.00000000E+00  0.00000000E+00
  0.00000000E+00  0.00000000E+00  0.00000000E+00
  0.00000000E+00  0.00000000E+00  0.00000000E+00
  0.00000000E+00  0.00000000E+00  0.00000000E+00
  0.00000000E+00  0.00000000E+00  0.00000000E+00
  0.00000000E+00  0.00000000E+00  0.00000000E+00
  0.00000000E+00  0.00000000E+00  0.00000000E+00
  0.00000000E+00  0.00000000E+00  0.00000000E+00
  0.00000000E+00  0.00000000E+00  0.00000000E+00
  0.00000000E+00  0.00000000E+00  0.00000000E+00
  0.00000000E+00  0.00000000E+00  0.00000000E+00
  0.00000000E+00  0.00000000E+00  0.00000000E+00
  0.00000000E+00  0.00000000E+00  0.00000000E+00
  0.00000000E+00  0.00000000E+00  0.00000000E+00
  0.00000000E+00  0.00000000E+00  0.00000000E+00
  0.00000000E+00  0.00000000E+00  0.00000000E+00
  0.00000000E+00  0.00000000E+00  0.00000000E+00
  0.00000000E+00  0.00000000E+00  0.00000000E+00
  0.00000000E+00  0.00000000E+00  0.00000000E+00
  0.00000000E+00  0.00000000E+00  0.00000000E+00
  0.00000000E+00  0.00000000E+00  0.00000000E+00
  0.00000000E+00  0.00000000E+00  0.00000000E+00
  0.00000000E+00  0.00000000E+00  0.00000000E+00
  0.00000000E+00  0.00000000E+00  0.00000000E+00
  0.00000000E+00  0.00000000E+00  0.00000000E+00
  0.00000000E+00  0.00000000E+00  0.00000000E+00
  0.00000000E+00  0.00000000E+00  0.00000000E+00
  0.00000000E+00  0.00000000E+00  0.00000000E+00
  0.00000000E+00  0.00000000E+00  0.00000000E+00
  0.00000000E+00  0.00000000E+00  0.00000000E+00
  0.00000000E+00  0.00000000E+00  0.00000000E+00
  0.00000000E+00  0.00000000E+00  0.00000000E+00
  0.00000000E+00  0.00000000E+00  0.00000000E+00
  0.00000000E+00  0.00000000E+00  0.00000000E+00
  0.00000000E+00  0.00000000E+00  0.00000000E+00
  0.00000000E+00  0.00000000E+00  0.00000000E+00
  0.00000000E+00  0.00000000E+00  0.00000000E+00
  0.00000000E+00  0.00000000E+00  0.00000000E+00
  0.00000000E+00  0.00000000E+00  0.00000000E+00
  0.00000000E+00  0.00000000E+00  0.00000000E+00
  0.00000000E+00  0.00000000E+00  0.00000000E+00
  0.00000000E+00  0.00000000E+00  0.00000000E+00
  0.00000000E+00  0.00000000E+00  0.00000000E+00
  0.00000000E+00  0.00000000E+00  0.00000000E+00
  0.00000000E+00  0.00000000E+00  0.00000000E+00
  0.00000000E+00  0.00000000E+00  0.00000000E+00
  0.00000000E+00  0.00000000E+00  0.00000000E+00
  0.00000000E+00  0.00000000E+00  0.00000000E+00
  0.00000000E+00  0.00000000E+00  0.00000000E+00
  0.00000000E+00  0.00000000E+00  0.00000000E+00
  0.00000000E+00  0.00000000E+00  0.00000000E+00
  0.00000000E+00  0.00000000E+00  0.00000000E+00
  0.00000000E+00  0.00000000E+00  0.00000000E+00
  0.00000000E+00  0.00000000E+00  0.00000000E+00
  0.00000000E+00  0.00000000E+00  0.00000000E+00
  0.00000000E+00  0.00000000E+00  0.00000000E+00
  0.00000000E+00  0.00000000E+00  0.00000000E+00
  0.00000000E+00  0.00000000E+00  0.00000000E+00
  0.00000000E+00  0.00000000E+00  0.00000000E+00
  0.00000000E+00  0.00000000E+00  0.00000000E+00
  0.00000000E+00  0.00000000E+00  0.00000000E+00
  0.00000000E+00  0.00000000E+00  0.00000000E+00
  0.00000000E+00  0.00000000E+00  0.00000000E+00
  0.00000000E+00  0.00000000E+00  0.00000000E+00
  0.00000000E+00  0.00000000E+00  0.00000000E+00
  0.00000000E+00  0.00000000E+00  0.00000000E+00
  0.00000000E+00  0.00000000E+00  0.00000000E+00
  0.00000000E+00  0.00000000E+00  0.00000000E+00
  0.00000000E+00  0.00000000E+00  0.00000000E+00
  0.00000000E+00  0.00000000E+00  0.00000000E+00
  0.00000000E+00  0.00000000E+00  0.00000000E+00
  0.00000000E+00  0.00000000E+00  0.00000000E+00
  0.00000000E+00  0.00000000E+00  0.00000000E+00
  0.00000000E+00  0.00000000E+00  0.00000000E+00
  0.00000000E+00  0.00000000E+00  0.00000000E+00
  0.00000000E+00  0.00000000E+00  0.00000000E+00
  0.00000000E+00  0.00000000E+00  0.00000000E+00
  0.00000000E+00  0.00000000E+00  0.00000000E+00
  0.00000000E+00  0.00000000E+00  0.00000000E+00
  0.00000000E+00  0.00000000E+00  0.00000000E+00
  0.00000000E+00  0.00000000E+00  0.00000000E+00
  0.00000000E+00  0.00000000E+00  0.00000000E+00
  0.00000000E+00  0.00000000E+00  0.00000000E+00
  0.00000000E+00  0.00000000E+00  0.00000000E+00
  0.00000000E+00  0.00000000E+00  0.00000000E+00
  0.00000000E+00  0.00000000E+00  0.00000000E+00
  0.00000000E+00  0.00000000E+00  0.00000000E+00
  0.00000000E+00  0.00000000E+00  0.00000000E+00
  0.00000000E+00  0.00000000E+00  0.00000000E+00
  0.00000000E+00  0.00000000E+00  0.00000000E+00
  0.00000000E+00  0.00000000E+00  0.00000000E+00
  0.00000000E+00  0.00000000E+00  0.00000000E+00
  0.00000000E+00  0.00000000E+00  0.00000000E+00
  0.00000000E+00  0.00000000E+00  0.00000000E+00
  0.00000000E+00  0.00000000E+00  0.00000000E+00
  0.00000000E+00  0.00000000E+00  0.00000000E+00
  0.00000000E+00  0.00000000E+00  0.00000000E+00
  0.00000000E+00  0.00000000E+00  0.00000000E+00
  0.00000000E+00  0.00000000E+00  0.00000000E+00
  0.00000000E+00  0.00000000E+00  0.00000000E+00
  0.00000000E+00  0.00000000E+00  0.00000000E+00
  0.00000000E+00  0.00000000E+00  0.00000000E+00
  0.00000000E+00  0.00000000E+00  0.00000000E+00
  0.00000000E+00  0.00000000E+00  0.00000000E+00
  0.00000000E+00  0.00000000E+00  0.00000000E+00
  0.00000000E+00  0.00000000E+00  0.00000000E+00
  0.00000000E+00  0.00000000E+00  0.00000000E+00
  0.00000000E+00  0.00000000E+00  0.00000000E+00
  0.00000000E+00  0.00000000E+00  0.00000000E+00
  0.00000000E+00  0.00000000E+00  0.00000000E+00
  0.00000000E+00  0.00000000E+00  0.00000000E+00
  0.00000000E+00  0.00000000E+00  0.00000000E+00
  0.00000000E+00  0.00000000E+00  0.00000000E+00
