C                                       
   1.00000000000000     
    11.2691457390648289   -0.3927459868307337    0.0000000000000000
    -0.3963004022828545   11.2606252438224423    0.0000000000000000
     0.0000000000000000    0.0000000000000000   16.0000000000000000
  C             
    84
Direct
  0.3673256815246058  0.4662001761719181  0.6154020911801262
  0.4854222197355086  0.4327140876011005  0.6367842552816589
  0.3591483761266202  0.5912946253388377  0.6077984181080499
  0.5629641803642680  0.5348219344884179  0.6240718785607733
  0.4835827964707528  0.6285536860117468  0.6009514723120692
  0.2929105021449912  0.6188585664510164  0.5249616028607360
  0.3818993799420342  0.7074593694414036  0.4738339530869154
  0.4969462962857386  0.6746274972525801  0.5204117478051603
  0.3254439933536999  0.5032857175515603  0.4784721467362238
  0.3435781566568151  0.4114010270281620  0.5354209348902771
  0.4202299427029915  0.3149916715750284  0.5146693086271806
  0.3725485548322805  0.5163606149991442  0.3980969909550128
  0.4664358499550091  0.4368077141895949  0.3754649329561939
  0.4907676024550539  0.3277165294632735  0.4282139459800506
  0.4099145112708666  0.6407482449909785  0.3910904464308985
  0.6219793619684491  0.3878554076938499  0.5419660842500068
  0.5185039019374874  0.3259735846367434  0.5863577700885010
  0.6127302462513491  0.3783425233448548  0.4585105764681474
  0.6748854628003085  0.4812423443616725  0.4138887723694525
  0.5686299726519350  0.5142688223568573  0.3628522328367764
  0.5350863923820862  0.6326553196056869  0.3836136746389739
  0.6722674196508707  0.5104164168578610  0.5718501953879386
  0.6855255842716069  0.5802218295414128  0.4850724078989979
  0.5891457332564138  0.6565888673160738  0.4637279900620380
  0.0742783506711732  0.1268773396928845  0.4337554304395968
  0.1580250521443949  0.0441662834315616  0.4335470543707841
  0.0514723015077516  0.1745591001785969  0.5207885416982307
  0.1282945343031945  0.1013783639597869  0.5762764013375787
  0.2079925309534344  0.0314476857007606  0.5215254957573587
  0.9305895011761862  0.1168394314550873  0.5388069938703938
  0.9288104849399934  0.0331370915354320  0.6055385442691491
  0.0515107205395159  0.0178857687863601  0.6220750945023314
  0.8831722292354349  0.0704065797005080  0.4660980710314901
  0.8261710644622984  0.9488691497801511  0.4828661190096978
  0.8756967286039338  0.9240122929916680  0.5689470412666549
  0.9643479770404149  0.0746645524013159  0.3978947657256356
  0.9797416751124249  0.9524117223793650  0.3794048457465699
  0.8978509684994146  0.8738067117406169  0.4250048065110541
  0.1022812690254017  0.9336228750169893  0.3982891093675416
  0.1005923596160458  0.8469975829588838  0.4626294627712386
  0.9693777425620467  0.7928630509344298  0.4774634561050708
  0.9589786537030608  0.8407949695926017  0.5664030344692381
  0.0701829087609864  0.8960289183612047  0.6007738748394514
  0.1548748864170181  0.8996329660225849  0.5352457548257433
  0.5607653280338848  0.8800503764354566  0.5854228552615378
  0.6009079871111033  0.9923590389911041  0.6237820001050793
  0.6101915267463353  0.8774732486822955  0.5016188054964832
  0.7013057563002899  0.9734296971108737  0.4860751481545769
  0.6744747689897060  0.0506215066381332  0.5621326627916051
  0.5293571326347618  0.8693333291529739  0.4364931021483639
  0.5473554791531596  0.9756716832293342  0.3863241276857071
  0.6497779231359139  0.0421871344553321  0.4145451698034869
  0.4071799033729260  0.8507724266282787  0.4765185563975952
  0.3733869884177274  0.9804828087768785  0.4500105444278823
  0.4443438784892957  0.0460950056810001  0.3934398354279050
  0.4374386249765287  0.8859326647144600  0.5682068451471118
  0.4036814801407573  0.9980615779769251  0.5948046445182541
  0.3398702364071046  0.0555840285321204  0.5249485546650267
  0.4999129981245588  0.0657664625697520  0.6317166341619038
  0.5202933815716250  0.1836960376735945  0.5837282942349535
  0.4181134649887746  0.1765828520894637  0.5141565432045543
  0.4845715587443204  0.1733901217065866  0.4278017166654963
  0.6100112852955900  0.1469530804841021  0.4488851904017323
  0.6309743336183781  0.1565538760137684  0.5359493921564593
  0.1495540957700284  0.5941262002542428  0.5232098225720300
  0.0199071068518573  0.6284479907854325  0.5493535269592295
  0.1141623754688501  0.5617581712606444  0.4320539942707577
  0.0022254500191212  0.5952440332687734  0.4048906910225070
  0.9448730705878984  0.6607044246624566  0.4740002327000548
  0.1198508765464846  0.4380294121765181  0.4165592299288737
  0.0077540559973629  0.3969677697911631  0.3785285364251122
  0.9345513391683650  0.4979609431266592  0.3692696268579833
  0.1228315009872307  0.3904044552043190  0.5009498418834476
  0.0268631713674921  0.2995984548015693  0.5175825455742972
  0.9495675046711577  0.3251450716936689  0.4411478921069777
  0.1310188825930983  0.4729896921174046  0.5649695542020894
  0.0246694454858551  0.4561089228444791  0.6152079727165127
  0.9582244402001941  0.3527262074682043  0.5884658069068659
  0.9543069245428647  0.5589144244353659  0.6068156273485162
  0.8272047087616499  0.5178449380932427  0.5728275487470346
  0.8536911155165318  0.3920344636501201  0.5533487572719816
  0.8436542173415442  0.3691378957013617  0.4666019914592412
  0.8168239155173040  0.4788905611830163  0.4173519306373126
  0.8238511633417841  0.5825809253847174  0.4858126940974522
 
  0.00000000E+00  0.00000000E+00  0.00000000E+00
  0.00000000E+00  0.00000000E+00  0.00000000E+00
  0.00000000E+00  0.00000000E+00  0.00000000E+00
  0.00000000E+00  0.00000000E+00  0.00000000E+00
  0.00000000E+00  0.00000000E+00  0.00000000E+00
  0.00000000E+00  0.00000000E+00  0.00000000E+00
  0.00000000E+00  0.00000000E+00  0.00000000E+00
  0.00000000E+00  0.00000000E+00  0.00000000E+00
  0.00000000E+00  0.00000000E+00  0.00000000E+00
  0.00000000E+00  0.00000000E+00  0.00000000E+00
  0.00000000E+00  0.00000000E+00  0.00000000E+00
  0.00000000E+00  0.00000000E+00  0.00000000E+00
  0.00000000E+00  0.00000000E+00  0.00000000E+00
  0.00000000E+00  0.00000000E+00  0.00000000E+00
  0.00000000E+00  0.00000000E+00  0.00000000E+00
  0.00000000E+00  0.00000000E+00  0.00000000E+00
  0.00000000E+00  0.00000000E+00  0.00000000E+00
  0.00000000E+00  0.00000000E+00  0.00000000E+00
  0.00000000E+00  0.00000000E+00  0.00000000E+00
  0.00000000E+00  0.00000000E+00  0.00000000E+00
  0.00000000E+00  0.00000000E+00  0.00000000E+00
  0.00000000E+00  0.00000000E+00  0.00000000E+00
  0.00000000E+00  0.00000000E+00  0.00000000E+00
  0.00000000E+00  0.00000000E+00  0.00000000E+00
  0.00000000E+00  0.00000000E+00  0.00000000E+00
  0.00000000E+00  0.00000000E+00  0.00000000E+00
  0.00000000E+00  0.00000000E+00  0.00000000E+00
  0.00000000E+00  0.00000000E+00  0.00000000E+00
  0.00000000E+00  0.00000000E+00  0.00000000E+00
  0.00000000E+00  0.00000000E+00  0.00000000E+00
  0.00000000E+00  0.00000000E+00  0.00000000E+00
  0.00000000E+00  0.00000000E+00  0.00000000E+00
  0.00000000E+00  0.00000000E+00  0.00000000E+00
  0.00000000E+00  0.00000000E+00  0.00000000E+00
  0.00000000E+00  0.00000000E+00  0.00000000E+00
  0.00000000E+00  0.00000000E+00  0.00000000E+00
  0.00000000E+00  0.00000000E+00  0.00000000E+00
  0.00000000E+00  0.00000000E+00  0.00000000E+00
  0.00000000E+00  0.00000000E+00  0.00000000E+00
  0.00000000E+00  0.00000000E+00  0.00000000E+00
  0.00000000E+00  0.00000000E+00  0.00000000E+00
  0.00000000E+00  0.00000000E+00  0.00000000E+00
  0.00000000E+00  0.00000000E+00  0.00000000E+00
  0.00000000E+00  0.00000000E+00  0.00000000E+00
  0.00000000E+00  0.00000000E+00  0.00000000E+00
  0.00000000E+00  0.00000000E+00  0.00000000E+00
  0.00000000E+00  0.00000000E+00  0.00000000E+00
  0.00000000E+00  0.00000000E+00  0.00000000E+00
  0.00000000E+00  0.00000000E+00  0.00000000E+00
  0.00000000E+00  0.00000000E+00  0.00000000E+00
  0.00000000E+00  0.00000000E+00  0.00000000E+00
  0.00000000E+00  0.00000000E+00  0.00000000E+00
  0.00000000E+00  0.00000000E+00  0.00000000E+00
  0.00000000E+00  0.00000000E+00  0.00000000E+00
  0.00000000E+00  0.00000000E+00  0.00000000E+00
  0.00000000E+00  0.00000000E+00  0.00000000E+00
  0.00000000E+00  0.00000000E+00  0.00000000E+00
  0.00000000E+00  0.00000000E+00  0.00000000E+00
  0.00000000E+00  0.00000000E+00  0.00000000E+00
  0.00000000E+00  0.00000000E+00  0.00000000E+00
  0.00000000E+00  0.00000000E+00  0.00000000E+00
  0.00000000E+00  0.00000000E+00  0.00000000E+00
  0.00000000E+00  0.00000000E+00  0.00000000E+00
  0.00000000E+00  0.00000000E+00  0.00000000E+00
  0.00000000E+00  0.00000000E+00  0.00000000E+00
  0.00000000E+00  0.00000000E+00  0.00000000E+00
  0.00000000E+00  0.00000000E+00  0.00000000E+00
  0.00000000E+00  0.00000000E+00  0.00000000E+00
  0.00000000E+00  0.00000000E+00  0.00000000E+00
  0.00000000E+00  0.00000000E+00  0.00000000E+00
  0.00000000E+00  0.00000000E+00  0.00000000E+00
  0.00000000E+00  0.00000000E+00  0.00000000E+00
  0.00000000E+00  0.00000000E+00  0.00000000E+00
  0.00000000E+00  0.00000000E+00  0.00000000E+00
  0.00000000E+00  0.00000000E+00  0.00000000E+00
  0.00000000E+00  0.00000000E+00  0.00000000E+00
  0.00000000E+00  0.00000000E+00  0.00000000E+00
  0.00000000E+00  0.00000000E+00  0.00000000E+00
  0.00000000E+00  0.00000000E+00  0.00000000E+00
  0.00000000E+00  0.00000000E+00  0.00000000E+00
  0.00000000E+00  0.00000000E+00  0.00000000E+00
  0.00000000E+00  0.00000000E+00  0.00000000E+00
  0.00000000E+00  0.00000000E+00  0.00000000E+00
  0.00000000E+00  0.00000000E+00  0.00000000E+00
