C 
 1.0000000000000000
     9.5274748915347001    0.0000000000000000    0.0000000000000000
     0.0000000000000000   10.7431986095694256    0.0000000000000000
     0.0000000000000000    0.0000000000000000   16.0000000000000000
 C  
  88
Direct
  0.0456060903961521  0.4480300759654781  0.6423712327770670
 -0.0462675362279849  0.5536542321907592  0.6420560566781428
 -0.0208719191915467  0.3424621828574256  0.6046477923959912
 -0.1652718271795595  0.5197731793916569  0.5866943105720301
 -0.1497221794773541  0.3909360658203746  0.5637610845467469
  0.0643070600419866  0.2932511711833069  0.5387733430139690
 -0.0138159472113616  0.2854810918323971  0.4623824863140134
 -0.1454689865761626  0.3559349176448759  0.4769192499500176
  0.1763158933627904  0.3865875565927912  0.5237511942192513
  0.1648601893106892  0.4812412559395885  0.5871273359263419
  0.1494341184039558  0.6099081132523360  0.5635559686048034
  0.1723941638346288  0.4205385687397242  0.4367316320096742
  0.1570156308791181  0.5491530838510307  0.4131615482072001
  0.1455287427672497  0.6438247533204279  0.4765404139133922
  0.0579110616569383  0.3486714257247979  0.3961571421835425
 -0.0645399378688982  0.7070736823681715  0.5375533196987085
  0.0203249062949372  0.6587525923734506  0.6039399548767074
  0.0139628787199430  0.7141688796879140  0.4613042860995544
 -0.0573743667367445  0.6501326445759033  0.3952984261608659
  0.0327590363366599  0.5593423248228846  0.3577208233235671
 -0.0319988234780764  0.4389082041273281  0.3578300731902968
 -0.1764580126951981  0.6136358125829108  0.5227871575942103
 -0.1720632381882349  0.5787049615829527  0.4359368843842922
 -0.1565669971739263  0.4498332235715147  0.4130195562353068
  0.5456060903961520 -0.0519699240345219  0.6423712327770670
  0.4537324637720150  0.0536542321907591  0.6420560566781428
  0.4791280808084533 -0.1575378171425744  0.6046477923959912
  0.3347281728204405  0.0197731793916569  0.5866943105720301
  0.3502778205226458 -0.1090639341796255  0.5637610845467469
  0.5643070600419866 -0.2067488288166931  0.5387733430139690
  0.4861840527886385 -0.2145189081676030  0.4623824863140134
  0.3545310134238374 -0.1440650823551241  0.4769192499500176
  0.6763158933627904 -0.1134124434072089  0.5237511942192513
  0.6648601893106891 -0.0187587440604115  0.5871273359263419
  0.6494341184039558  0.1099081132523359  0.5635559686048034
  0.6723941638346288 -0.0794614312602758  0.4367316320096742
  0.6570156308791182  0.0491530838510306  0.4131615482072001
  0.6455287427672497  0.1438247533204278  0.4765404139133922
  0.5579110616569384 -0.1513285742752021  0.3961571421835425
  0.4354600621311018  0.2070736823681715  0.5375533196987085
  0.5203249062949371  0.1587525923734505  0.6039399548767074
  0.5139628787199431  0.2141688796879140  0.4613042860995544
  0.4426256332632555  0.1501326445759032  0.3952984261608659
  0.5327590363366599  0.0593423248228845  0.3577208233235671
  0.4680011765219236 -0.0610917958726720  0.3578300731902968
  0.3235419873048019  0.1136358125829107  0.5227871575942103
  0.3279367618117651  0.0787049615829526  0.4359368843842922
  0.3434330028260738 -0.0501667764284853  0.4130195562353068
  0.1142342259093153  0.1449576585376910  0.5229916396818124
  0.1698680078570955  0.0262043073441394  0.5511367464896579
 -0.0281830313227922  0.1536084578840919  0.5516560077777237
 -0.0597984563810649  0.0401168842848582  0.5973468297166912
  0.0646861358215181 -0.0394196928839566  0.6010931504835041
 -0.1219926348232465  0.1655556909160126  0.4797238423288334
 -0.2050086964701681  0.0510375757141051  0.4803180740568966
 -0.1694695774645924 -0.0234878043555757  0.5531127417943493
 -0.0303986147230879  0.1530232476033773  0.4073259359499327
 -0.0670388219713351  0.0443741452056139  0.3574796339186236
 -0.1722359612469637 -0.0212128050139258  0.4074280253346114
  0.1168521295499974  0.1510624689899238  0.4316740864698572
  0.1671000416917099  0.0284724417651772  0.4054476250121625
  0.0574465864290125 -0.0351541430578832  0.3612048027295132
  0.2026456681661113 -0.0460209076267354  0.4782371925775989
  0.1196430617508809 -0.1605411163184602  0.4788282754186105
  0.0258156432092073 -0.1486241254493661  0.4069049603981010
 -0.1166091754475341 -0.1399660487981065  0.4355727142994211
 -0.1192167208943627 -0.1460840722056630  0.5268992807736763
  0.0280514045689193 -0.1480604803946541  0.5512359432388451
  0.6142342259093153  0.6449576585376908  0.5229916396818124
  0.6698680078570955  0.5262043073441394  0.5511367464896579
  0.4718169686772078  0.6536084578840919  0.5516560077777237
  0.4402015436189352  0.5401168842848582  0.5973468297166912
  0.5646861358215181  0.4605803071160433  0.6010931504835041
  0.3780073651767535  0.6655556909160125  0.4797238423288334
  0.2949913035298320  0.5510375757141049  0.4803180740568966
  0.3305304225354075  0.4765121956444242  0.5531127417943493
  0.4696013852769121  0.6530232476033773  0.4073259359499327
  0.4329611780286650  0.5443741452056139  0.3574796339186236
  0.3277640387530364  0.4787871949860741  0.4074280253346114
  0.6168521295499975  0.6510624689899237  0.4316740864698572
  0.6671000416917099  0.5284724417651772  0.4054476250121625
  0.5574465864290126  0.4648458569421168  0.3612048027295132
  0.7026456681661114  0.4539790923732646  0.4782371925775989
  0.6196430617508809  0.3394588836815398  0.4788282754186105
  0.5258156432092073  0.3513758745506338  0.4069049603981010
  0.3833908245524659  0.3600339512018935  0.4355727142994211
  0.3807832791056373  0.3539159277943369  0.5268992807736763
  0.5280514045689193  0.3519395196053458  0.5512359432388451
