C 
 1.0000000000000000
    18.1103410894637200    0.0000000000000000    0.0000000000000000
    -9.0551705447318707   15.6840154546767288    0.0000000000000000
     0.0000000000000000    0.0000000000000000   16.0000000000000000
 C  
 108
Direct
  0.4049323990669725  0.5885273969598859  0.4993272758001875
  0.3172770529471887  0.5283225714013356  0.4821148884685989
  0.4406374017454469  0.6517354705811034  0.4348758601908860
  0.2921412730128800  0.5651827301697236  0.4123522030824427
  0.3673864877447977  0.6405630547756801  0.3835719283703454
  0.4777627038618840  0.7355934982102891  0.4697641858719371
  0.4434368769432214  0.7832723490663882  0.4309314820005554
  0.3692101669319088  0.7209422352113656  0.3810700940367081
  0.4495155274680221  0.7241359697841322  0.5582291237527157
  0.4049765571780968  0.6341797348557658  0.5762964913213227
  0.3191205403409864  0.5934467815651134  0.6081499745071283
  0.4082318874459074  0.7734474852798922  0.5720272371233229
  0.3224201162122194  0.7327438492454221  0.6038902442572069
  0.2778626386428461  0.6427728290081397  0.6219462323440024
  0.4102430382068066  0.8165112968264844  0.4923281037654131
  0.1972851621809102  0.5365372007775250  0.5251851230758253
  0.2643579157796347  0.5216866370275841  0.5514743604811845
  0.1968453537563740  0.6026260346523588  0.5740564309528283
  0.2000931699797018  0.6680664422251066  0.5213103108616411
  0.2697331396890713  0.7497172466223208  0.5445287362312575
  0.3234533525377002  0.7915348338878662  0.4740548697241170
  0.2187343110797559  0.5701865147361175  0.4386971491215879
  0.2205529644933916  0.6505640483831986  0.4362921735506760
  0.2958078147518581  0.7259390621362728  0.4074720999270431
  0.5950676009330275  0.4114726030401140  0.4993272758001875
  0.6827229470528111  0.4716774285986641  0.4821148884685989
  0.5593625982545530  0.3482645294188966  0.4348758601908860
  0.7078587269871200  0.4348172698302761  0.4123522030824427
  0.6326135122552022  0.3594369452243197  0.3835719283703454
  0.5222372961381160  0.2644065017897108  0.4697641858719371
  0.5565631230567787  0.2167276509336117  0.4309314820005554
  0.6307898330680910  0.2790577647886343  0.3810700940367081
  0.5504844725319780  0.2758640302158678  0.5582291237527157
  0.5950234428219031  0.3658202651442339  0.5762964913213227
  0.6808794596590135  0.4065532184348865  0.6081499745071283
  0.5917681125540926  0.2265525147201077  0.5720272371233229
  0.6775798837877806  0.2672561507545778  0.6038902442572069
  0.7221373613571538  0.3572271709918601  0.6219462323440024
  0.5897569617931935  0.1834887031735155  0.4923281037654131
  0.8027148378190899  0.4634627992224749  0.5251851230758253
  0.7356420842203654  0.4783133629724158  0.5514743604811845
  0.8031546462436260  0.3973739653476411  0.5740564309528283
  0.7999068300202982  0.3319335577748933  0.5213103108616411
  0.7302668603109287  0.2502827533776791  0.5445287362312575
  0.6765466474622998  0.2084651661121337  0.4740548697241170
  0.7812656889202441  0.4298134852638824  0.4386971491215879
  0.7794470355066083  0.3494359516168012  0.4362921735506760
  0.7041921852481418  0.2740609378637270  0.4074720999270431
  0.3926799350307515 -0.0996356645220906  0.4493834737277776
  0.4011018983280185 -0.0193017476102001  0.4219001992567580
  0.3926698403921179 -0.0996438920353223  0.5390898838878417
  0.4011112121329426 -0.0192896282121636  0.5665570966278412
  0.4028896687649988  0.0309912213882540  0.4942224218251028
  0.4647270537675648 -0.1073339412271739  0.5694385407752887
  0.5199619660742896 -0.0262313423179171  0.6113901868173452
  0.4800471338600189  0.0262346510130711  0.6114034308853585
  0.5113131922468905 -0.1045944032037355  0.4942030114729740
  0.5971102401891824 -0.0309707750955844  0.4941881785768470
  0.5988943661411579  0.0192970884778269  0.5665180446121559
  0.4647202751142258 -0.1073294342705584  0.4190018139003077
  0.5199554421302601 -0.0262347303139518  0.3770139984771071
  0.5989029259076224  0.0193035867045246  0.4218466468119452
  0.4800323020425532  0.0262089595539552  0.3770233404835847
  0.5352680247043100  0.1073124148732588  0.4189663150736556
  0.6073319519009671  0.0996439709890547  0.4493265153312296
  0.6073179338382451  0.0996311533766894  0.5390385797846085
  0.5352729462324348  0.1073339412271736  0.5694167142767461
  0.4886916912014453  0.1046085712048873  0.4942013833692924
  0.0463229284724791  0.4275445424948581  0.4493834991632636
 -0.0408838467446525  0.3959466594404929  0.4219002246922440
  0.0463259668550408  0.4275371389004893  0.5390899093233277
 -0.0408918688412208  0.3959511621185850  0.5665571220633272
 -0.0977039723052512  0.3721487077939091  0.4942224472605888
  0.1011840698379127  0.5145350058437467  0.5694385662107746
  0.0429730298737763  0.5364925671287482  0.6113902122528312
 -0.0429710343899894  0.4635162191234543  0.6114034563208446
  0.1277636689218459  0.5668157345060938  0.4942030369084600
  0.0976803503864281  0.6278406747440891  0.4941882040123330
  0.0408868318070700  0.6040514309701733  0.5665180700476420
  0.1011745487446517  0.5145248763602688  0.4190018393357937
  0.0429727700870798  0.5364867904089032  0.3770140239125931
  0.0408848066418242  0.6040579547844660  0.4218466722474312
 -0.0429508931132695  0.4635123352077951  0.3770233659190707
 -0.1011624028014958  0.4854703900789069  0.4189663405091416
 -0.0463249137913774  0.5724648860747535  0.4493265407667156
 -0.0463190898412948  0.5724553208554298  0.5390386052200944
 -0.1011840698379127  0.4854649941562528  0.5694167397122321
 -0.1277768799616448  0.4331826090085805  0.4942014088047784
  0.5038636242089046  0.3982941726775697  0.4493834754119607
  0.4273490273269153  0.3982080115057129  0.4219002009409411
  0.5038627849717117  0.3982844788101683  0.5390898855720248
  0.4273450425269411  0.3982164517510615  0.5665570983120243
  0.3761724085056609  0.3944916438280327  0.4942224235092859
  0.5796585013136991  0.4748703119817544  0.5694385424594717
  0.5463271471340816  0.5238978443597571  0.6113901885015283
  0.4536779269106360  0.4761113513345520  0.6114034325695417
  0.6205572861381878  0.5235263688401475  0.4942030131571571
  0.6238060174060212  0.6055059857635773  0.4941881802610301
  0.5726523589455590  0.6017885808917024  0.5665180462963391
  0.5796473945751700  0.4748626863757824  0.4190018155844908
  0.5463245771445334  0.5238913647878474  0.3770140001612902
  0.5726535732671735  0.6017968540368847  0.4218466484961283
  0.4536909902078237  0.4760986217384107  0.3770233421677677
  0.4203594974707325  0.5251269105002139  0.4189663167578387
  0.4961388163052536  0.6017173960601451  0.4493265170154127
  0.4961391142211323  0.6017040894389538  0.5390385814687915
  0.4203414986863009  0.5251296880182452  0.5694167159609291
  0.3794324127335610  0.4764771872994776  0.4942013850534755
