C 
 1.0000000000000000
    13.7219354818225039    0.0000000000000000    0.0000000000000000
    -6.8609677409112599   11.8835447163493519    0.0000000000000000
     0.0000000000000000    0.0000000000000000   16.0000000000000000
 C  
 128
Direct
  0.4903253960343975  0.7285701753888272  0.5917970043797921
  0.4263966958692375  0.6082335957752855  0.5967263177085550
  0.5339630393263649  0.7642907834387981  0.5092018932959351
  0.4104333373731367  0.5671861898117736  0.5092088643170932
  0.4759498082645729  0.6624167459809773  0.4557594081044656
  0.5018850373546805  0.8416596159459204  0.4772815577816818
  0.4462640488360843  0.8041980486933574  0.3982134572379696
  0.4225687561656951  0.6868967437250968  0.3879180555580181
  0.4161075396659676  0.8374431604322111  0.5359590225670222
  0.4090591689229433  0.7682744504036302  0.6059979440350957
  0.3025852745639547  0.6724134370274835  0.6286648779622507
  0.3166563014285613  0.8108175275820709  0.4885345467748594
  0.2102149131904868  0.7150172319016637  0.5112004503777174
  0.2031594282934871  0.6458198550798365  0.5812368895940860
  0.3390419861039467  0.7981900918765575  0.3994932164769450
  0.2319734839561693  0.4926623715064153  0.5732521657626908
  0.3161028337692345  0.5715688386258680  0.6290278151591325
  0.1532424137214154  0.5281196677516735  0.5512365238370952
  0.1442473885563636  0.5326007292745202  0.4623204715283294
  0.1648389829111224  0.6412921234766169  0.4367461278935986
  0.2517842575736504  0.6886682019317107  0.3747387164228876
  0.2915097909476875  0.4964760021166303  0.4948634937825210
  0.2380618554060884  0.5209831971191047  0.4270872152088644
  0.3036202617647482  0.6162092151339693  0.3736188906047215
  0.6154282920603650  0.2847191707959396  0.4809120817749649
  0.7323938884710844  0.3375888898007270  0.4596329543185212
  0.5501779721081358  0.1881048748413646  0.4293925768274138
  0.7437933514495852  0.2576337114231576  0.4036323168660094
  0.6326174187722424  0.1663173197661476  0.3852452207583959
  0.4836757454844193  0.0906863054430515  0.4797496151971896
  0.5041049406513737  0.0012069502464546  0.4576939632687507
  0.6043295766829386  0.0521181422868694  0.4024368553136060
  0.5254566042288999  0.1229979312701547  0.5665997760749575
  0.6060343971695731  0.2416809743971431  0.5672945472063955
  0.7181399227998472  0.2813415873777638  0.5984939805076230
  0.5569189796161504  0.0438642331822594  0.5971339776299176
  0.6689658715968307  0.0834999168200937  0.6283447027209473
  0.7495684836122642  0.2021948786257793  0.6290269102852891
  0.5350454159970747 -0.0391192475511152  0.5297518899546932
  0.8678510110540570  0.3001628253624462  0.5179106823862468
  0.7990291363681923  0.3498638744467746  0.5319520181408465
  0.8503850953586635  0.2200350409890098  0.5819765000647883
  0.8217757816566886  0.1132980803057759  0.5462770612012982
  0.7185622141815771  0.0259947054569636  0.5808479660050770
  0.6395408992501007 -0.0362693734396729  0.5160343897319041
  0.8266681535606109  0.2347673180097798  0.4392754406458368
  0.7983933679174396  0.1205962401634051  0.4565617882434738
  0.6872054898686795  0.0292791926785695  0.4381333993343778
 -0.1557998517821115 -0.0490441213734522  0.5845585463325182
 -0.0569807743998829 -0.0448505857742927  0.5477208979152643
 -0.2235724217036082 -0.1590548631163830  0.6199316952404978
 -0.1662685677919748 -0.2222654320218747  0.6047367055437337
 -0.0589287587797258 -0.1510069465812796  0.5625767819429848
 -0.3339798959907167 -0.2146942200330912  0.5795025083371960
 -0.3381870183558323 -0.3095641378467104  0.5345884725058367
 -0.2373518581955835 -0.3156130686555038  0.5518186191484270
 -0.3253142520712148 -0.1369306590470528  0.5140835092657526
 -0.3395010602627055 -0.1867246750378412  0.4314359478356298
 -0.3414781008726894 -0.2928808916914196  0.4463037340650415
 -0.2203100585197949 -0.0301972966642881  0.5202022319890283
 -0.1611083548643302 -0.0221207926259732  0.4421998169703724
 -0.2321787453438360 -0.1154597438345352  0.3892641912069306
 -0.0602853625005840 -0.0281550037855266  0.4594401412551765
 -0.0644858925350164 -0.1230148115942230  0.4145218670533929
 -0.1748859805551086 -0.1786775595902911  0.3740868863494989
 -0.2426635026050722 -0.2886925458952677  0.4094663427791542
 -0.1781357288776315 -0.3075367293468308  0.4738225610380294
 -0.0731231636517884 -0.2007926879093514  0.4799245637580226
  0.2242172673719311 -0.1645536831639767  0.5509018610432207
  0.1710630412929053 -0.1252663205734495  0.6100480084331711
  0.3313733017606614 -0.0701192763519393  0.5288704723078633
  0.3438410134857381  0.0270346319792007  0.5745132472652330
  0.2464022614812047 -0.0061624637346404  0.6287924763121211
  0.3344449956106864 -0.0500322308882868  0.4388668130211568
  0.3415051258622447  0.0595870410573879  0.4317306620730037
  0.3501379511962881  0.1074799571994923  0.5142723543447957
  0.2215684970933458 -0.1303004282686679  0.4098685808639271
  0.1652838153314481 -0.0735078975278464  0.3748082042089385
  0.2406390057505284  0.0455827602678968  0.3935354977613263
  0.1547587378401307 -0.2084039853629696  0.4758313560584415
  0.0615591530939224 -0.1871609125067147  0.4893081338563036
  0.0678313276285590 -0.1067188128282310  0.4290690214235843
  0.0701958387606364 -0.1392906079749096  0.5718425902087121
  0.0772450473763134 -0.0296797905798743  0.5647083611633381
  0.0803229178158390 -0.0095625705006126  0.4747112237353699
  0.1874885267157446  0.0848741429436838  0.4526791151398562
  0.2569432596639827  0.1287288014369435  0.5277623192469089
  0.1901090408584994  0.0506177900538100  0.5937235355336796
  0.1850188202513727  0.2023340382801464  0.4268066565867562
  0.0759673514600652  0.1031713074547242  0.4417043904793317
  0.2359640755163376  0.2458026126476376  0.5066647573710920
  0.1580882338521331  0.1732687192383872  0.5704884466522748
  0.0588071963743350  0.0800850840174157  0.5313860979590577
  0.2563346923716243  0.3605278564900598  0.5162536447934644
  0.1820898346762446  0.3530698847451381  0.5845804560673165
  0.1246866493147268  0.2397926383372551  0.6188156709533604
  0.2067399748042877  0.3794736935310473  0.4419380326453927
  0.1148684671168052  0.3991640884401684  0.4633629131840883
  0.0977419359545077  0.3761071208722629  0.5530393130927739
  0.1709126420311317  0.2876127905744887  0.3823321410395664
  0.0490163835384999  0.2394878482777746  0.3759284584009101
  0.0155898949447956  0.3060028473981041  0.4242484858336549
 -0.0083625976875141  0.1262250231405287  0.4101503897671286
 -0.0826134326211777  0.1187628419349664  0.4784697659077743
 -0.0622617478853634  0.2334761973679002  0.4880786824921886
 -0.0113076684972253  0.2769480798901658  0.5679402131179154
  0.0027864636563770  0.1916509359523903  0.6124170578080532
 -0.0330609805986998  0.0997862773305594  0.5528013215915164
  0.6598671771250451  0.5249671216838445  0.5512996807407434
  0.6485942822811350  0.4172997787753206  0.5284836105371357
  0.5677252973986980  0.5029045568392538  0.6055199293284927
  0.4999849794789687  0.3816990660984185  0.6158970456775293
  0.5514812355084058  0.3259484139195197  0.5710343087010858
  0.5003499887822690  0.5465583352153430  0.5673720992531277
  0.3917292243175163  0.4464753689736346  0.5498472610533015
  0.3908349053318760  0.3467035775614963  0.5813806102236647
  0.5508836089391141  0.5866876875251253  0.4854217453337958
  0.4718506634870256  0.5248619920579415  0.4185558820552286
  0.3747426664123238  0.4335439491291760  0.4611139324166919
  0.6548880158701667  0.5835577311711730  0.4764638277629951
  0.6324974281078898  0.5041370417261856  0.4082115182104561
  0.5233489728496891  0.4691304868832894  0.3736778222873209
  0.6316213611371130  0.4043946888328434  0.4397489092796361
  0.5230086878910846  0.3043130332416609  0.4222181999696381
  0.4556084555638841  0.3479356492983385  0.3840721912918095
  0.3634649134882675  0.3258763340724125  0.4382989083007057
  0.3684463303336333  0.2672706632374256  0.5131363156471960
  0.4724546613986520  0.2641362930386894  0.5041607675448186
