Generated by VASPKIT code               
   1.00000000000000     
    19.1863141336384686    0.0039518901227751    0.0000000000000000
     0.0039542878910613   19.1471647566682641    0.0000000000000000
     0.0000000000000012    0.0000000000000012   19.7170703477029612
  C             
   208
Direct
  0.6059051519041976  0.5619712248690438  0.5154353111975550
  0.0781999323806058  0.0907931565079849  0.4614334602540917
  0.6200716233266281  0.5000606885323265  0.4769419842915721
  0.1135531314829917  0.0519574087844864  0.5125027632844280
  0.5616915206004163  0.6061016710305039  0.4775209174163121
  0.0612697755220744  0.0451686437972722  0.4063464944963753
  0.5743075885067656  0.5000519480614827  0.4165189558231785
  0.1093216072242999  0.9758080989480772  0.4916093066524989
  0.5372032763488750  0.5652614925883214  0.4167971096091179
  0.0758588779904117  0.9740922323027948  0.4259329300936459
  0.4998895525171812  0.6203340591098817  0.5160043311655516
  0.9874031153461257  0.0469075070537610  0.3891184884149020
  0.4381230081367352  0.6061628319073489  0.4775261866750593
  0.9584455228785982  0.9785029246313132  0.3828981298736885
  0.4626877163477066  0.5652707567139325  0.4167907378431999
  0.0136874462139649  0.9319082713231699  0.4123551284300276
  0.4999367710599043  0.5744428204394832  0.5763629900410854
  0.9541454856139786  0.0825385688025636  0.4451415637507664
  0.5650782107562979  0.5373590507378928  0.5761511001847387
  0.0085247703082858  0.1096841236722003  0.4902284571926513
  0.5651263536618789  0.4627155446773415  0.5761465777025166
  0.0079195066976426  0.0911001491712823  0.5595397157300566
  0.4348501451569052  0.5373235004649953  0.5761682375937376
  0.8984460885086311  0.0385297508035631  0.4694181460276258
  0.4348970731327769  0.4626799315595999  0.5761309337833453
  0.8995809617739763  0.0174344863390788  0.5380265309661665
  0.5000388877026257  0.4255962978569827  0.5763237222198392
  0.9550856080736391  0.0431101165100413  0.5826611036811314
  0.3940372989893270  0.5619233692045932  0.5154377468555337
  0.8995681542314279  0.9728139719661000  0.4264357360146844
  0.5618486576755781  0.3939317369772227  0.4774766287547429
  0.0632595501241108  0.9900343542259460  0.6017059924728894
  0.6059402452985968  0.4381471695639994  0.5154084780593872
  0.0778017340624587  0.0576247989648279  0.5752514447627792
  0.5000867073364686  0.3797390963139326  0.5159459623934290
  0.9899715189655991  0.9835841273581083  0.6125205824312342
  0.4382830886692262  0.3939953470752496  0.4774628467963606
  0.9608283941380593  0.9227686058160388  0.5781753406902019
  0.3940751037726287  0.4381017339354359  0.5153996031015734
  0.8995661930520877  0.9392986341301948  0.5400298925194227
  0.3798990271622837  0.5000314316765750  0.4769341750573054
  0.9082463490211741  0.9159918677923782  0.4719811325431391
  0.5372818186117470  0.4348512957925985  0.4167624117253075
  0.0777938022551721  0.9391523969956110  0.5455020746749691
  0.4627666616612469  0.4348583081552478  0.4167625908284011
  0.0143175187796233  0.8987849806949187  0.5324110018593997
  0.4256614915255242  0.5000714377376952  0.4165174318847275
  0.9837076171125896  0.8930446265616963  0.4655913281371842
  0.3600488308668717  0.0678069136418614  0.5565647483798700
  0.6399965126399466  0.9323313337003556  0.5566270475717039
  0.9325649897462630  0.3593778929397760  0.5564636067387395
  0.0674369395060807  0.6407507331130647  0.5564024344482700
  0.6402877288993676  0.0675753075423704  0.5566391562759738
  0.3597243622297539  0.9325224732163002  0.5565870377935398
  0.0676475899163474  0.3594114070159009  0.5564038192613475
  0.9323968955414850  0.6406196239669026  0.5564563784632539
  0.2906795672334964  0.0873525128462987  0.5334261209224656
  0.7093874182977634  0.9128300393770469  0.5335321367603725
  0.9128311238858342  0.2898966762453723  0.5334492475744766
  0.0871517132300999  0.7102297726649811  0.5333542883710964
  0.7096894396033502  0.0870693582606324  0.5335757968047344
  0.2903470358483181  0.9130150069481819  0.5334971033136170
  0.0874440603791410  0.2899360497398925  0.5333208615306917
  0.9126187165817713  0.7101150440357926  0.5334257615632770
  0.3885821843646506  0.1215040524370190  0.5945576172167464
  0.6114807236234150  0.8786296162656495  0.5946241084087520
  0.8790192392227899  0.3880808747020966  0.5944556476812104
  0.1209805834917780  0.6120772293299261  0.5944233317479636
  0.6117889695151532  0.1213465313141944  0.5946029008136072
  0.3882037259601595  0.8787669457530087  0.5945827784758699
  0.1211514013158778  0.3881084148006493  0.5944022807472606
  0.8789036339048769  0.6119091892208662  0.5944607464254400
  0.3341881615094670  0.1775206595486030  0.5926919925419244
  0.6658836187248983  0.8226574672573104  0.5928462911713795
  0.8230411154033993  0.3337112736312723  0.5927556066109116
  0.1769497339117804  0.6664517715816692  0.5927421361237103
  0.6661712048883811  0.1772503926848158  0.5928111428877528
  0.3338075833138061  0.8228750157264831  0.5927633190623651
  0.1772219424831179  0.3337441106346742  0.5926713595665459
  0.8228403168276262  0.6662756791987234  0.5927810751377237
  0.2728191979189676  0.1541821913238967  0.5584095081189968
  0.7273058587407198  0.8460154971400556  0.5585928610275730
  0.8461466534004133  0.2720277848652593  0.5585964267668011
  0.1538444185887941  0.7280993546078550  0.5585226223118482
  0.7276863201479431  0.1538606293225085  0.5586496275619629
  0.2723056409931904  0.8462561319416404  0.5585749813027756
  0.1541847506426795  0.2721326049010214  0.5584130134606414
  0.8458929471430896  0.7279146416682448  0.5585483591900211
  0.4565584968078273  0.1462717812539404  0.5612381016419642
  0.5435092985484337  0.8538277823170033  0.5613043784581352
  0.8543905774338275  0.4562638540461355  0.5612187912019088
  0.1456174151077103  0.5438559173491871  0.5612389768905394
  0.5437892646541985  0.1462235551962915  0.5613088862849677
  0.4562158546536934  0.8538711985488021  0.5613304477661172
  0.1456789132140458  0.4563225073763388  0.5612012445914574
  0.8543546128451762  0.5437256095617561  0.5612062087065156
  0.4291972303998780  0.2156647235711788  0.5329742033779362
  0.5709010087327340  0.7844430406592874  0.5330890640269408
  0.7852152557342916  0.4288878919551389  0.5330114781709834
  0.2147939798530663  0.5712311293865615  0.5330410331093250
  0.5712258511572974  0.2155457361452341  0.5330505383841025
  0.4287813318340779  0.7845625933860456  0.5330783815255556
  0.2148964440782710  0.4290134944662617  0.5329765186947888
  0.7851317872720737  0.5710567279535341  0.5330175501479296
  0.3623428177076456  0.2346843824997878  0.5562932343263498
  0.6377531582564901  0.7654636713530724  0.5564566224988065
  0.7659270548150634  0.3621024443135417  0.5564724787181093
  0.2340613214214095  0.6380401063710489  0.5564647190561408
  0.6380577234282994  0.2344982129071338  0.5564443078863259
  0.3619362761603974  0.7656031884327749  0.5564524028916301
  0.2342687770014123  0.3622204956887251  0.5563817498261989
  0.7657886325066536  0.6378510674394468  0.5564760680397940
  0.4614546264437270  0.0968891590535789  0.4969986658441780
  0.5386064561810699  0.9031883752965446  0.4970479947182608
  0.9035718261752903  0.4611250501091047  0.4968945690381761
  0.0964438570505910  0.5389670303547212  0.4969162636620983
  0.5389490671036455  0.0968743921710072  0.4970214004872154
  0.4611078743407730  0.9032078989731854  0.4970396861303417
  0.0964890201657688  0.4612356398108227  0.4969133337125621
  0.9035352868695703  0.5388567530051632  0.4968943429794892
  0.4565356554233533  0.1460421960527488  0.4326121613324649
  0.5435789487428726  0.8540206031553436  0.4326903980588806
  0.8543908279893293  0.4562525786296336  0.4325672786399663
  0.1456284140654699  0.5438275125363933  0.4325789704536567
  0.5439290869293296  0.1460084348675847  0.4326349525393944
  0.4561584778391331  0.8540515441082538  0.4326595183982727
  0.1456606237329955  0.4564136566048706  0.4325780931956471
  0.8543578799688242  0.5437354513717401  0.4325801859012662
  0.4290740963686411  0.2153970222294401  0.4606626278683190
  0.5710328527357553  0.7846739207611946  0.4607787054716427
  0.7850966833007104  0.4289778679082504  0.4607326129924783
  0.2149120887112179  0.5711168487967486  0.4607618652380601
  0.5713970214002603  0.2152936913019357  0.4607695140376112
  0.4286613608639406  0.7847797947798854  0.4607948899342893
  0.2150224305630155  0.4291873265091141  0.4606828042708128
  0.7850235245139724  0.5709747712515719  0.4607311806983890
  0.4041610823099291  0.0409293513117958  0.4971068080833688
  0.5958898786748501  0.9591701027177614  0.4971451634283217
  0.9593445483357694  0.4035750986798965  0.4969364130938355
  0.0406734669741674  0.5965174918145441  0.4969037926509187
  0.5961300465562439  0.0408095400206571  0.4971395398685239
  0.4039181933470829  0.9592788333398006  0.4971161598555648
  0.0408021882872692  0.4036351236179710  0.4969153631715921
  0.9592216860922133  0.5964513867615351  0.4969253743913810
  0.3600748188724514  0.0676119336876442  0.4375444329033510
  0.6400169133795158  0.9324775346143250  0.4376203158770183
  0.9325663916102597  0.3593327639773247  0.4374836259587658
  0.0674522755373999  0.6407390754297246  0.4374254050768006
  0.6403881129781347  0.0673972542319516  0.4376333792232883
  0.3596914790888990  0.9326831788047498  0.4375889209239565
  0.0676402661179388  0.3594819289670756  0.4374196851521979
  0.9324004715743217  0.6406662950611887  0.4374656362935077
  0.3885923457091660  0.1211789529344370  0.3993749918171907
  0.6115273905004278  0.8788899090390385  0.3994717432140737
  0.8790498347076792  0.3879960768272119  0.3994095441798724
  0.1209735502168264  0.6120526315683533  0.3993795238455233
  0.6119396650201189  0.1210685621199266  0.3995039373508437
  0.3881579869639424  0.8789874874537624  0.3994992300139362
  0.1210805447048434  0.3882168218171559  0.3993374496111688
  0.8789388685664959  0.6119701988848836  0.3993958194205346
  0.2907194159167981  0.0872556132832854  0.4605545982183764
  0.7093894061963079  0.9128930064659061  0.4606725162039363
  0.9128702376505198  0.2898540616499521  0.4605667706771827
  0.0871570692160227  0.7102348565503054  0.4604720792083402
  0.7097372436324783  0.0869871357103148  0.4607077276218827
  0.2903257782499170  0.9131032238443014  0.4606321130454548
  0.0874181191358244  0.2899951191843243  0.4604410107216634
  0.9126622862584749  0.7101714951984696  0.4605361337631144
  0.2727071075324374  0.1539609248499270  0.4352576378070062
  0.7273658687908905  0.8461489072294086  0.4354718269104908
  0.8461868323881742  0.2720046214349420  0.4353965631769131
  0.1538385112099016  0.7280738128959012  0.4353262549660222
  0.7278169042417720  0.1537056534945799  0.4354474770627220
  0.2722592084277770  0.8463783258780497  0.4353670293703398
  0.1541284388546760  0.2722525711829168  0.4352832778549462
  0.8459297625996697  0.7279169375285225  0.4354275970353005
  0.3341513865434006  0.1771752821848787  0.4010010343091260
  0.6659983823977883  0.8228916437557051  0.4011523179711378
  0.8230977054418693  0.3336639906754942  0.4011141837174339
  0.1769306627202110  0.6663887132055072  0.4011047194484039
  0.6663501168722235  0.1769881969471149  0.4011877577403020
  0.3337373739319320  0.8230800344165637  0.4011523422482666
  0.1771402323729497  0.3338839898972098  0.4009850147042470
  0.8228955488702309  0.6663232730000170  0.4011019944728259
  0.3623375919166295  0.2345150510022661  0.4371893632918407
  0.6377972394783403  0.7655785997335667  0.4373514793989997
  0.7659893421165611  0.3620621554998822  0.4373703096669131
  0.2340463541268752  0.6380101482885011  0.4373566187556156
  0.6381390458364117  0.2343697356270430  0.4373376047493708
  0.3619282416442016  0.7657033345396835  0.4373421009149684
  0.2341865293701902  0.3622873060473283  0.4372707301940224
  0.7658451571227687  0.6378903448215336  0.4373688793421811
  0.3158214222916430  0.2576376525738714  0.4967163135703284
  0.6842828106942205  0.7425006276980355  0.4969114159914369
  0.7428331766417128  0.3156070574376094  0.4969345060697528
  0.2571695779158126  0.6845047032460276  0.4969093867846635
  0.6845736622682498  0.2574240392552226  0.4969059758462505
  0.3154552296644823  0.7426696919755819  0.4968884662602028
  0.2574384081688421  0.3157946185868356  0.4967899105149047
  0.7426298122313268  0.6843352950551732  0.4969311999992272
  0.2561473169249998  0.2003084946926941  0.4967731072152176
  0.7439550274703893  0.7998389797536984  0.4969787728339436
  0.7998979611366188  0.2556071681192232  0.4969904262455356
  0.2001196827317123  0.7444991338917861  0.4969200508922307
  0.7442653219801545  0.2000750416434709  0.4969934077016108
  0.2557634272825494  0.8000297428190712  0.4969337523170958
  0.2004382774016214  0.2557539430342939  0.4968070827240927
  0.7996402148403221  0.7443648254469524  0.4969765032987538
 
  0.00000000E+00  0.00000000E+00  0.00000000E+00
  0.00000000E+00  0.00000000E+00  0.00000000E+00
  0.00000000E+00  0.00000000E+00  0.00000000E+00
  0.00000000E+00  0.00000000E+00  0.00000000E+00
  0.00000000E+00  0.00000000E+00  0.00000000E+00
  0.00000000E+00  0.00000000E+00  0.00000000E+00
  0.00000000E+00  0.00000000E+00  0.00000000E+00
  0.00000000E+00  0.00000000E+00  0.00000000E+00
  0.00000000E+00  0.00000000E+00  0.00000000E+00
  0.00000000E+00  0.00000000E+00  0.00000000E+00
  0.00000000E+00  0.00000000E+00  0.00000000E+00
  0.00000000E+00  0.00000000E+00  0.00000000E+00
  0.00000000E+00  0.00000000E+00  0.00000000E+00
  0.00000000E+00  0.00000000E+00  0.00000000E+00
  0.00000000E+00  0.00000000E+00  0.00000000E+00
  0.00000000E+00  0.00000000E+00  0.00000000E+00
  0.00000000E+00  0.00000000E+00  0.00000000E+00
  0.00000000E+00  0.00000000E+00  0.00000000E+00
  0.00000000E+00  0.00000000E+00  0.00000000E+00
  0.00000000E+00  0.00000000E+00  0.00000000E+00
  0.00000000E+00  0.00000000E+00  0.00000000E+00
  0.00000000E+00  0.00000000E+00  0.00000000E+00
  0.00000000E+00  0.00000000E+00  0.00000000E+00
  0.00000000E+00  0.00000000E+00  0.00000000E+00
  0.00000000E+00  0.00000000E+00  0.00000000E+00
  0.00000000E+00  0.00000000E+00  0.00000000E+00
  0.00000000E+00  0.00000000E+00  0.00000000E+00
  0.00000000E+00  0.00000000E+00  0.00000000E+00
  0.00000000E+00  0.00000000E+00  0.00000000E+00
  0.00000000E+00  0.00000000E+00  0.00000000E+00
  0.00000000E+00  0.00000000E+00  0.00000000E+00
  0.00000000E+00  0.00000000E+00  0.00000000E+00
  0.00000000E+00  0.00000000E+00  0.00000000E+00
  0.00000000E+00  0.00000000E+00  0.00000000E+00
  0.00000000E+00  0.00000000E+00  0.00000000E+00
  0.00000000E+00  0.00000000E+00  0.00000000E+00
  0.00000000E+00  0.00000000E+00  0.00000000E+00
  0.00000000E+00  0.00000000E+00  0.00000000E+00
  0.00000000E+00  0.00000000E+00  0.00000000E+00
  0.00000000E+00  0.00000000E+00  0.00000000E+00
  0.00000000E+00  0.00000000E+00  0.00000000E+00
  0.00000000E+00  0.00000000E+00  0.00000000E+00
  0.00000000E+00  0.00000000E+00  0.00000000E+00
  0.00000000E+00  0.00000000E+00  0.00000000E+00
  0.00000000E+00  0.00000000E+00  0.00000000E+00
  0.00000000E+00  0.00000000E+00  0.00000000E+00
  0.00000000E+00  0.00000000E+00  0.00000000E+00
  0.00000000E+00  0.00000000E+00  0.00000000E+00
  0.00000000E+00  0.00000000E+00  0.00000000E+00
  0.00000000E+00  0.00000000E+00  0.00000000E+00
  0.00000000E+00  0.00000000E+00  0.00000000E+00
  0.00000000E+00  0.00000000E+00  0.00000000E+00
  0.00000000E+00  0.00000000E+00  0.00000000E+00
  0.00000000E+00  0.00000000E+00  0.00000000E+00
  0.00000000E+00  0.00000000E+00  0.00000000E+00
  0.00000000E+00  0.00000000E+00  0.00000000E+00
  0.00000000E+00  0.00000000E+00  0.00000000E+00
  0.00000000E+00  0.00000000E+00  0.00000000E+00
  0.00000000E+00  0.00000000E+00  0.00000000E+00
  0.00000000E+00  0.00000000E+00  0.00000000E+00
  0.00000000E+00  0.00000000E+00  0.00000000E+00
  0.00000000E+00  0.00000000E+00  0.00000000E+00
  0.00000000E+00  0.00000000E+00  0.00000000E+00
  0.00000000E+00  0.00000000E+00  0.00000000E+00
  0.00000000E+00  0.00000000E+00  0.00000000E+00
  0.00000000E+00  0.00000000E+00  0.00000000E+00
  0.00000000E+00  0.00000000E+00  0.00000000E+00
  0.00000000E+00  0.00000000E+00  0.00000000E+00
  0.00000000E+00  0.00000000E+00  0.00000000E+00
  0.00000000E+00  0.00000000E+00  0.00000000E+00
  0.00000000E+00  0.00000000E+00  0.00000000E+00
  0.00000000E+00  0.00000000E+00  0.00000000E+00
  0.00000000E+00  0.00000000E+00  0.00000000E+00
  0.00000000E+00  0.00000000E+00  0.00000000E+00
  0.00000000E+00  0.00000000E+00  0.00000000E+00
  0.00000000E+00  0.00000000E+00  0.00000000E+00
  0.00000000E+00  0.00000000E+00  0.00000000E+00
  0.00000000E+00  0.00000000E+00  0.00000000E+00
  0.00000000E+00  0.00000000E+00  0.00000000E+00
  0.00000000E+00  0.00000000E+00  0.00000000E+00
  0.00000000E+00  0.00000000E+00  0.00000000E+00
  0.00000000E+00  0.00000000E+00  0.00000000E+00
  0.00000000E+00  0.00000000E+00  0.00000000E+00
  0.00000000E+00  0.00000000E+00  0.00000000E+00
  0.00000000E+00  0.00000000E+00  0.00000000E+00
  0.00000000E+00  0.00000000E+00  0.00000000E+00
  0.00000000E+00  0.00000000E+00  0.00000000E+00
  0.00000000E+00  0.00000000E+00  0.00000000E+00
  0.00000000E+00  0.00000000E+00  0.00000000E+00
  0.00000000E+00  0.00000000E+00  0.00000000E+00
  0.00000000E+00  0.00000000E+00  0.00000000E+00
  0.00000000E+00  0.00000000E+00  0.00000000E+00
  0.00000000E+00  0.00000000E+00  0.00000000E+00
  0.00000000E+00  0.00000000E+00  0.00000000E+00
  0.00000000E+00  0.00000000E+00  0.00000000E+00
  0.00000000E+00  0.00000000E+00  0.00000000E+00
  0.00000000E+00  0.00000000E+00  0.00000000E+00
  0.00000000E+00  0.00000000E+00  0.00000000E+00
  0.00000000E+00  0.00000000E+00  0.00000000E+00
  0.00000000E+00  0.00000000E+00  0.00000000E+00
  0.00000000E+00  0.00000000E+00  0.00000000E+00
  0.00000000E+00  0.00000000E+00  0.00000000E+00
  0.00000000E+00  0.00000000E+00  0.00000000E+00
  0.00000000E+00  0.00000000E+00  0.00000000E+00
  0.00000000E+00  0.00000000E+00  0.00000000E+00
  0.00000000E+00  0.00000000E+00  0.00000000E+00
  0.00000000E+00  0.00000000E+00  0.00000000E+00
  0.00000000E+00  0.00000000E+00  0.00000000E+00
  0.00000000E+00  0.00000000E+00  0.00000000E+00
  0.00000000E+00  0.00000000E+00  0.00000000E+00
  0.00000000E+00  0.00000000E+00  0.00000000E+00
  0.00000000E+00  0.00000000E+00  0.00000000E+00
  0.00000000E+00  0.00000000E+00  0.00000000E+00
  0.00000000E+00  0.00000000E+00  0.00000000E+00
  0.00000000E+00  0.00000000E+00  0.00000000E+00
  0.00000000E+00  0.00000000E+00  0.00000000E+00
  0.00000000E+00  0.00000000E+00  0.00000000E+00
  0.00000000E+00  0.00000000E+00  0.00000000E+00
  0.00000000E+00  0.00000000E+00  0.00000000E+00
  0.00000000E+00  0.00000000E+00  0.00000000E+00
  0.00000000E+00  0.00000000E+00  0.00000000E+00
  0.00000000E+00  0.00000000E+00  0.00000000E+00
  0.00000000E+00  0.00000000E+00  0.00000000E+00
  0.00000000E+00  0.00000000E+00  0.00000000E+00
  0.00000000E+00  0.00000000E+00  0.00000000E+00
  0.00000000E+00  0.00000000E+00  0.00000000E+00
  0.00000000E+00  0.00000000E+00  0.00000000E+00
  0.00000000E+00  0.00000000E+00  0.00000000E+00
  0.00000000E+00  0.00000000E+00  0.00000000E+00
  0.00000000E+00  0.00000000E+00  0.00000000E+00
  0.00000000E+00  0.00000000E+00  0.00000000E+00
  0.00000000E+00  0.00000000E+00  0.00000000E+00
  0.00000000E+00  0.00000000E+00  0.00000000E+00
  0.00000000E+00  0.00000000E+00  0.00000000E+00
  0.00000000E+00  0.00000000E+00  0.00000000E+00
  0.00000000E+00  0.00000000E+00  0.00000000E+00
  0.00000000E+00  0.00000000E+00  0.00000000E+00
  0.00000000E+00  0.00000000E+00  0.00000000E+00
  0.00000000E+00  0.00000000E+00  0.00000000E+00
  0.00000000E+00  0.00000000E+00  0.00000000E+00
  0.00000000E+00  0.00000000E+00  0.00000000E+00
  0.00000000E+00  0.00000000E+00  0.00000000E+00
  0.00000000E+00  0.00000000E+00  0.00000000E+00
  0.00000000E+00  0.00000000E+00  0.00000000E+00
  0.00000000E+00  0.00000000E+00  0.00000000E+00
  0.00000000E+00  0.00000000E+00  0.00000000E+00
  0.00000000E+00  0.00000000E+00  0.00000000E+00
  0.00000000E+00  0.00000000E+00  0.00000000E+00
  0.00000000E+00  0.00000000E+00  0.00000000E+00
  0.00000000E+00  0.00000000E+00  0.00000000E+00
  0.00000000E+00  0.00000000E+00  0.00000000E+00
  0.00000000E+00  0.00000000E+00  0.00000000E+00
  0.00000000E+00  0.00000000E+00  0.00000000E+00
  0.00000000E+00  0.00000000E+00  0.00000000E+00
  0.00000000E+00  0.00000000E+00  0.00000000E+00
  0.00000000E+00  0.00000000E+00  0.00000000E+00
  0.00000000E+00  0.00000000E+00  0.00000000E+00
  0.00000000E+00  0.00000000E+00  0.00000000E+00
  0.00000000E+00  0.00000000E+00  0.00000000E+00
  0.00000000E+00  0.00000000E+00  0.00000000E+00
  0.00000000E+00  0.00000000E+00  0.00000000E+00
  0.00000000E+00  0.00000000E+00  0.00000000E+00
  0.00000000E+00  0.00000000E+00  0.00000000E+00
  0.00000000E+00  0.00000000E+00  0.00000000E+00
  0.00000000E+00  0.00000000E+00  0.00000000E+00
  0.00000000E+00  0.00000000E+00  0.00000000E+00
  0.00000000E+00  0.00000000E+00  0.00000000E+00
  0.00000000E+00  0.00000000E+00  0.00000000E+00
  0.00000000E+00  0.00000000E+00  0.00000000E+00
  0.00000000E+00  0.00000000E+00  0.00000000E+00
  0.00000000E+00  0.00000000E+00  0.00000000E+00
  0.00000000E+00  0.00000000E+00  0.00000000E+00
  0.00000000E+00  0.00000000E+00  0.00000000E+00
  0.00000000E+00  0.00000000E+00  0.00000000E+00
  0.00000000E+00  0.00000000E+00  0.00000000E+00
  0.00000000E+00  0.00000000E+00  0.00000000E+00
  0.00000000E+00  0.00000000E+00  0.00000000E+00
  0.00000000E+00  0.00000000E+00  0.00000000E+00
  0.00000000E+00  0.00000000E+00  0.00000000E+00
  0.00000000E+00  0.00000000E+00  0.00000000E+00
  0.00000000E+00  0.00000000E+00  0.00000000E+00
  0.00000000E+00  0.00000000E+00  0.00000000E+00
  0.00000000E+00  0.00000000E+00  0.00000000E+00
  0.00000000E+00  0.00000000E+00  0.00000000E+00
  0.00000000E+00  0.00000000E+00  0.00000000E+00
  0.00000000E+00  0.00000000E+00  0.00000000E+00
  0.00000000E+00  0.00000000E+00  0.00000000E+00
  0.00000000E+00  0.00000000E+00  0.00000000E+00
  0.00000000E+00  0.00000000E+00  0.00000000E+00
  0.00000000E+00  0.00000000E+00  0.00000000E+00
  0.00000000E+00  0.00000000E+00  0.00000000E+00
  0.00000000E+00  0.00000000E+00  0.00000000E+00
  0.00000000E+00  0.00000000E+00  0.00000000E+00
  0.00000000E+00  0.00000000E+00  0.00000000E+00
  0.00000000E+00  0.00000000E+00  0.00000000E+00
  0.00000000E+00  0.00000000E+00  0.00000000E+00
  0.00000000E+00  0.00000000E+00  0.00000000E+00
  0.00000000E+00  0.00000000E+00  0.00000000E+00
  0.00000000E+00  0.00000000E+00  0.00000000E+00
  0.00000000E+00  0.00000000E+00  0.00000000E+00
  0.00000000E+00  0.00000000E+00  0.00000000E+00
  0.00000000E+00  0.00000000E+00  0.00000000E+00
  0.00000000E+00  0.00000000E+00  0.00000000E+00
  0.00000000E+00  0.00000000E+00  0.00000000E+00
  0.00000000E+00  0.00000000E+00  0.00000000E+00
  0.00000000E+00  0.00000000E+00  0.00000000E+00
  0.00000000E+00  0.00000000E+00  0.00000000E+00
  0.00000000E+00  0.00000000E+00  0.00000000E+00
