C 
 1.0000000000000000
    13.1561918210456188    0.0000000000000000    0.0000000000000000
    -6.5780959105228174   11.3935963340865616    0.0000000000000000
     0.0000000000000000    0.0000000000000000   16.0000000000000000
 C  
 108
Direct
  0.5259368927477038  0.7012173785163188  0.4711071362410423
  0.4442701719685964  0.5913679863951206  0.4334188792230853
  0.5166925029329877  0.7955504461936471  0.4343566606569156
  0.3640519726990406  0.6148263141570313  0.3823413850252713
  0.4081307142955823  0.7394101672169340  0.3829826101826875
  0.4974608615689179  0.8613437987607493  0.4973773643118911
  0.3947574997289666  0.8688372957846464  0.4790222646500135
  0.3337899887878327  0.7843416402541836  0.4101912838756218
  0.4706894761963474  0.7915473958397866  0.5753959977689608
  0.4881209286510262  0.6936179591984317  0.5593127568299552
  0.3943650276971410  0.5756012379411640  0.5743059093867279
  0.3594710985972983  0.7715339659615246  0.6065157946010470
  0.2657575114362089  0.6535717883959065  0.6215283524823223
  0.2831731185590703  0.5556212484038479  0.6054292042436942
  0.3153049669273688  0.8287536522338205  0.5483698934782490
  0.2507049671253876  0.4611659814613412  0.4769690914507749
  0.3725685152855617  0.5079110178454191  0.4955946448306841
  0.1904044931392058  0.4753316636055375  0.5466119242090187
  0.1287960164370177  0.5344286029916245  0.5216964074253819
  0.1619976207785719  0.6355126991990242  0.5729239587894954
  0.2011636609952889  0.7386467184836378  0.5226393514224126
  0.2456557979838661  0.5351634298795060  0.4089722951098309
  0.1713161101004951  0.5800494174992586  0.4362702738061009
  0.2154120853605174  0.7046561937815415  0.4368725680617876
  0.1988423388903939  0.0364546443771506  0.4810133155033250
  0.1028724415789285 -0.0750480253709783  0.4560191272164473
  0.2045838604429994  0.1287794110377558  0.4301453873402591
  0.0311098788852402 -0.0488479011840353  0.3978228575188274
  0.0930766266927588  0.0755566810317532  0.3820974321048972
  0.2042332656151831  0.2180636079828918  0.4810659559456368
  0.1120690199208120  0.2396976616383824  0.4561814745963152
  0.0367158411469741  0.1434404077029363  0.3979107606619601
  0.1739347714009011  0.1687244014669935  0.5667747612536831
  0.1706509691617570  0.0576495281507534  0.5667267590857308
  0.0665978410159688 -0.0469196960300756  0.5940576661339434
  0.0731544052062727  0.1753249908761026  0.5941834413654608
 -0.0308494348245446  0.0708109923051752  0.6215275368777841
 -0.0341525082916712 -0.0402874839991665  0.6214662081574414
  0.0392087573033584  0.2290799608653813  0.5259514950601567
 -0.0905333682222128 -0.1674085784281063  0.5076938117481191
  0.0285811431970708 -0.1348790312393660  0.5257218911403641
 -0.1364467246811540 -0.1238434683917546  0.5706296680988070
 -0.1830242755652146 -0.0565049456938189  0.5337956456680835
 -0.1309806441171910  0.0578217078989168  0.5707189921157053
 -0.0813550382448560  0.1473714008377240  0.5079185510607274
 -0.0871935858497958 -0.1053678804463193  0.4294268516572163
 -0.1435544700467697 -0.0375098060683983  0.4453348567441507
 -0.0815712724653241  0.0869060778363886  0.4295686761343669
  0.4347643524073004  0.4537846834825374  0.5763579638380449
  0.4941412434309685  0.4026195332958672  0.6215225168757795
  0.3269020134111249  0.3591024758205737  0.5443443966670297
  0.3202274348341144  0.2499234672202677  0.5698856790860944
  0.4218079978020722  0.2745795012063595  0.6215251734640360
  0.3269042243681544  0.3663149058884549  0.4531093802939568
  0.3280716987938522  0.2613417871268071  0.4244311970459056
  0.3209386523502332  0.1892881221981315  0.4955213382333997
  0.4430471782609960  0.4630539603792047  0.4322306614655401
  0.5090025722780844  0.4234232221763881  0.3821069277428663
  0.4366513651641886  0.2953997390790916  0.3820968775032726
  0.5077730401578102  0.5250954158598342  0.5068157438480062
  0.6098595589588000  0.5087299658690503  0.5080941985571465
  0.6105972352021534  0.4480994287380946  0.4337302550143688
  0.6027206967165741  0.4367000921289935  0.5791822268893816
  0.6038992634246931  0.3317355837218590  0.5505067540648906
  0.6038970598448914  0.3389161948797340  0.4592724233890771
  0.4960245750319971  0.2442311085168107  0.4272584563773454
  0.4230200874671921  0.1729126736349285  0.4968118153937882
  0.4877718105514016  0.2349640194660131  0.5713949378273362
  0.6314107088860819  0.1527669065989908  0.6159986189941967
  0.7262640790770135  0.2561639676866032  0.5764106634153663
  0.6639777088747389  0.0636708071877556  0.6171210655371507
  0.7787859432086556  0.1124949202954905  0.5781921134647162
  0.8223249950210574  0.2350705164818618  0.5551920392750799
  0.5776419814900636 -0.0384555071741001  0.5699087902661237
  0.6427025075868146 -0.0447891816120058  0.4978745550231727
  0.7655970492384055  0.0452254143981544  0.5042455706310330
  0.4984197890957344 -0.0022475323904168  0.5350118670937929
  0.5009205765977011 -0.0018188276908207  0.4440222520164586
  0.5969527197439758 -0.0229427538068877  0.4228167014191749
  0.5230425772434991  0.1109691199706293  0.5680470175502876
  0.5576184420451146  0.1879957689553491  0.4949754373570788
  0.5444308059029800  0.1207441942290300  0.4210147562034163
  0.6804896163957106  0.2779984130933199  0.5013615076946223
  0.7455472484822936  0.2716735225988785  0.4293262387942869
  0.6592385739944112  0.1695522598375800  0.3821004163141716
  0.6918057619924620  0.0804492528742252  0.3832276011052220
  0.8001910843811088  0.1222640500247677  0.4311786942858724
  0.8248085867713317  0.2354944355424099  0.4642014453025897
  0.9654018628154484  0.4542340501894885  0.5226866740033705
  0.8423342809662813  0.3817580422227335  0.5006298304187343
  0.9717493696320940  0.5219363357287650  0.5948774879201446
  0.8525490365563476  0.4909462174355889  0.6170277839122940
  0.7689879504398867  0.3993119861257739  0.5609944717970397
  1.0404689363057829  0.6469641556187242  0.5747229889157085
  0.9564132508771842  0.6887229475767516  0.5799539753567126
  0.8430397516297307  0.5943822042817800  0.6077829134180669
  1.0659542850206847  0.6501563063063326  0.4858636080958305
  1.0138605009451975  0.7068580478389773  0.4381452530167462
  0.9405517998569335  0.7244325776128603  0.4985166460306521
  1.0298210871351627  0.5334037855113837  0.4536736357156802
  0.9398437663862085  0.5118126281359766  0.3913593439362327
  0.9303199619201551  0.6152427014936697  0.3820972986423611
  0.8264991152183304  0.4174753412105580  0.4191887774274438
  0.7424420691793944  0.4592279975048608  0.4244123459590546
  0.8111332330855504  0.5842565499941318  0.4042644301404987
  0.8174854631085091  0.6519614687202749  0.4764618961992191
  0.7530481722163123  0.5727758065762183  0.5454755254363860
  0.7169074439793635  0.4560205983813552  0.5132676731744622
