C 
 1.0000000000000000
    10.8503834940749453    0.0000000000000000    0.0000000000000000
     0.0000000000000000    8.5638867765665054    0.0000000000000000
     0.0000000000000000    0.0000000000000000   16.0000000000000000
 C  
  88
Direct
  0.2510631951438915 -0.1249874891458490  0.6027598649015101
  0.3298102187898890 -0.0824308723203872  0.5345526023471312
  0.1984438835478916  0.0108697845856499  0.6408847461436660
  0.3062072313058520  0.0856569275448080  0.5186266333621455
  0.2259127333350206  0.1426023104662690  0.5834437406005254
  0.0669241222143442 -0.0011618087998219  0.6436394190110364
  0.0105401203679541  0.1321941217388373  0.6052985602232599
  0.1111562741332294  0.2168060346509278  0.5618442363104013
  0.0341615450374015 -0.1366802820037304  0.5902835890695424
  0.1468037949270100 -0.2124023014095105  0.5652932241252334
  0.1733704639698336 -0.2354936248964015  0.4779636225401794
 -0.0520412519912512 -0.0840168108876722  0.5279489505168719
 -0.0255131944782800 -0.1071319579787333  0.4406538440478055
  0.0871525262961179 -0.1828339590240702  0.4156520917117822
 -0.0744482817938691  0.0852132690568390  0.5416105303433090
  0.2733628668478135 -0.0543913947947294  0.3932712812792619
  0.2947788582967417 -0.1629142074699383  0.4598195240877283
  0.1533675564526040 -0.0765555757417465  0.3577859476388343
  0.0854372947159585  0.0668039348025531  0.3576748863859434
 -0.0308143162569482  0.0471893455783883  0.3987071391901901
 -0.0460012562207005  0.1601813323156708  0.4639951536730398
  0.2717079576826898  0.1027978695856550  0.4322032802178373
  0.1569048580280791  0.1768429709188301  0.4105691617945920
  0.0766396544785421  0.2338423832281615  0.4754102199117958
  0.2489368048561089  0.3750125108541510  0.6027598649015101
  0.1701897812101114  0.4175691276796129  0.5345526023471312
  0.3015561164521088  0.5108697845856499  0.6408847461436660
  0.1937927686941484  0.5856569275448080  0.5186266333621455
  0.2740872666649798  0.6426023104662689  0.5834437406005254
  0.4330758777856562  0.4988381912001780  0.6436394190110364
  0.4894598796320463  0.6321941217388373  0.6052985602232599
  0.3888437258667711  0.7168060346509278  0.5618442363104013
  0.4658384549625990  0.3633197179962696  0.5902835890695424
  0.3531962050729904  0.2875976985904895  0.5652932241252334
  0.3266295360301668  0.2645063751035985  0.4779636225401794
  0.5520412519912516  0.4159831891123278  0.5279489505168719
  0.5255131944782805  0.3928680420212667  0.4406538440478055
  0.4128474737038825  0.3171660409759298  0.4156520917117822
  0.5744482817938695  0.5852132690568390  0.5416105303433090
  0.2266371331521869  0.4456086052052706  0.3932712812792619
  0.2052211417032587  0.3370857925300617  0.4598195240877283
  0.3466324435473964  0.4234444242582535  0.3577859476388343
  0.4145627052840419  0.5668039348025532  0.3576748863859434
  0.5308143162569486  0.5471893455783883  0.3987071391901901
  0.5460012562207009  0.6601813323156709  0.4639951536730398
  0.2282920423173105  0.6027978695856550  0.4322032802178373
  0.3430951419719213  0.6768429709188301  0.4105691617945920
  0.4233603455214584  0.7338423832281615  0.4754102199117958
  0.5385508515334565 -0.1351826152328502  0.5484096027912617
  0.4646993821429742 -0.0754469995759932  0.4797285895585472
  0.5800206631890107 -0.0038552258659870  0.5965280005744285
  0.5315887451996388  0.1363480528341103  0.5572985818639442
  0.4543652650791754  0.0945018878251241  0.4857676931354639
  0.7148039380664692  0.0000860922093787  0.5965936467441372
  0.7461643396287759  0.1426023795309996  0.5509261840770318
  0.6346226105836830  0.2271859351982923  0.5290264726434237
  0.7509401073257155 -0.1262998826304831  0.5408232199635655
  0.8180181901132810 -0.0678335332176077  0.4684754543323358
  0.8077051188645341  0.1020957315337828  0.4745358116231057
  0.6452307138800575 -0.2201505031023594  0.5159124957016712
  0.6377872234717563 -0.2005351709109384  0.4252327058978122
  0.7408199877697492 -0.1097041377830392  0.3969408709477349
  0.5262512523618716 -0.1159825504621575  0.4033476289620040
  0.5576081288827862  0.0265218014973064  0.3576747293082843
  0.6923873121339454  0.0305050185349434  0.3577307539920886
  0.7338578038265805  0.1618364345617005  0.4058562760676460
  0.6271606280980432  0.2468127572824329  0.4383470778089258
  0.5214541392495629  0.1529489486904902  0.4134191627581869
 -0.0385508515334560  0.3648173847671498  0.5484096027912617
  0.0353006178570263  0.4245530004240068  0.4797285895585472
 -0.0800206631890102  0.4961447741340129  0.5965280005744285
 -0.0315887451996383  0.6363480528341102  0.5572985818639442
  0.0456347349208251  0.5945018878251241  0.4857676931354639
 -0.2148039380664688  0.5000860922093786  0.5965936467441372
 -0.2461643396287754  0.6426023795309994  0.5509261840770318
 -0.1346226105836824  0.7271859351982923  0.5290264726434237
 -0.2509401073257151  0.3737001173695169  0.5408232199635655
 -0.3180181901132805  0.4321664667823923  0.4684754543323358
 -0.3077051188645336  0.6020957315337828  0.4745358116231057
 -0.1452307138800570  0.2798494968976406  0.5159124957016712
 -0.1377872234717558  0.2994648290890616  0.4252327058978122
 -0.2408199877697488  0.3902958622169608  0.3969408709477349
 -0.0262512523618712  0.3840174495378425  0.4033476289620040
 -0.0576081288827857  0.5265218014973064  0.3576747293082843
 -0.1923873121339449  0.5305050185349434  0.3577307539920886
 -0.2338578038265800  0.6618364345617005  0.4058562760676460
 -0.1271606280980427  0.7468127572824329  0.4383470778089258
 -0.0214541392495624  0.6529489486904902  0.4134191627581869
