C 
 1.0000000000000000
     8.8104576246485973    0.0000000000000000    0.0000000000000000
     0.0000000000000000   15.2386094897620517    0.0000000000000000
     0.0000000000000000    0.0000000000000000   16.0000000000000000
 C  
 128
Direct
 -0.1817631385826476 -0.0067805686047664  0.6078606889590100
 -0.0584791387804993  0.0455324345988594  0.6383871591491003
 -0.2514201710229487  0.0337659287021281  0.5367831231292136
 -0.0302756466482635  0.1131479636946667  0.5734582589916548
 -0.1478864496723328  0.1059193046720155  0.5113806962012405
 -0.2557458352900303 -0.0257481875479083  0.4676066204123737
 -0.1865120590721904  0.0126138597438578  0.3952289972036097
 -0.1084890846265299  0.0930503156656688  0.4248973275821540
 -0.1580304076146809 -0.1010748208355974  0.4912644796158606
 -0.1128037570738325 -0.0894604634865427  0.5770534845860150
  0.0457747914586103 -0.0885819032249309  0.5989165195207027
 -0.0446864240089446 -0.1118478005641013  0.4272578958470623
  0.1138297805633327 -0.1109962556651721  0.4491068749240171
  0.1590769015772686 -0.0993629974888045  0.5349027142882131
 -0.0702247870095234 -0.0434139223904994  0.3626337312890210
  0.1982127051067584  0.0361868481748835  0.5984819932226465
  0.0777964246714922 -0.0053077031601891  0.6438146724357224
  0.2633262496030803 -0.0229969217971921  0.5388253005330889
  0.2631400948217846  0.0149666503543328  0.4569555788200371
  0.1892685389196919 -0.0420194702209662  0.3985724169580999
  0.0702205908796331  0.0032058327493555  0.3552878508229779
  0.1267455180674384  0.1074384509820621  0.5490679911955777
  0.1662067429202237  0.0944777048440543  0.4626077129823898
  0.0485520415077078  0.0872857208047865  0.4005297135177701
  0.6817631385826476  0.4932194313952335  0.6078606889590100
  0.5584791387804993  0.5455324345988594  0.6383871591491003
  0.7514201710229488  0.5337659287021280  0.5367831231292136
  0.5302756466482634  0.6131479636946666  0.5734582589916548
  0.6478864496723328  0.6059193046720155  0.5113806962012405
  0.7557458352900303  0.4742518124520916  0.4676066204123737
  0.6865120590721905  0.5126138597438578  0.3952289972036097
  0.6084890846265300  0.5930503156656687  0.4248973275821540
  0.6580304076146809  0.3989251791644025  0.4912644796158606
  0.6128037570738326  0.4105395365134572  0.5770534845860150
  0.4542252085413897  0.4114180967750690  0.5989165195207027
  0.5446864240089446  0.3881521994358986  0.4272578958470623
  0.3861702194366672  0.3890037443348278  0.4491068749240171
  0.3409230984227314  0.4006370025111954  0.5349027142882131
  0.5702247870095234  0.4565860776095006  0.3626337312890210
  0.3017872948932416  0.5361868481748834  0.5984819932226465
  0.4222035753285078  0.4946922968398109  0.6438146724357224
  0.2366737503969197  0.4770030782028079  0.5388253005330889
  0.2368599051782153  0.5149666503543328  0.4569555788200371
  0.3107314610803081  0.4579805297790337  0.3985724169580999
  0.4297794091203669  0.5032058327493555  0.3552878508229779
  0.3732544819325616  0.6074384509820620  0.5490679911955777
  0.3337932570797763  0.5944777048440543  0.4626077129823898
  0.4514479584922922  0.5872857208047865  0.4005297135177701
  0.3831863475091151  0.7239570278191139  0.5309140966893175
  0.2889068805347405  0.7985506916722672  0.5084386351685358
  0.5043593074361756  0.7558761859322185  0.5825951446940154
  0.4843185529664348  0.8500421617082433  0.5917568954077230
  0.3460863436605027  0.8781337470527953  0.5487328519848735
  0.6498465298737814  0.7372282075045025  0.5422783079695190
  0.7123243657587619  0.8236328232530730  0.5222573436473599
  0.6132969649387110  0.8920632916830600  0.5543472029458661
  0.6091849706279772  0.6997503516899320  0.4615838729488140
  0.6628922207544827  0.7541703840686164  0.3928690589179668
  0.7200984943763342  0.8337300884498449  0.4331705670342831
  0.4466164385407448  0.6836970179175879  0.4556287220638096
  0.3957119760862405  0.7402202983376941  0.3872564746747643
  0.5246756258296335  0.7822483419398205  0.3498296455381855
  0.2966870594177377  0.8086277037816685  0.4193507185155886
  0.3591535514414784  0.8950299216306046  0.3993241105245374
  0.5046470418585030  0.8764074384257029  0.3590085682595074
  0.6258262276213995  0.9083247974853936  0.4106960134746348
  0.5623773577543197  0.9485946649499372  0.4859830969245550
  0.3997973324289101  0.9325433247577668  0.4800104654291139
  0.6372000926254948  0.2467847242058175  0.6005612724844724
  0.7094834310202460  0.1672029064616768  0.5702551114973031
  0.5020165413896417  0.2214783585237436  0.6444374329494511
  0.4914754664584108  0.1263797939156316  0.6409847107123573
  0.6238016314757202  0.0902211891035384  0.5977939750434348
  0.3699504047581184  0.2609952980578813  0.6037693159075057
  0.2844138682994662  0.1864618023116426  0.5706188044027656
  0.3565187928729985  0.1046621898653147  0.5952143211032060
  0.4314075489367155  0.3044828512462925  0.5301058947378713
  0.3703742616844285  0.2670083421924907  0.4534288833813878
  0.2846724559960036  0.1900512100265287  0.4809775494744833
  0.5966742726859220  0.3034315208558386  0.5302092192589445
  0.6376334086030924  0.2525903562143827  0.4560124083157112
  0.5026912076184005  0.2308668526793089  0.4102244682057799
  0.7097424753933973  0.1708128380532009  0.4806153797078635
  0.6242185116572061  0.0962812506604198  0.4474598830673918
  0.4921381890951828  0.1357738699043684  0.4067893869037498
  0.3569482918676578  0.1104690226557964  0.4506719747105827
  0.3974892892698362  0.0538103676790718  0.5210247953721328
  0.5627688387760442  0.0527583269467621  0.5211108313663317
  1.1168136524908852  0.2239570278191138  0.5309140966893175
  1.2110931194652597  0.2985506916722671  0.5084386351685358
  0.9956406925638246  0.2558761859322184  0.5825951446940154
  1.0156814470335653  0.3500421617082433  0.5917568954077230
  1.1539136563394976  0.3781337470527953  0.5487328519848735
  0.8501534701262188  0.2372282075045024  0.5422783079695190
  0.7876756342412383  0.3236328232530729  0.5222573436473599
  0.8867030350612892  0.3920632916830599  0.5543472029458661
  0.8908150293720231  0.1997503516899320  0.4615838729488140
  0.8371077792455175  0.2541703840686163  0.3928690589179668
  0.7799015056236660  0.3337300884498447  0.4331705670342831
  1.0533835614592553  0.1836970179175878  0.4556287220638096
  1.1042880239137596  0.2402202983376940  0.3872564746747643
  0.9753243741703668  0.2822483419398204  0.3498296455381855
  1.2033129405822627  0.3086277037816684  0.4193507185155886
  1.1408464485585217  0.3950299216306045  0.3993241105245374
  0.9953529581414970  0.3764074384257028  0.3590085682595074
  0.8741737723786006  0.4083247974853936  0.4106960134746348
  0.9376226422456804  0.4485946649499372  0.4859830969245550
  1.1002026675710901  0.4325433247577668  0.4800104654291139
 -0.1372000926254948  0.7467847242058174  0.6005612724844724
 -0.2094834310202461  0.6672029064616767  0.5702551114973031
 -0.0020165413896416  0.7214783585237435  0.6444374329494511
  0.0085245335415892  0.6263797939156316  0.6409847107123573
 -0.1238016314757202  0.5902211891035383  0.5977939750434348
  0.1300495952418816  0.7609952980578814  0.6037693159075057
  0.2155861317005338  0.6864618023116426  0.5706188044027656
  0.1434812071270015  0.6046621898653147  0.5952143211032060
  0.0685924510632845  0.8044828512462926  0.5301058947378713
  0.1296257383155715  0.7670083421924906  0.4534288833813878
  0.2153275440039964  0.6900512100265288  0.4809775494744833
 -0.0966742726859220  0.8034315208558386  0.5302092192589445
 -0.1376334086030923  0.7525903562143827  0.4560124083157112
 -0.0026912076184005  0.7308668526793090  0.4102244682057799
 -0.2097424753933973  0.6708128380532008  0.4806153797078635
 -0.1242185116572061  0.5962812506604198  0.4474598830673918
  0.0078618109048173  0.6357738699043683  0.4067893869037498
  0.1430517081323422  0.6104690226557965  0.4506719747105827
  0.1025107107301638  0.5538103676790719  0.5210247953721328
 -0.0627688387760443  0.5527583269467621  0.5211108313663317
