C 
 1.0000000000000000
    12.7758650818393455    0.0000000000000000    0.0000000000000000
    -6.3879325409196799   11.0642237161954302    0.0000000000000000
     0.0000000000000000    0.0000000000000000   16.0000000000000000
 C  
 104
Direct
  0.8542317101147423  0.4104116111019085  0.5722817216963885
  0.8259287936148920  0.2959939408488888  0.5372113276593177
  0.8709791632382173  0.4951906838411586  0.5077966634218511
  0.8000134098210906  0.3020714895393270  0.4474791459636508
  0.8273463272273723  0.4235831936462224  0.4295221198271423
  0.7941661191519119  0.5453130095390334  0.5214148941470664
  0.7216297980933205  0.5297085841993729  0.4490366789116055
  0.7362918808411900  0.4448533663297315  0.3935952078559008
  0.7085203515605873  0.4713909632422279  0.5883295527894189
  0.7452837675140732  0.3888934211797816  0.6194347601295170
  0.6611921027353871  0.2607865435271993  0.6195142484455394
  0.5875948733861018  0.4258375993401751  0.5572937255246295
  0.5035181678509940  0.2977878909402384  0.5573921050821038
  0.5402835932148695  0.2152689259029399  0.5884840767954644
  0.5960759454990592  0.4708715040730768  0.4705370454054706
  0.6323081394073200  0.1321294590049780  0.5079313478730676
  0.7167261127306360  0.2006286862241341  0.5724690565040930
  0.5186064722757225  0.1261932739392072  0.5216013825850315
  0.4829290397120540  0.1666274364166951  0.4492395676693990
  0.4585592425904821  0.2611565304005024  0.4707846958476999
  0.5279252125981910  0.3658431724645748  0.4197865960018429
  0.6815913287258779  0.2018215581081715  0.4295725584678907
  0.5904632652123319  0.2230451626478628  0.3937278326948570
  0.6178431828835749  0.3445839935425971  0.3757436058512524
 -0.0915930889650544 -0.1217385893111080  0.6126038388900590
  0.0395804433929350 -0.0548582494674210  0.6169081051453409
 -0.1264763475444403 -0.2298562639128498  0.5654550414056345
 -0.0166466419331554 -0.2291814609156269  0.5408560394168989
  0.0889979024762758 -0.1227471844798184  0.5753708636306498
 -0.1937927417373175 -0.2306688717631769  0.4912646580074734
 -0.1166711626307519 -0.2221354160794967  0.4209970635894430
 -0.0105709120152283 -0.2244077977409964  0.4512691240996265
 -0.1883814034741200 -0.1140705486030144  0.4928472698441070
 -0.1250830791516390 -0.0413290692200752  0.4201137875313150
 -0.0757056347947628 -0.1092383077142133  0.3785765206180430
 -0.1352940875589159 -0.0493727139533477  0.5703523519971612
 -0.0255506137486543  0.0603172674781809  0.5442106130892614
 -0.0194545994034857  0.0651187232892248  0.4546209205348682
  0.0805213057124772  0.0580370209949536  0.5744923918100936
  0.1576471056634267  0.0665816725528828  0.5042286621890977
  0.0903559427295970  0.0657666133447215  0.4300258676325250
  0.0554656792714107 -0.0423616465489322  0.3828774744144188
  0.0991849503613496 -0.1147224767792395  0.4251342205961790
  0.1522858228313179 -0.0499978504537079  0.5026368591868099
  0.4452030359800818  0.3806640178588004  0.4939608915822232
  0.3764359427799704  0.3186500519871513  0.4198022254701499
  0.3800140118116316  0.3097392579517320  0.5652235216532236
  0.2712808910340474  0.2042808307589111  0.5347088129877448
  0.2692020568234443  0.2048480214432425  0.4432914476593616
  0.3478722544090268  0.3815168821626107  0.6194864955868136
  0.2158734821628915  0.3200895246987082  0.6161121659003032
  0.1694861843740061  0.2106899656521223  0.5662750421182114
  0.3877234077643177  0.4939039916903598  0.5739150348511972
  0.2864958852034773  0.5112044458531275  0.5528929857770046
  0.1792844352078539  0.3974213235175154  0.5764042830969044
  0.4572096366920810  0.5004392800395981  0.4999780042220582
  0.3862282395239485  0.5053843028483271  0.4299298487449895
  0.2844254000985685  0.5118017771060267  0.4614795446807241
  0.3398699379492863  0.3960038888378954  0.3801020927765094
  0.2078763385110234  0.3345833621500408  0.3767205655523752
  0.1757011900538709  0.4063346961657577  0.4309801716232501
  0.1105140044699061  0.3354061050797093  0.5022490952111122
  0.0985014301034592  0.2156174932912069  0.4962213778906797
  0.1679845438118442  0.2221667102993087  0.4222705023926480
  0.5267278261647265  0.7460607151128592  0.4182942048439480
  0.6481571199656075  0.7881215078065976  0.4495154412068880
  0.5264314650540319  0.8463708382469242  0.3781353388157326
  0.6476940770156248  0.9499000866372835  0.3847809915375758
  0.7274545458800175  0.9146381605044600  0.4262378877845923
  0.4400813504071610  0.8719497491415452  0.4203191870749139
  0.5145756663376974  0.9914629056237225  0.4575735175583606
  0.6403420009989053  1.0398871331147759  0.4340366412727057
  0.3970403529951357  0.7894133828015307  0.4912236880956253
  0.4282668263334215  0.8546204235627844  0.5702697390569242
  0.5075273441928736  0.9811228937767847  0.5469820516166232
  0.4405875983810788  0.7037227201280766  0.4876450398005764
  0.5153434101656941  0.7293603963138539  0.5624669028364517
  0.5080022463501971  0.8193446657732457  0.6117399577973115
  0.6410821844217564  0.7777601637784923  0.5389218026346728
  0.7155770841706720  0.8972643853812432  0.5761807852899130
  0.6292550082653188  0.9228756978701120  0.6183680712211183
  0.6289552215308870  1.0231880505029798  0.5782028733317364
  0.7151148111071599  1.0655303817366395  0.5088513205242744
  0.7586657868604326  0.9798324650285080  0.5052896885200093
  0.1651119179125531  0.7051838239215851  0.6155499332777131
  0.0947423514183882  0.7463301911185348  0.5690228016341429
  0.2773155983697285  0.7466363673698545  0.5720741924101015
  0.2756564850038814  0.8131563533772074  0.4988914832813431
  0.1641148585416766  0.8188513014930335  0.4972871034957929
  0.2883131915624729  0.6425925735949400  0.5465721250608827
  0.2849406445429519  0.6439153060145396  0.4552191976667017
  0.2803995971548441  0.7494627392590578  0.4264221350442521
  0.1736681032817706  0.5379247814091626  0.5705033342629247
  0.1080785762651154  0.4662718961032093  0.4979579361184001
  0.1774723148868517  0.5387812799086498  0.4262374661765805
  0.1001624231889100  0.5731060856914744  0.6194925709128097
 -0.0081904350862436  0.5356423886646579  0.5688337934514690
 -0.0034749406791490  0.4719362242939123  0.4963583332753215
 -0.0127238779423085  0.6411823210557915  0.5400565920012103
 -0.0161079548096260  0.6425005047179703  0.4487070665716351
 -0.0051074616620617  0.5384696308448073  0.4231822989798744
  0.1071067837879142  0.5799270441576108  0.3797080173656640
  0.1720501624148257  0.7120178649889620  0.3757616381193956
  0.0985180329144785  0.7471826127450096  0.4247481136956933
