C 
 1.0000000000000000
     9.2374236261386908    0.0000000000000000    0.0000000000000000
    -4.6187118130693516    7.9998435257546756    0.0000000000000000
     0.0000000000000000    0.0000000000000000   16.0000000000000000
 C  
  64
Direct
  0.4706070930377488  0.5215011489536424  0.4522850222135526
  0.2945409081437241  0.4123770133718159  0.4411012686181285
  0.5293359140234506  0.6685855560391499  0.4019545249616916
  0.2340436346466798  0.5107106694917396  0.3944302768066128
  0.3772772836238810  0.6671726715885766  0.3706184892423749
  0.6157541327565376  0.8158254170409140  0.4522500041768344
  0.5459954310499774  0.9225826786465509  0.4411312352140015
  0.3876508403791257  0.8224214353935931  0.3944393208125871
  0.5815871028823741  0.7585426359812850  0.5404054123482949
  0.4928187487588206  0.5785189107650603  0.5404094238571802
  0.3333778579180048  0.4872705648305477  0.5816938176387719
  0.5109890148063079  0.8474827307222694  0.5817169118726679
  0.3516370906462662  0.7562870775036672  0.6230073866829196
  0.2628295706316572  0.5762394105337016  0.6230010053704118
  0.5003148233322086  0.9618039406224056  0.5199016398610928
  0.0774422594393570  0.4104315432140644  0.5190789078494026
  0.2095345173231856  0.3718175095973538  0.5198249558168212
  0.0941149259849310  0.5178303022365197  0.5874989406315589
  0.0941334220786448  0.6643864067158758  0.5583165779557986
  0.2393816822849418  0.8121889747773355  0.5874893338939048
  0.3289294729289505  0.9207079597409182  0.5191727672696654
  0.1012271204588160  0.5094805315118732  0.4421233984131540
  0.1116134713064124  0.6646876180302214  0.4660369423374867
  0.2548556815580001  0.8211552926909218  0.4421828980266891
  0.1582490294661208  0.1919581926150951  0.5709316073475819
  0.1204235214427444  0.0324944514036562  0.6070607419333498
  0.0030012644521266  0.1898975228094547  0.5600312960866978
 -0.1299432481379158  0.0291228743174087  0.5894679607879235
 -0.0591792234406904 -0.0697090421347126  0.6227062586681297
 -0.0209248212931121  0.2107774091167140  0.4713952935164641
 -0.1666383969585130  0.0521874348409195  0.4469269193854490
 -0.2351598389420164 -0.0562735885716245  0.5193286455352422
  0.1193503049842426  0.2110346094971045  0.4296791464680773
  0.0630038673264977  0.0710126356416003  0.3720670492510951
 -0.1165857041534232 -0.0311410884010945  0.3877025268937167
  0.2394275863940238  0.2142496944444676  0.4896967352847065
  0.2389958323421091  0.0576183438693582  0.4754300443564439
  0.1337908345908669 -0.0278049121579439  0.4052867935912429
  0.1705031776478902 -0.0507986525930120  0.5478298444373452
  0.0248039012340818 -0.2093900710576666  0.5233620651740819
  0.0008361192661637 -0.1885531277777346  0.4347284821718226
 -0.1544175174168776 -0.1906050762818684  0.4238294747485421
 -0.2356011265564724 -0.2129149492115654  0.5050747355818014
 -0.1155066688594227 -0.2097178765036919  0.5650860294606349
  0.6459927264636035  0.3739421430240287  0.6151535702146236
  0.8215001767647439  0.4589054307289187  0.5918172337588453
  0.5760486240720091  0.2002767481067065  0.5948423276969904
  0.7087295169993936  0.1788738912722866  0.5590369515511454
  0.8661865448161232  0.3381498592544745  0.5596405421709842
  0.4412132671895446  0.1516887743828225  0.5340488948555216
  0.5022158185987684  0.1110068434544285  0.4583037466602582
  0.6629353584215701  0.1234934302437959  0.4743645043611510
  0.4438558628198335  0.3068081940833797  0.5140250211070764
  0.4817512094943815  0.3500916117707157  0.4261254432450532
  0.5263848061364583  0.2293111348805197  0.3939570473185287
  0.5585210723777678  0.4429160625261874  0.5681317637973754
  0.6849513265988594  0.5647275794254939  0.5114037342217217
  0.6391814096167192  0.5093809907774595  0.4267213628546943
  0.8456390308044865  0.5772118209589205  0.5274782327042516
  0.9066490320166752  0.5365471460297154  0.4517341725231809
  0.7718402267078838  0.4879461733378288  0.3909267093007028
  0.7018874673858368  0.3142673940123246  0.3706185559207100
  0.7893865681546579  0.2453028508361115  0.4176421983257734
  0.9040672339487500  0.3814438287733186  0.4717402935130696
