Generated by VASPKIT code               
   1.00000000000000     
    19.2997146942681681    0.3992760688187958    0.0000000000000000
    -9.2221703606143741   15.2625891213320806    0.0000000000000000
     0.0000000000000013    0.0000000000000020   19.7111848291780092
  C             
   128
Direct
  0.4578599623319781  0.7065908954556600  0.5142484576365455
  0.5418981123865934  0.2932568359701687  0.5140182420269637
  0.4227459777859097  0.6344288605615409  0.5634069770856235
  0.5771625912444779  0.3656183236126305  0.5630044910261780
  0.4481068284889673  0.6757464707528753  0.4489943100331787
  0.5516023940410186  0.3239340483501475  0.4486932812069400
  0.3703722670914343  0.5442517234418568  0.5220085371507349
  0.6295147405758721  0.4557157788595130  0.5214070300996191
  0.3928958453898174  0.5811414682705520  0.4481725174139907
  0.6068821976988242  0.4185553830056221  0.4476404567390975
  0.4274746223829723  0.7236514655103462  0.4011020687203101
  0.5720798442467839  0.2758362973682978  0.4008722175664208
  0.3599270930291221  0.6584644917209074  0.3691192915872395
  0.6396016851329408  0.3408362380243924  0.3687419741153545
  0.3357835000061995  0.5713451749599345  0.3995929657531787
  0.6638995314364261  0.4281030488524189  0.3989902608198317
  0.3999060042096944  0.7806182950402025  0.4436160545322003
  0.5997127280009763  0.2190361970020988  0.4435465253310836
  0.4244985798876193  0.7670584154384995  0.5189321644465197
  0.5753532831023558  0.2328151364547365  0.5188703283462700
  0.3532673714110148  0.7158841249320518  0.5645756974840543
  0.6466145606313288  0.2842022828686959  0.5643781997835123
  0.3111215850991407  0.7314513231197869  0.4288160414450898
  0.6884263381844260  0.2680675285896820  0.4286848146039846
  0.2515888592744981  0.6982672037118336  0.4795308976365343
  0.7480209767019322  0.3013172365626742  0.4793307648290139
  0.2722512421699410  0.6888813426517105  0.5474732536152574
  0.7275516918858219  0.3110855629652334  0.5472632123123867
  0.2918166852167883  0.6702492116817419  0.3759472436808083
  0.7076702425670015  0.3289972632336920  0.3756400498879450
  0.2789770606800641  0.5699161272450280  0.5893561458979717
  0.7209745460615241  0.4302596421652686  0.5887450736363707
  0.3565928750053714  0.6447951344324319  0.5932499243110214
  0.6433763800928424  0.3554240090984956  0.5928796217933732
  0.2214932349887553  0.5960344557661187  0.5705294969757930
  0.7783919850905882  0.4040215968651611  0.5700780080219682
  0.1887294620055858  0.5540042953482588  0.5095040199690226
  0.8110012767136525  0.4456734540463893  0.5088971555657696
  0.1841740342232390  0.6103676905536342  0.4552684800447138
  0.8154022887078609  0.3890385017389631  0.4548747561167426
  0.2162610336122038  0.5868146446643591  0.3905775736204654
  0.7833776819938966  0.4123474596491519  0.3899945108706687
  0.2847398068379106  0.5173760486953634  0.5370450225663136
  0.7151576424239892  0.4825400941456156  0.5362495615548536
  0.2289520029003074  0.5079607709618563  0.4855810409126707
  0.7708544698583951  0.4916781607701535  0.4847679123265770
  0.2522952162667164  0.5327917888105584  0.4174930301319306
  0.7474646973702899  0.4666450804915078  0.4167130252004064
  0.0433495215290645  0.1220944836984157  0.5354538443213244
  0.5583030196615063  0.1049394882782370  0.5895089923197075
  0.9254165922857255  0.5514218137314384  0.3553217227822569
  0.5849180926517163  0.4961424828806432  0.6939485245122073
  0.0718825479539265  0.1227062641747957  0.4671196160214419
  0.6116210098813484  0.0770297677974624  0.5635080141120973
  0.9762470611761238  0.5761633649407168  0.2984335709816821
  0.5287334067522093  0.4093233251312325  0.6748463450735266
  0.0680909115420225  0.0739842998089389  0.5775395185943417
  0.4943909900867367  0.0370882892537458  0.6246882809551592
  0.9780212314694011  0.5768432400944203  0.4123991452319350
  0.5413650919592712  0.5319199549329255  0.7329497204696267
  0.1117454940161739  0.0451324662010050  0.5349682799456915
  0.5067793933441307  0.9628756069422343  0.6245326692115513
  0.0628490394210810  0.6268267312504207  0.3921776990078517
  0.4591028641592090  0.4680975872083615  0.7330178608130506
  0.1180414398080430  0.0779573033031464  0.4659122663287256
  0.5796391517696152  0.9867093724947106  0.5863419096690334
  0.0610357145897169  0.6216587071406805  0.3212007029425857
  0.4515128087231955  0.3950626771779375  0.6956748717696655
  0.9975418581512006  0.9992720624499924  0.6063303229539718
  0.4211887719222659  0.0131770031634172  0.5869816378968218
  0.9643271152683116  0.5017608246205553  0.4482278972339768
  0.5488708882428762  0.6049769872172395  0.6957022647498037
  0.9971639458615462  0.9241467944781259  0.5760041378257168
  0.3890110803530872  0.9228852676332902  0.5640632061128076
  0.0350916621846898  0.4974614369973744  0.4484747727087394
  0.4715944611697012  0.5907069057432939  0.6750602775813558
  0.0677710631451966  0.9521911187534922  0.5340403018161173
  0.4425669988797230  0.8951010965169995  0.5895453542464834
  0.1041000850986457  0.5796473147989389  0.4204534419650964
  0.4154480544818279  0.5038858277374572  0.6941966209788829
  0.9300902267698170  0.0011205886115872  0.5750878222257393
  0.4382786586948710  0.0674041315069361  0.5299866207201783
  0.8954477575071350  0.4194263399099551  0.4202666635883539
  0.5965311213202124  0.6147522781454434  0.6363499779759330
  0.8822767453157313  0.9241037847905091  0.5341729358976409
  0.4217122613432804  0.0106085138089460  0.4724323460040164
  0.9366994575708543  0.3720028920552094  0.3925908601832818
  0.5496050765478593  0.6061639733820645  0.5778475808095198
  0.9284412772413065  0.8793586747411567  0.5329765351010589
  0.3857776516841439  0.9190880827883514  0.4927297176117663
  0.0214976928274857  0.4221669285918452  0.4130227235321908
  0.4695957916752098  0.5979290262997230  0.5985550968101461
  0.9561150236122997  0.0799517992560020  0.5357476897731810
  0.5277139804808041  0.1357091326059444  0.5319587208961265
  0.8673407546036849  0.4523836686069929  0.3549219154702625
  0.6194924363872161  0.5484858787816658  0.6354924311860389
  0.9325608850287013  0.0498714307640015  0.4660397311969601
  0.5627369410778239  0.1187042163211989  0.4643566042732233
  0.9009221420685849  0.4243441825124954  0.2959259333650050
  0.5913592280293337  0.4971249878412879  0.5683631741414219
  0.8885744129479918  0.9569393182352995  0.4651065199250787
  0.4928209720573978  0.0358985201342487  0.4354112845220511
  0.9387758366619131  0.3768082832357159  0.3216092335115723
  0.5402379766633832  0.5326623479266236  0.5413002488129446
  0.0031667029806707  0.0779211037619081  0.4240829336031035
  0.6142846963306444  0.0807738069575827  0.4921839907092616
  0.9620613979363273  0.4990517156375849  0.2627331689695285
  0.5305342928176381  0.4022138852464748  0.5982949718304079
  0.0027884822960292  0.0027921830224802  0.3937518862450785
  0.5782135643492475  0.9892297289463955  0.4718606772999898
  0.0379072530638104  0.4989995563164662  0.2629433831731799
  0.4505141522175813  0.3939991718357397  0.5778079977649839
  0.9322255836926284  0.9280881820554602  0.4225413269895463
  0.5068564264106552  0.9639281812724761  0.4352440053485245
  0.0236321293087193  0.4221299478823806  0.2990553348038386
  0.4598023808947728  0.4675086895812869  0.5413459263482848
  0.9569720011715142  0.8799852401420528  0.4646349336698619
  0.4371272612274644  0.8811040450293418  0.4644083998027234
  0.0742882982985765  0.4472418006028827  0.3561042859025682
  0.4087234765791568  0.5029615738339784  0.5686811546819138
  0.0442007012933401  0.9221161220635309  0.4643381433471491
  0.4725784753372145  0.8641929209826590  0.5317220668427390
  0.1323214720220403  0.5463275643241405  0.3554606194719550
  0.3807717520840038  0.4515797593229321  0.6357496323700106
  0.0702346569937223  0.0009416217919209  0.4249902832938161
  0.5620807827652892  0.9324063601283678  0.5293111090228318
  0.0988397791593078  0.5738799756222017  0.2960981641557907
  0.4037255686682139  0.3853314318171093  0.6364243467277964
 
  0.00000000E+00  0.00000000E+00  0.00000000E+00
  0.00000000E+00  0.00000000E+00  0.00000000E+00
  0.00000000E+00  0.00000000E+00  0.00000000E+00
  0.00000000E+00  0.00000000E+00  0.00000000E+00
  0.00000000E+00  0.00000000E+00  0.00000000E+00
  0.00000000E+00  0.00000000E+00  0.00000000E+00
  0.00000000E+00  0.00000000E+00  0.00000000E+00
  0.00000000E+00  0.00000000E+00  0.00000000E+00
  0.00000000E+00  0.00000000E+00  0.00000000E+00
  0.00000000E+00  0.00000000E+00  0.00000000E+00
  0.00000000E+00  0.00000000E+00  0.00000000E+00
  0.00000000E+00  0.00000000E+00  0.00000000E+00
  0.00000000E+00  0.00000000E+00  0.00000000E+00
  0.00000000E+00  0.00000000E+00  0.00000000E+00
  0.00000000E+00  0.00000000E+00  0.00000000E+00
  0.00000000E+00  0.00000000E+00  0.00000000E+00
  0.00000000E+00  0.00000000E+00  0.00000000E+00
  0.00000000E+00  0.00000000E+00  0.00000000E+00
  0.00000000E+00  0.00000000E+00  0.00000000E+00
  0.00000000E+00  0.00000000E+00  0.00000000E+00
  0.00000000E+00  0.00000000E+00  0.00000000E+00
  0.00000000E+00  0.00000000E+00  0.00000000E+00
  0.00000000E+00  0.00000000E+00  0.00000000E+00
  0.00000000E+00  0.00000000E+00  0.00000000E+00
  0.00000000E+00  0.00000000E+00  0.00000000E+00
  0.00000000E+00  0.00000000E+00  0.00000000E+00
  0.00000000E+00  0.00000000E+00  0.00000000E+00
  0.00000000E+00  0.00000000E+00  0.00000000E+00
  0.00000000E+00  0.00000000E+00  0.00000000E+00
  0.00000000E+00  0.00000000E+00  0.00000000E+00
  0.00000000E+00  0.00000000E+00  0.00000000E+00
  0.00000000E+00  0.00000000E+00  0.00000000E+00
  0.00000000E+00  0.00000000E+00  0.00000000E+00
  0.00000000E+00  0.00000000E+00  0.00000000E+00
  0.00000000E+00  0.00000000E+00  0.00000000E+00
  0.00000000E+00  0.00000000E+00  0.00000000E+00
  0.00000000E+00  0.00000000E+00  0.00000000E+00
  0.00000000E+00  0.00000000E+00  0.00000000E+00
  0.00000000E+00  0.00000000E+00  0.00000000E+00
  0.00000000E+00  0.00000000E+00  0.00000000E+00
  0.00000000E+00  0.00000000E+00  0.00000000E+00
  0.00000000E+00  0.00000000E+00  0.00000000E+00
  0.00000000E+00  0.00000000E+00  0.00000000E+00
  0.00000000E+00  0.00000000E+00  0.00000000E+00
  0.00000000E+00  0.00000000E+00  0.00000000E+00
  0.00000000E+00  0.00000000E+00  0.00000000E+00
  0.00000000E+00  0.00000000E+00  0.00000000E+00
  0.00000000E+00  0.00000000E+00  0.00000000E+00
  0.00000000E+00  0.00000000E+00  0.00000000E+00
  0.00000000E+00  0.00000000E+00  0.00000000E+00
  0.00000000E+00  0.00000000E+00  0.00000000E+00
  0.00000000E+00  0.00000000E+00  0.00000000E+00
  0.00000000E+00  0.00000000E+00  0.00000000E+00
  0.00000000E+00  0.00000000E+00  0.00000000E+00
  0.00000000E+00  0.00000000E+00  0.00000000E+00
  0.00000000E+00  0.00000000E+00  0.00000000E+00
  0.00000000E+00  0.00000000E+00  0.00000000E+00
  0.00000000E+00  0.00000000E+00  0.00000000E+00
  0.00000000E+00  0.00000000E+00  0.00000000E+00
  0.00000000E+00  0.00000000E+00  0.00000000E+00
  0.00000000E+00  0.00000000E+00  0.00000000E+00
  0.00000000E+00  0.00000000E+00  0.00000000E+00
  0.00000000E+00  0.00000000E+00  0.00000000E+00
  0.00000000E+00  0.00000000E+00  0.00000000E+00
  0.00000000E+00  0.00000000E+00  0.00000000E+00
  0.00000000E+00  0.00000000E+00  0.00000000E+00
  0.00000000E+00  0.00000000E+00  0.00000000E+00
  0.00000000E+00  0.00000000E+00  0.00000000E+00
  0.00000000E+00  0.00000000E+00  0.00000000E+00
  0.00000000E+00  0.00000000E+00  0.00000000E+00
  0.00000000E+00  0.00000000E+00  0.00000000E+00
  0.00000000E+00  0.00000000E+00  0.00000000E+00
  0.00000000E+00  0.00000000E+00  0.00000000E+00
  0.00000000E+00  0.00000000E+00  0.00000000E+00
  0.00000000E+00  0.00000000E+00  0.00000000E+00
  0.00000000E+00  0.00000000E+00  0.00000000E+00
  0.00000000E+00  0.00000000E+00  0.00000000E+00
  0.00000000E+00  0.00000000E+00  0.00000000E+00
  0.00000000E+00  0.00000000E+00  0.00000000E+00
  0.00000000E+00  0.00000000E+00  0.00000000E+00
  0.00000000E+00  0.00000000E+00  0.00000000E+00
  0.00000000E+00  0.00000000E+00  0.00000000E+00
  0.00000000E+00  0.00000000E+00  0.00000000E+00
  0.00000000E+00  0.00000000E+00  0.00000000E+00
  0.00000000E+00  0.00000000E+00  0.00000000E+00
  0.00000000E+00  0.00000000E+00  0.00000000E+00
  0.00000000E+00  0.00000000E+00  0.00000000E+00
  0.00000000E+00  0.00000000E+00  0.00000000E+00
  0.00000000E+00  0.00000000E+00  0.00000000E+00
  0.00000000E+00  0.00000000E+00  0.00000000E+00
  0.00000000E+00  0.00000000E+00  0.00000000E+00
  0.00000000E+00  0.00000000E+00  0.00000000E+00
  0.00000000E+00  0.00000000E+00  0.00000000E+00
  0.00000000E+00  0.00000000E+00  0.00000000E+00
  0.00000000E+00  0.00000000E+00  0.00000000E+00
  0.00000000E+00  0.00000000E+00  0.00000000E+00
  0.00000000E+00  0.00000000E+00  0.00000000E+00
  0.00000000E+00  0.00000000E+00  0.00000000E+00
  0.00000000E+00  0.00000000E+00  0.00000000E+00
  0.00000000E+00  0.00000000E+00  0.00000000E+00
  0.00000000E+00  0.00000000E+00  0.00000000E+00
  0.00000000E+00  0.00000000E+00  0.00000000E+00
  0.00000000E+00  0.00000000E+00  0.00000000E+00
  0.00000000E+00  0.00000000E+00  0.00000000E+00
  0.00000000E+00  0.00000000E+00  0.00000000E+00
  0.00000000E+00  0.00000000E+00  0.00000000E+00
  0.00000000E+00  0.00000000E+00  0.00000000E+00
  0.00000000E+00  0.00000000E+00  0.00000000E+00
  0.00000000E+00  0.00000000E+00  0.00000000E+00
  0.00000000E+00  0.00000000E+00  0.00000000E+00
  0.00000000E+00  0.00000000E+00  0.00000000E+00
  0.00000000E+00  0.00000000E+00  0.00000000E+00
  0.00000000E+00  0.00000000E+00  0.00000000E+00
  0.00000000E+00  0.00000000E+00  0.00000000E+00
  0.00000000E+00  0.00000000E+00  0.00000000E+00
  0.00000000E+00  0.00000000E+00  0.00000000E+00
  0.00000000E+00  0.00000000E+00  0.00000000E+00
  0.00000000E+00  0.00000000E+00  0.00000000E+00
  0.00000000E+00  0.00000000E+00  0.00000000E+00
  0.00000000E+00  0.00000000E+00  0.00000000E+00
  0.00000000E+00  0.00000000E+00  0.00000000E+00
  0.00000000E+00  0.00000000E+00  0.00000000E+00
  0.00000000E+00  0.00000000E+00  0.00000000E+00
  0.00000000E+00  0.00000000E+00  0.00000000E+00
  0.00000000E+00  0.00000000E+00  0.00000000E+00
  0.00000000E+00  0.00000000E+00  0.00000000E+00
  0.00000000E+00  0.00000000E+00  0.00000000E+00
  0.00000000E+00  0.00000000E+00  0.00000000E+00
