Generated by VASPKIT code               
   1.00000000000000     
    19.3470306922931563   -0.2194337770374429    0.0000000000000000
    -9.8401659745459327   16.3260610560675552    0.0000000000000000
     0.0000000000000012    0.0000000000000020   19.7171749931299232
  C             
   128
Direct
  0.4739987234186541  0.7389485751421979  0.5133197706096840
  0.0475864476646747  0.0975366260124716  0.5086084475554671
  0.4565731241184245  0.6676446599479634  0.4756672337378301
  0.0849718940119625  0.0524191485936210  0.4975954647493556
  0.4551157787244767  0.7909304092735376  0.4748064836690518
  0.9646561000116778  0.0494154841682123  0.4916521448687762
  0.4073375876468248  0.6659443316789956  0.4157682487842281
  0.0227625271221025  0.9678472154733311  0.4879759692624628
  0.4075871390253171  0.7414000891674417  0.4152229752088489
  0.9457670246601101  0.9658731473462447  0.4839824352816345
  0.4057458637924093  0.8117040608980440  0.5128065915349218
  0.9127019477676136  0.0531830440716013  0.5473677383877980
  0.3339407402401638  0.7880638141313049  0.4750630194453714
  0.8586007532058985  0.9627145206839249  0.5665586082975819
  0.3322009459898307  0.7395437355992937  0.4153475166232855
  0.8825694220958934  0.9149815498155623  0.5290116471632379
  0.3773118692213080  0.7545095898185592  0.5731827588732615
  0.9732667615169692  0.0817436593853732  0.6085228491898447
  0.4197449600082281  0.7114161537140660  0.5734665934893446
  0.0531107716864722  0.1138891901528854  0.5847571079358710
  0.3752522388153671  0.6225197171975291  0.5739823484099824
  0.1028913382901458  0.0878303135689561  0.6136156806561233
  0.2901423768843722  0.7082353412946208  0.5737598355436754
  0.9412182747521590  0.0217216002639823  0.6614811810414574
  0.2456547078126430  0.6193509969400559  0.5742231702913785
  0.9900651792566625  0.9944357285107180  0.6907383394333262
  0.2880913507897701  0.5762417963170405  0.5741586322521504
  0.0708454578209221  0.0273743982086385  0.6663857592753815
  0.2621664033614463  0.7337911923157903  0.5137592199721952
  0.8675417640725485  0.9472059894695385  0.6349483702021879
  0.3302044122669349  0.5410217785711698  0.4761687458632685
  0.1050089091511439  0.9719417508862073  0.5759011947979453
  0.4024658563488032  0.5959834297073970  0.5141093969875802
  0.1405236399764995  0.0619443979222748  0.5557900517138953
  0.2589056338138501  0.5180997446359858  0.5144080365153744
  0.0747962299223229  0.9559249379461839  0.6431623751826088
  0.2090048652725675  0.5381862547055541  0.4764241251651434
  0.9976196171922218  0.8811737343052874  0.6497591104577110
  0.1906513156565442  0.5908506811020536  0.5145228937497874
  0.9449759017145835  0.9019761197556421  0.6799932441756904
  0.2075690363467906  0.6615188666522425  0.4761611468297923
  0.8722408280159639  0.8753605019670940  0.6439774517303061
  0.3311815568942152  0.5885860352977162  0.4160296542067995
  0.0348632929806994  0.9194653709085898  0.5354026829709383
  0.2557768674196801  0.5867227033655370  0.4162077895655792
  0.9665004555379603  0.8500325050883870  0.5774436829392491
  0.2560509348962953  0.6622061841891715  0.4160778864084339
  0.8809325223241352  0.8478393000231792  0.5716129944478507
  0.6956579611502138  0.4460977184036187  0.4022165422431283
  0.8794301331617045  0.1069655192695606  0.5327363099728861
  0.9239703520346824  0.7614360344175796  0.5493927386619060
  0.2436584769770608  0.2053958224006693  0.5051402770003548
  0.6774647926528972  0.4058220433367213  0.3334133945155461
  0.8248652360570944  0.1128900089982168  0.5875196126375961
  0.8924111247105898  0.6776367442884813  0.5831776168788031
  0.3192598774630378  0.2678632855997282  0.5331719493099795
  0.7749683463068271  0.4419197494650408  0.4243750901871146
  0.9442551180304117  0.2002040956410467  0.5197023652720482
  0.8415317195680051  0.7621149666306480  0.5375139409362819
  0.2261496290560178  0.1191338323714789  0.5304026166793505
  0.7936220745747653  0.4009677393477266  0.3665299488821812
  0.9335553510853493  0.2478417399688648  0.5670674726259904
  0.7734736802745792  0.6789428923150047  0.5629969225873072
  0.3061911017977684  0.1454789925997172  0.5684759343832126
  0.7357743648528513  0.3821989127121062  0.3157846055295328
  0.8608090114801434  0.1948137570666155  0.6080258797023885
  0.8062837075961189  0.6343702515470779  0.5910094436657373
  0.3557160284303765  0.2320614133763715  0.5727120434699474
  0.7360772396563052  0.3724108577178271  0.4743203160190967
  0.9323035076391224  0.2270509302896274  0.4534399473204227
  0.8280494772317546  0.7473411305812689  0.4605437569151392
  0.2444479572393251  0.0882161078613425  0.4637098396326241
  0.7473069159385136  0.3056039725336869  0.4571943278117768
  0.9217513197228774  0.2967643706318643  0.4586425548191017
  0.7542803136078379  0.6700680353247247  0.4458333308459194
  0.3162674195018454  0.0844671300441323  0.4690085196426444
  0.7880426211108221  0.3183058059057080  0.3865012466065372
  0.9196012800814759  0.3068069017325745  0.5304789218436944
  0.7209222815047535  0.6280583974784184  0.5082953805599925
  0.3540988722405408  0.1192084416858527  0.5326134441122757
  0.6511681710097791  0.3358070395441879  0.4820989976989730
  0.8612729699765743  0.1594082972537674  0.4241102732184660
  0.8907827061632462  0.7402246609106709  0.4301595142091342
  0.2576025501125195  0.1409776496392332  0.4081779131923990
  0.6045440501642625  0.2461960101477106  0.4772396749811182
  0.8035918474781406  0.1850241629285281  0.4106725885935101
  0.8540605378468679  0.6595291131579312  0.3946832986721306
  0.3382624852567019  0.1681499212810652  0.3783882119053654
  0.6638590313004610  0.2191262055711222  0.4595334115554087
  0.8394797762749798  0.2764379982290565  0.4256995004671657
  0.7686897805829985  0.6176492929477587  0.4024215123190972
  0.3729327381131129  0.1296286065804470  0.4143448582922061
  0.6242471356092736  0.3757464402919835  0.4393906089389040
  0.8264400264519790  0.0903773852972108  0.4694014086183761
  0.9453929460849644  0.7439445182265422  0.4795962292438462
  0.2592496847264018  0.2123131348848047  0.4320524000841242
  0.5541937977244510  0.3124445445579448  0.3977960758501420
  0.7492559053077079  0.0775873906879647  0.4872971546158387
  0.9388708122020478  0.6649895969658617  0.4770354400382666
  0.3396530711814400  0.2821630695748673  0.4164563623214596
  0.5421430075151715  0.2247206402524460  0.4212305444011034
  0.7348206619098694  0.1343443596056942  0.4499421831641855
  0.8862839821042758  0.6136912180381631  0.4228135089034168
  0.3882675300328469  0.2562263796087251  0.3799654261324418
  0.5989020642916764  0.3303392755662702  0.3308532670590432
  0.7467152093325033  0.0917183741554660  0.5580184241124887
  0.9063867284056507  0.6248686708363680  0.5403434632031653
  0.3772421042664790  0.3175690167313141  0.4797735088785423
  0.6064240850636041  0.2636818552338788  0.3088381338876049
  0.7295718995221977  0.1563443856418444  0.5669949688204110
  0.8323405115008566  0.5475120106051282  0.5261677854000352
  0.4484230937872130  0.3122127478827561  0.4856688316830525
  0.5783024652615805  0.2027575937880157  0.3635781168031763
  0.7137368054506387  0.1833058405982100  0.4969996207663563
  0.8182983135239399  0.5308703271779660  0.4503864384736269
  0.4656347451011187  0.2814227092977243  0.4200161398946811
  0.6456775633087677  0.1989146885668692  0.3850581605267043
  0.7916527468807091  0.2720830051124157  0.4907682840121408
  0.7367504570851007  0.5334077603231823  0.4340064300490036
  0.4549904397204815  0.1939684554627314  0.4429759654566723
  0.7155109971866219  0.2563617653273922  0.3438079067259153
  0.8423092018714039  0.2907492760254562  0.5512272234403377
  0.7141819116476116  0.5491272968123931  0.5050158518941620
  0.4348751263594732  0.1879580514062325  0.5186018326690136
  0.6915468357152643  0.2945184327431420  0.2963474853603837
  0.8032819149719449  0.2220606605405916  0.5960445497576372
  0.7691713686508062  0.5536872405250453  0.5554196580948972
  0.4354515637123642  0.2588129457214326  0.5411615747814316
 
  0.00000000E+00  0.00000000E+00  0.00000000E+00
  0.00000000E+00  0.00000000E+00  0.00000000E+00
  0.00000000E+00  0.00000000E+00  0.00000000E+00
  0.00000000E+00  0.00000000E+00  0.00000000E+00
  0.00000000E+00  0.00000000E+00  0.00000000E+00
  0.00000000E+00  0.00000000E+00  0.00000000E+00
  0.00000000E+00  0.00000000E+00  0.00000000E+00
  0.00000000E+00  0.00000000E+00  0.00000000E+00
  0.00000000E+00  0.00000000E+00  0.00000000E+00
  0.00000000E+00  0.00000000E+00  0.00000000E+00
  0.00000000E+00  0.00000000E+00  0.00000000E+00
  0.00000000E+00  0.00000000E+00  0.00000000E+00
  0.00000000E+00  0.00000000E+00  0.00000000E+00
  0.00000000E+00  0.00000000E+00  0.00000000E+00
  0.00000000E+00  0.00000000E+00  0.00000000E+00
  0.00000000E+00  0.00000000E+00  0.00000000E+00
  0.00000000E+00  0.00000000E+00  0.00000000E+00
  0.00000000E+00  0.00000000E+00  0.00000000E+00
  0.00000000E+00  0.00000000E+00  0.00000000E+00
  0.00000000E+00  0.00000000E+00  0.00000000E+00
  0.00000000E+00  0.00000000E+00  0.00000000E+00
  0.00000000E+00  0.00000000E+00  0.00000000E+00
  0.00000000E+00  0.00000000E+00  0.00000000E+00
  0.00000000E+00  0.00000000E+00  0.00000000E+00
  0.00000000E+00  0.00000000E+00  0.00000000E+00
  0.00000000E+00  0.00000000E+00  0.00000000E+00
  0.00000000E+00  0.00000000E+00  0.00000000E+00
  0.00000000E+00  0.00000000E+00  0.00000000E+00
  0.00000000E+00  0.00000000E+00  0.00000000E+00
  0.00000000E+00  0.00000000E+00  0.00000000E+00
  0.00000000E+00  0.00000000E+00  0.00000000E+00
  0.00000000E+00  0.00000000E+00  0.00000000E+00
  0.00000000E+00  0.00000000E+00  0.00000000E+00
  0.00000000E+00  0.00000000E+00  0.00000000E+00
  0.00000000E+00  0.00000000E+00  0.00000000E+00
  0.00000000E+00  0.00000000E+00  0.00000000E+00
  0.00000000E+00  0.00000000E+00  0.00000000E+00
  0.00000000E+00  0.00000000E+00  0.00000000E+00
  0.00000000E+00  0.00000000E+00  0.00000000E+00
  0.00000000E+00  0.00000000E+00  0.00000000E+00
  0.00000000E+00  0.00000000E+00  0.00000000E+00
  0.00000000E+00  0.00000000E+00  0.00000000E+00
  0.00000000E+00  0.00000000E+00  0.00000000E+00
  0.00000000E+00  0.00000000E+00  0.00000000E+00
  0.00000000E+00  0.00000000E+00  0.00000000E+00
  0.00000000E+00  0.00000000E+00  0.00000000E+00
  0.00000000E+00  0.00000000E+00  0.00000000E+00
  0.00000000E+00  0.00000000E+00  0.00000000E+00
  0.00000000E+00  0.00000000E+00  0.00000000E+00
  0.00000000E+00  0.00000000E+00  0.00000000E+00
  0.00000000E+00  0.00000000E+00  0.00000000E+00
  0.00000000E+00  0.00000000E+00  0.00000000E+00
  0.00000000E+00  0.00000000E+00  0.00000000E+00
  0.00000000E+00  0.00000000E+00  0.00000000E+00
  0.00000000E+00  0.00000000E+00  0.00000000E+00
  0.00000000E+00  0.00000000E+00  0.00000000E+00
  0.00000000E+00  0.00000000E+00  0.00000000E+00
  0.00000000E+00  0.00000000E+00  0.00000000E+00
  0.00000000E+00  0.00000000E+00  0.00000000E+00
  0.00000000E+00  0.00000000E+00  0.00000000E+00
  0.00000000E+00  0.00000000E+00  0.00000000E+00
  0.00000000E+00  0.00000000E+00  0.00000000E+00
  0.00000000E+00  0.00000000E+00  0.00000000E+00
  0.00000000E+00  0.00000000E+00  0.00000000E+00
  0.00000000E+00  0.00000000E+00  0.00000000E+00
  0.00000000E+00  0.00000000E+00  0.00000000E+00
  0.00000000E+00  0.00000000E+00  0.00000000E+00
  0.00000000E+00  0.00000000E+00  0.00000000E+00
  0.00000000E+00  0.00000000E+00  0.00000000E+00
  0.00000000E+00  0.00000000E+00  0.00000000E+00
  0.00000000E+00  0.00000000E+00  0.00000000E+00
  0.00000000E+00  0.00000000E+00  0.00000000E+00
  0.00000000E+00  0.00000000E+00  0.00000000E+00
  0.00000000E+00  0.00000000E+00  0.00000000E+00
  0.00000000E+00  0.00000000E+00  0.00000000E+00
  0.00000000E+00  0.00000000E+00  0.00000000E+00
  0.00000000E+00  0.00000000E+00  0.00000000E+00
  0.00000000E+00  0.00000000E+00  0.00000000E+00
  0.00000000E+00  0.00000000E+00  0.00000000E+00
  0.00000000E+00  0.00000000E+00  0.00000000E+00
  0.00000000E+00  0.00000000E+00  0.00000000E+00
  0.00000000E+00  0.00000000E+00  0.00000000E+00
  0.00000000E+00  0.00000000E+00  0.00000000E+00
  0.00000000E+00  0.00000000E+00  0.00000000E+00
  0.00000000E+00  0.00000000E+00  0.00000000E+00
  0.00000000E+00  0.00000000E+00  0.00000000E+00
  0.00000000E+00  0.00000000E+00  0.00000000E+00
  0.00000000E+00  0.00000000E+00  0.00000000E+00
  0.00000000E+00  0.00000000E+00  0.00000000E+00
  0.00000000E+00  0.00000000E+00  0.00000000E+00
  0.00000000E+00  0.00000000E+00  0.00000000E+00
  0.00000000E+00  0.00000000E+00  0.00000000E+00
  0.00000000E+00  0.00000000E+00  0.00000000E+00
  0.00000000E+00  0.00000000E+00  0.00000000E+00
  0.00000000E+00  0.00000000E+00  0.00000000E+00
  0.00000000E+00  0.00000000E+00  0.00000000E+00
  0.00000000E+00  0.00000000E+00  0.00000000E+00
  0.00000000E+00  0.00000000E+00  0.00000000E+00
  0.00000000E+00  0.00000000E+00  0.00000000E+00
  0.00000000E+00  0.00000000E+00  0.00000000E+00
  0.00000000E+00  0.00000000E+00  0.00000000E+00
  0.00000000E+00  0.00000000E+00  0.00000000E+00
  0.00000000E+00  0.00000000E+00  0.00000000E+00
  0.00000000E+00  0.00000000E+00  0.00000000E+00
  0.00000000E+00  0.00000000E+00  0.00000000E+00
  0.00000000E+00  0.00000000E+00  0.00000000E+00
  0.00000000E+00  0.00000000E+00  0.00000000E+00
  0.00000000E+00  0.00000000E+00  0.00000000E+00
  0.00000000E+00  0.00000000E+00  0.00000000E+00
  0.00000000E+00  0.00000000E+00  0.00000000E+00
  0.00000000E+00  0.00000000E+00  0.00000000E+00
  0.00000000E+00  0.00000000E+00  0.00000000E+00
  0.00000000E+00  0.00000000E+00  0.00000000E+00
  0.00000000E+00  0.00000000E+00  0.00000000E+00
  0.00000000E+00  0.00000000E+00  0.00000000E+00
  0.00000000E+00  0.00000000E+00  0.00000000E+00
  0.00000000E+00  0.00000000E+00  0.00000000E+00
  0.00000000E+00  0.00000000E+00  0.00000000E+00
  0.00000000E+00  0.00000000E+00  0.00000000E+00
  0.00000000E+00  0.00000000E+00  0.00000000E+00
  0.00000000E+00  0.00000000E+00  0.00000000E+00
  0.00000000E+00  0.00000000E+00  0.00000000E+00
  0.00000000E+00  0.00000000E+00  0.00000000E+00
  0.00000000E+00  0.00000000E+00  0.00000000E+00
  0.00000000E+00  0.00000000E+00  0.00000000E+00
  0.00000000E+00  0.00000000E+00  0.00000000E+00
  0.00000000E+00  0.00000000E+00  0.00000000E+00
  0.00000000E+00  0.00000000E+00  0.00000000E+00
