Generated by VASPKIT code               
   1.00000000000000     
    11.8899095416958751    0.1140247156967029    0.0000000000000000
    -5.8486259413504573   10.4166552420734675    0.0000000000000000
     0.0000000000000012    0.0000000000000021   19.7195888134763067
  C             
    84
Direct
  0.0356410201355430  0.1724478661451891  0.5652242359040348
  0.9599284573972643  0.0716581419639789  0.6085375896464088
  0.1441627300341987  0.1549570612306716  0.5515093098650971
  0.0157866680730683  0.9837265982510967  0.6131193615924736
  0.1334628090215246  0.0398370476862322  0.5756073077850022
  0.1993195219148298  0.2019473327116546  0.4854652696103429
  0.2264299635305895  0.0852025317853782  0.4607455772505706
  0.1741959358170274  0.9749280745502085  0.5205827257097771
  0.0672424075965627  0.1680945882401423  0.4516950615591224
  0.9687711622881118  0.1825059624087961  0.4969305291004518
  0.8319111137997465  0.0587434745699675  0.5027101127776512
  0.0293497098261640  0.0660895494345052  0.4079756460534884
  0.8975026572842175  0.9569022383009497  0.4107794066926025
  0.8130638045820558  0.9483922930922533  0.4610802636905222
  0.1170809849327097  0.0148012509787621  0.4124261376943555
  0.8051694938633787  0.8800223242044410  0.5700985112494535
  0.8397177614196534  0.0064635749973283  0.5743766367207337
  0.7533479924529818  0.8266262890863100  0.5034247240373907
  0.8312810621977921  0.7652242739077210  0.4753766474371133
  0.9120744383768906  0.8461325957014253  0.4185873672765147
  0.0419644513959032  0.8825899472543624  0.4244570476505411
  0.9172169379297523  0.8654465185111565  0.5848396323452184
  0.9342002306687619  0.8047150108617904  0.5291935084142690
  0.0614870992647428  0.8438124143561193  0.4959263413844970
  0.4122769103970608  0.8835984569222400  0.5761032840853036
  0.1280616082315052  0.5942562007975636  0.5691860515637831
  0.4412052907325038  0.5325962279371386  0.5653685071196735
  0.5513203941292648  0.9602886130735127  0.5795976376881835
  0.0403335514342950  0.6376982563648860  0.5625559342367416
  0.3920414496801867  0.3950205416317318  0.5582044673171622
  0.3648625539774158  0.7840032949036638  0.5178457603208978
  0.2295307366683703  0.6415416790226800  0.5130267942315661
  0.4068418221722191  0.5715204692238910  0.5083406217158473
  0.4997115235146212  0.8115161003185420  0.4826109995580704
  0.1758993119367057  0.7081031699825209  0.4625321020059181
  0.3093155164873095  0.4689912878643850  0.4637892001265017
  0.6020401914282579  0.9282476219709088  0.5261643945695786
  0.0638046674967747  0.7170302687509874  0.4981268012441389
  0.3100453436026983  0.3411356901980844  0.4918391208826574
  0.2977027335782790  0.8388711368729465  0.4681507360218101
  0.1922345472654843  0.4969239496050191  0.4751387650710961
  0.5132811484524893  0.6871381864107655  0.4729095397736250
  0.3957127432702064  0.9088749619616432  0.4145857542244481
  0.1084963807736895  0.4949502534106877  0.4170681085726606
  0.5164116843021720  0.6157678489585675  0.4079615973175982
  0.5102237426194772  0.8964022892522930  0.4236251933564502
  0.1060787960052963  0.6083440081007940  0.4072389478573580
  0.4046234113431915  0.4989286752640202  0.4018326844931172
  0.2933305765756758  0.9570192767660992  0.5086196968817773
  0.0788587117246947  0.4049814543324350  0.5208006803633481
  0.6320359784136932  0.6968768822014938  0.5083190431697189
  0.3607103538997492  0.0766097261810315  0.4612358030267706
  0.9568015597991218  0.3052204180686184  0.4848242048213010
  0.7080911708181811  0.6411895416818320  0.4672260734158639
  0.4275568886300781  0.0360992649504438  0.4075481620157041
  0.9768141286928144  0.3848381210203885  0.4204336098890587
  0.6288081225209434  0.5927770620004944  0.4051048716111996
  0.3763506207917790  0.9767894224830528  0.5669349274199874
  0.0489368886751584  0.4549383281338990  0.5748965581095190
  0.5818140562802651  0.6027895044019379  0.5679527965602330
  0.4816067897054666  0.1063003054013176  0.5674529746256213
  0.9090112856231718  0.4129588357458169  0.5734222716716616
  0.6175563167144053  0.5078106893381574  0.5619458651505483
  0.4825787365286862  0.1781905437555613  0.5025376451884491
  0.8284598538301606  0.3090330050010254  0.5186568824876227
  0.7064701362921132  0.5275958111495037  0.5035115353398164
  0.5946305788218830  0.0993178270177205  0.5767283032498923
  0.9101125403983630  0.5282536121927657  0.5646068461163142
  0.5042309349737192  0.3854688753368313  0.5556653810597590
  0.6950206875149720  0.1704372316770697  0.5207376546123405
  0.8345492894686036  0.5275943034351276  0.5042260789864903
  0.5090709188907823  0.3145993691241383  0.4938182388267833
  0.5980391056042998  0.1761394313220770  0.4715050996208069
  0.7908522139325571  0.3976126716115868  0.4672887063380703
  0.6390401070818131  0.4090646985580234  0.4568468266456906
  0.5679744474244762  0.1048385400191960  0.4140763433439933
  0.8899718800341887  0.4302294690428144  0.4123020314325738
  0.5913521603177886  0.4638236910567581  0.3975218977144661
  0.6197950535867728  0.0179000706495704  0.4233897544471858
  0.9688367056492693  0.5692256307644563  0.4054285888511329
  0.4513089969559999  0.4046545880814442  0.3958462856781250
  0.7025687907936196  0.0520368571015785  0.4894653857344997
  0.9436318883468866  0.6220920622198710  0.4603114463485841
  0.4108570513848995  0.3316767291459478  0.4520066354253482
 
  0.00000000E+00  0.00000000E+00  0.00000000E+00
  0.00000000E+00  0.00000000E+00  0.00000000E+00
  0.00000000E+00  0.00000000E+00  0.00000000E+00
  0.00000000E+00  0.00000000E+00  0.00000000E+00
  0.00000000E+00  0.00000000E+00  0.00000000E+00
  0.00000000E+00  0.00000000E+00  0.00000000E+00
  0.00000000E+00  0.00000000E+00  0.00000000E+00
  0.00000000E+00  0.00000000E+00  0.00000000E+00
  0.00000000E+00  0.00000000E+00  0.00000000E+00
  0.00000000E+00  0.00000000E+00  0.00000000E+00
  0.00000000E+00  0.00000000E+00  0.00000000E+00
  0.00000000E+00  0.00000000E+00  0.00000000E+00
  0.00000000E+00  0.00000000E+00  0.00000000E+00
  0.00000000E+00  0.00000000E+00  0.00000000E+00
  0.00000000E+00  0.00000000E+00  0.00000000E+00
  0.00000000E+00  0.00000000E+00  0.00000000E+00
  0.00000000E+00  0.00000000E+00  0.00000000E+00
  0.00000000E+00  0.00000000E+00  0.00000000E+00
  0.00000000E+00  0.00000000E+00  0.00000000E+00
  0.00000000E+00  0.00000000E+00  0.00000000E+00
  0.00000000E+00  0.00000000E+00  0.00000000E+00
  0.00000000E+00  0.00000000E+00  0.00000000E+00
  0.00000000E+00  0.00000000E+00  0.00000000E+00
  0.00000000E+00  0.00000000E+00  0.00000000E+00
  0.00000000E+00  0.00000000E+00  0.00000000E+00
  0.00000000E+00  0.00000000E+00  0.00000000E+00
  0.00000000E+00  0.00000000E+00  0.00000000E+00
  0.00000000E+00  0.00000000E+00  0.00000000E+00
  0.00000000E+00  0.00000000E+00  0.00000000E+00
  0.00000000E+00  0.00000000E+00  0.00000000E+00
  0.00000000E+00  0.00000000E+00  0.00000000E+00
  0.00000000E+00  0.00000000E+00  0.00000000E+00
  0.00000000E+00  0.00000000E+00  0.00000000E+00
  0.00000000E+00  0.00000000E+00  0.00000000E+00
  0.00000000E+00  0.00000000E+00  0.00000000E+00
  0.00000000E+00  0.00000000E+00  0.00000000E+00
  0.00000000E+00  0.00000000E+00  0.00000000E+00
  0.00000000E+00  0.00000000E+00  0.00000000E+00
  0.00000000E+00  0.00000000E+00  0.00000000E+00
  0.00000000E+00  0.00000000E+00  0.00000000E+00
  0.00000000E+00  0.00000000E+00  0.00000000E+00
  0.00000000E+00  0.00000000E+00  0.00000000E+00
  0.00000000E+00  0.00000000E+00  0.00000000E+00
  0.00000000E+00  0.00000000E+00  0.00000000E+00
  0.00000000E+00  0.00000000E+00  0.00000000E+00
  0.00000000E+00  0.00000000E+00  0.00000000E+00
  0.00000000E+00  0.00000000E+00  0.00000000E+00
  0.00000000E+00  0.00000000E+00  0.00000000E+00
  0.00000000E+00  0.00000000E+00  0.00000000E+00
  0.00000000E+00  0.00000000E+00  0.00000000E+00
  0.00000000E+00  0.00000000E+00  0.00000000E+00
  0.00000000E+00  0.00000000E+00  0.00000000E+00
  0.00000000E+00  0.00000000E+00  0.00000000E+00
  0.00000000E+00  0.00000000E+00  0.00000000E+00
  0.00000000E+00  0.00000000E+00  0.00000000E+00
  0.00000000E+00  0.00000000E+00  0.00000000E+00
  0.00000000E+00  0.00000000E+00  0.00000000E+00
  0.00000000E+00  0.00000000E+00  0.00000000E+00
  0.00000000E+00  0.00000000E+00  0.00000000E+00
  0.00000000E+00  0.00000000E+00  0.00000000E+00
  0.00000000E+00  0.00000000E+00  0.00000000E+00
  0.00000000E+00  0.00000000E+00  0.00000000E+00
  0.00000000E+00  0.00000000E+00  0.00000000E+00
  0.00000000E+00  0.00000000E+00  0.00000000E+00
  0.00000000E+00  0.00000000E+00  0.00000000E+00
  0.00000000E+00  0.00000000E+00  0.00000000E+00
  0.00000000E+00  0.00000000E+00  0.00000000E+00
  0.00000000E+00  0.00000000E+00  0.00000000E+00
  0.00000000E+00  0.00000000E+00  0.00000000E+00
  0.00000000E+00  0.00000000E+00  0.00000000E+00
  0.00000000E+00  0.00000000E+00  0.00000000E+00
  0.00000000E+00  0.00000000E+00  0.00000000E+00
  0.00000000E+00  0.00000000E+00  0.00000000E+00
  0.00000000E+00  0.00000000E+00  0.00000000E+00
  0.00000000E+00  0.00000000E+00  0.00000000E+00
  0.00000000E+00  0.00000000E+00  0.00000000E+00
  0.00000000E+00  0.00000000E+00  0.00000000E+00
  0.00000000E+00  0.00000000E+00  0.00000000E+00
  0.00000000E+00  0.00000000E+00  0.00000000E+00
  0.00000000E+00  0.00000000E+00  0.00000000E+00
  0.00000000E+00  0.00000000E+00  0.00000000E+00
  0.00000000E+00  0.00000000E+00  0.00000000E+00
  0.00000000E+00  0.00000000E+00  0.00000000E+00
  0.00000000E+00  0.00000000E+00  0.00000000E+00
