Generated by VASPKIT code               
   1.00000000000000     
    10.8992669562504734   -0.1450449754850542    0.0000000000000000
    -0.1739648416163009   10.0186648172654156    0.0000000000000000
     0.0000000000000013    0.0000000000000012   19.7119904978961955
  C             
    68
Direct
  0.4292708288319275  0.0006193507300155  0.6253958467825576
  0.8912043673754422  0.4651625167045045  0.6024003558348069
  0.5275452079667780  0.9123885986731786  0.6150443977160995
  0.0103599173545298  0.5287302686614538  0.6093298618899821
  0.4788413049645952  0.1290325567505944  0.6100477140835057
  0.8000747329454792  0.5451764055506656  0.5693306277201560
  0.6384264397958797  0.9806054802563313  0.5940835100265289
  0.0074909912933708  0.6585066531971284  0.5712172103216140
  0.6049530544565663  0.1217302591820889  0.5806524706333617
  0.8778510498076448  0.6591289085266177  0.5367683097460576
  0.4066473956407376  0.1909983817679921  0.5586578791518793
  0.7567417978942184  0.4702035266790418  0.5111331222937169
  0.4810030888630305  0.2461699753611877  0.5048779703021864
  0.7675506930602023  0.5421834462633127  0.4460280202135494
  0.6065593979867856  0.1931102339051733  0.5162540441824651
  0.8641437418616059  0.6238049192813206  0.4660028153542445
  0.3431092030154454  0.0853149551380133  0.5286720060777605
  0.8373146058626467  0.3592736781222582  0.5023910997794119
  0.3322752516465163  0.9596542998301663  0.5687345278842735
  0.9186922510044814  0.3543871688459798  0.5599121514313720
  0.4029932866395093  0.8520671256549154  0.5315204609318857
  0.0546089502293784  0.3205098030090798  0.5568859143916027
  0.3367793111229336  0.0878353494292196  0.4528891813713645
  0.8845379452772941  0.3601279108263748  0.4351810788833114
  0.4052864540758467  0.9712625751381322  0.4233684990129765
  0.0128214587224206  0.3261735265100357  0.4192619576822873
  0.4326290526037783  0.8585802602036572  0.4617517804435324
  0.1081376403176621  0.3266038670004484  0.4799384146888611
  0.4340162751156422  0.2051547192388289  0.4414571475555208
  0.8401354277071063  0.4677744561999161  0.3962772691857332
  0.6091062483543612  0.8005860290733171  0.5208935452035633
  0.1775835207420953  0.5231044688656372  0.5379642552326509
  0.5049853333321022  0.8059924230656434  0.5676224921821753
  0.1093101231020618  0.4504419417188779  0.5882213313887592
  0.5656653091001350  0.8298844499526821  0.4529746554193215
  0.1847733610256818  0.4529635140880848  0.4763665821621418
  0.6133053329095016  0.9294644234280642  0.4054265515004102
  0.1465996040574154  0.5285525821079510  0.4202635206120732
  0.5107120397958298  0.0104645855171713  0.3845118405154708
  0.0555068624463139  0.4595151417341233  0.3808786484746564
  0.5329440492211353  0.1436969692596997  0.4073797529228076
  0.9505125994760278  0.5395985206798014  0.3739511754083616
  0.6978353771305897  0.8932339868450764  0.5490086211324116
  0.1249616936587668  0.6598735915253902  0.5253253999112574
  0.7023728890415345  0.0254871860277766  0.4320003108948814
  0.1032972308940646  0.6647611923510330  0.4464705701576503
  0.6428467454837022  0.1446810545928043  0.4476808028609047
  0.9661203913720936  0.6620314668101625  0.4211158584999262
  0.2057006747506130  0.0799307737493482  0.4426564057029567
  0.2002611353024156  0.9325704747198438  0.5715985459791666
  0.1224016146525472  0.1758764433961468  0.4753936880363008
  0.0738329093560014  0.1582234644112915  0.5527674353738548
  0.1100321596357269  0.0249114394415832  0.5905189317178045
  0.0078747012592274  0.1605256781619076  0.4287952940635485
  0.9032984146149078  0.1238526473616692  0.4749738741052615
  0.9415382239665425  0.1201508036236616  0.5403123031436811
  0.0177562678188845  0.0210195578065708  0.4020279716732890
  0.9182211650934213  0.9360225134767293  0.4131796887956611
  0.8249202048373548  0.0035115046484466  0.4568342536810133
  0.1351075246340224  0.9683365958720999  0.4187333654528087
  0.1091357483608443  0.8298273579520674  0.4511470733054552
  0.9658819108393993  0.8150755834291938  0.4438999771467294
  0.1370910381831809  0.8187395149852271  0.5341637550733424
  0.0122602881732584  0.8159682049387859  0.5700656348038898
  0.9065953889906285  0.8092388324173916  0.5186509935237065
  0.8216337854009447  0.9235181136334466  0.5263136643451675
  0.8971990307277138  0.0082555030041037  0.5744184024676008
  0.9988179788194875  0.9478402886895577  0.6019855208798868
 
  0.00000000E+00  0.00000000E+00  0.00000000E+00
  0.00000000E+00  0.00000000E+00  0.00000000E+00
  0.00000000E+00  0.00000000E+00  0.00000000E+00
  0.00000000E+00  0.00000000E+00  0.00000000E+00
  0.00000000E+00  0.00000000E+00  0.00000000E+00
  0.00000000E+00  0.00000000E+00  0.00000000E+00
  0.00000000E+00  0.00000000E+00  0.00000000E+00
  0.00000000E+00  0.00000000E+00  0.00000000E+00
  0.00000000E+00  0.00000000E+00  0.00000000E+00
  0.00000000E+00  0.00000000E+00  0.00000000E+00
  0.00000000E+00  0.00000000E+00  0.00000000E+00
  0.00000000E+00  0.00000000E+00  0.00000000E+00
  0.00000000E+00  0.00000000E+00  0.00000000E+00
  0.00000000E+00  0.00000000E+00  0.00000000E+00
  0.00000000E+00  0.00000000E+00  0.00000000E+00
  0.00000000E+00  0.00000000E+00  0.00000000E+00
  0.00000000E+00  0.00000000E+00  0.00000000E+00
  0.00000000E+00  0.00000000E+00  0.00000000E+00
  0.00000000E+00  0.00000000E+00  0.00000000E+00
  0.00000000E+00  0.00000000E+00  0.00000000E+00
  0.00000000E+00  0.00000000E+00  0.00000000E+00
  0.00000000E+00  0.00000000E+00  0.00000000E+00
  0.00000000E+00  0.00000000E+00  0.00000000E+00
  0.00000000E+00  0.00000000E+00  0.00000000E+00
  0.00000000E+00  0.00000000E+00  0.00000000E+00
  0.00000000E+00  0.00000000E+00  0.00000000E+00
  0.00000000E+00  0.00000000E+00  0.00000000E+00
  0.00000000E+00  0.00000000E+00  0.00000000E+00
  0.00000000E+00  0.00000000E+00  0.00000000E+00
  0.00000000E+00  0.00000000E+00  0.00000000E+00
  0.00000000E+00  0.00000000E+00  0.00000000E+00
  0.00000000E+00  0.00000000E+00  0.00000000E+00
  0.00000000E+00  0.00000000E+00  0.00000000E+00
  0.00000000E+00  0.00000000E+00  0.00000000E+00
  0.00000000E+00  0.00000000E+00  0.00000000E+00
  0.00000000E+00  0.00000000E+00  0.00000000E+00
  0.00000000E+00  0.00000000E+00  0.00000000E+00
  0.00000000E+00  0.00000000E+00  0.00000000E+00
  0.00000000E+00  0.00000000E+00  0.00000000E+00
  0.00000000E+00  0.00000000E+00  0.00000000E+00
  0.00000000E+00  0.00000000E+00  0.00000000E+00
  0.00000000E+00  0.00000000E+00  0.00000000E+00
  0.00000000E+00  0.00000000E+00  0.00000000E+00
  0.00000000E+00  0.00000000E+00  0.00000000E+00
  0.00000000E+00  0.00000000E+00  0.00000000E+00
  0.00000000E+00  0.00000000E+00  0.00000000E+00
  0.00000000E+00  0.00000000E+00  0.00000000E+00
  0.00000000E+00  0.00000000E+00  0.00000000E+00
  0.00000000E+00  0.00000000E+00  0.00000000E+00
  0.00000000E+00  0.00000000E+00  0.00000000E+00
  0.00000000E+00  0.00000000E+00  0.00000000E+00
  0.00000000E+00  0.00000000E+00  0.00000000E+00
  0.00000000E+00  0.00000000E+00  0.00000000E+00
  0.00000000E+00  0.00000000E+00  0.00000000E+00
  0.00000000E+00  0.00000000E+00  0.00000000E+00
  0.00000000E+00  0.00000000E+00  0.00000000E+00
  0.00000000E+00  0.00000000E+00  0.00000000E+00
  0.00000000E+00  0.00000000E+00  0.00000000E+00
  0.00000000E+00  0.00000000E+00  0.00000000E+00
  0.00000000E+00  0.00000000E+00  0.00000000E+00
  0.00000000E+00  0.00000000E+00  0.00000000E+00
  0.00000000E+00  0.00000000E+00  0.00000000E+00
  0.00000000E+00  0.00000000E+00  0.00000000E+00
  0.00000000E+00  0.00000000E+00  0.00000000E+00
  0.00000000E+00  0.00000000E+00  0.00000000E+00
  0.00000000E+00  0.00000000E+00  0.00000000E+00
  0.00000000E+00  0.00000000E+00  0.00000000E+00
  0.00000000E+00  0.00000000E+00  0.00000000E+00
