Generated by VASPKIT code               
   1.00000000000000     
    15.4510224476348519   -0.0025742098916078    0.0000000000000000
    -7.7277407055949663   13.3792260586499889    0.0000000000000000
     0.0000000000000013    0.0000000000000023   19.7145832821725868
  C             
   108
Direct
  0.4935020498901131  0.8283162982203631  0.5299397482145815
  0.0878101168182084  0.1754674604304226  0.5202199351883483
  0.5195042215554050  0.7597519554515563  0.4862605075269872
  0.1528806489437281  0.1529669003367723  0.4822147643319485
  0.4080021932754581  0.8158761416682015  0.4901423639819220
  0.9996309086208787  0.1519204253576827  0.4821687948839670
  0.4459320709929953  0.7229535603105965  0.4329147764452625
  0.0932764589283951  0.0932770308790333  0.4228179487227162
  0.3857459376832301  0.7713614557509622  0.4292073282585404
  0.9999236283266162  0.0930526886124109  0.4227593180764768
  0.3349071575226339  0.8282790771621671  0.5299232022760263
  0.9114305730510502  0.0884347350127735  0.5202836332446483
  0.2403486146655768  0.7596652849573442  0.4862379109596680
  0.8479846595431226  0.0002661008420422  0.4821707826543701
  0.2771055873993032  0.7229092601945769  0.4329027214886838
  0.9068946336084630  0.9999942057708140  0.4227668084019122
  0.3320899701394195  0.7578629064440336  0.5867754912184504
  0.9461284549371781  0.0537879973441320  0.5795241656412800
  0.4258563756666382  0.7578647254808306  0.5867753600671389
  0.0535849733632273  0.1074784328120136  0.5797374472777088
  0.4258570465851105  0.6679528072878834  0.5867828701525919
  0.1073013688993659  0.0535864497482087  0.5795574805013327
  0.2421475113634132  0.6679192068691308  0.5867723696676584
  0.8925276382124905  0.9463065039695068  0.5797325699662950
  0.2421450345665439  0.5741492250913777  0.5867696095895469
  0.9464343940885552  0.8926079468638217  0.5795473567255938
  0.3320509288270221  0.5741456617324507  0.5867805978339302
  0.0538869855418651  0.9461059861946138  0.5796438691416997
  0.1717321559125806  0.6651023088889296  0.5299210438257282
  0.8246466347716171  0.9121258414778323  0.5202207485098223
  0.4079508519474855  0.5920525314153630  0.4901472363197880
  0.1520175284998324  0.9998685992715114  0.4821043144470545
  0.4934725224655375  0.6651484104467331  0.5299413421191859
  0.1756991123657578  0.0880777113815525  0.5203262505822880
  0.3348576895461927  0.5065276391221250  0.5299392102423101
  0.0882956069128599  0.9117795430631530  0.5200654038915503
  0.2402577693017102  0.4805035466253104  0.4862572701674435
  0.0001961247598407  0.8480355423908917  0.4820907580045566
  0.1716915810746787  0.5065029176618325  0.5299373479800820
  0.9119322282074934  0.8241214586937191  0.5203077175170269
  0.1841385421618337  0.5920092829462952  0.4901328693832899
  0.8471252994264511  0.8470152343309751  0.4822068044742706
  0.3857059020405199  0.6143028920344148  0.4292118851176697
  0.0931268676283803  0.0002725759491983  0.4227208110576305
  0.2770594273479939  0.5540802944518831  0.4329134190974677
  0.9997936152856709  0.9069109425720642  0.4227113135038356
  0.2286477891300536  0.6142633074639707  0.4292095271317579
  0.9067509426444440  0.9066820223777744  0.4228109668051054
  0.5685447335790119  0.3328380835950608  0.4626750668946678
  0.6671507871045459  0.2357712975251365  0.4626890278743309
  0.7642718863859256  0.4314720138673805  0.4626718514011328
  0.5241165471178135  0.3131958918033794  0.5383294188119513
  0.6867878164765355  0.2109759245003803  0.5383413144368785
  0.7890754960351354  0.4759086617311872  0.5383206320474773
  0.6671742671233382  0.4314698892840520  0.4626710738762776
  0.5685382013753379  0.2357392397636004  0.4626784157220077
  0.7642358405653811  0.3328552668410289  0.4626907610652393
  0.6868220720207038  0.4759083254456980  0.5383226194052383
  0.5241130546806877  0.2109399493165377  0.5383295067074622
  0.7890273517617568  0.3132234645285497  0.5383456706934291
  0.5944992058672891  0.4055269574525840  0.5788108069793443
  0.5944800941180621  0.1890080063308728  0.5788180314555569
  0.8109981479314675  0.4055410809484457  0.5788168194558111
  0.6485682793048543  0.5013085471381320  0.4205696131403142
  0.4987160889700563  0.1472661338759823  0.4205770648813271
  0.8526687944992891  0.3514222139349269  0.4205931456836440
  0.6579145204577727  0.5818384579476004  0.4610174112224251
  0.4181784183698782  0.0760516058210615  0.4610216477547358
  0.9238247037129388  0.3420445950756396  0.4610300975352590
  0.6748772969641763  0.5676325128625588  0.5301365380916333
  0.4323651689285675  0.1072269801342469  0.5301450870289699
  0.8926823792680812  0.3251310722277218  0.5301565246734000
  0.5497692980202601  0.4502280411666168  0.3949295567281690
  0.5497840637370937  0.0995709371145029  0.3949249708763740
  0.9004418735319613  0.4502007209226679  0.3949267360678549
  0.4976955296292327  0.5022986387801247  0.4184766915240557
  0.4977117816691388  0.9953996076223723  0.4184713442308247
  0.0046077637681414  0.5022664943044343  0.4184738398650617
  0.5668087362062585  0.5868706861093670  0.4566369838115935
  0.4131511899335965  0.9799044955114750  0.4566354323018512
  0.0200455159811488  0.4331557655138675  0.4566317495544615
  0.4986993622151167  0.3514325050065656  0.4205750565132758
  0.6485632857182808  0.1473361759087082  0.4205819284054439
  0.8527526103763913  0.5012798550261148  0.4205691266242635
  0.4181714799520799  0.3420788372619912  0.4610260838636110
  0.6579401263997693  0.0761739210452789  0.4610156295551798
  0.9239684887967941  0.5818213472168323  0.4610085502925738
  0.4131299416267333  0.4331815096193243  0.4566425084180387
  0.5668252714153103  0.9799565132293585  0.4566204095007234
  0.0201075928845433  0.5868388078847897  0.4566306951031239
  0.4323887599941191  0.3251245119637388  0.5301471734596657
  0.6748712810365569  0.1073169228567541  0.5301417632189753
  0.8927943890741100  0.5676517925876775  0.5301333623869502
  0.4399841359033390  0.4057190959333110  0.5695250946833300
  0.5942903635978982  0.0342836095317607  0.5695195876645066
  0.9657895393600318  0.5600359906666971  0.5695136144697893
  0.4111480996292865  0.4701744265472856  0.5277216529516020
  0.5298327394593101  0.9409826529158521  0.5277078397387950
  0.0590746765137913  0.5888127095460157  0.5277061920247615
  0.5298251526159422  0.5888585683979031  0.5277187817356691
  0.4111868272336332  0.9409360004011641  0.5277076388823856
  0.0590224262426133  0.4701694810882991  0.5277172284011807
  0.5942877351056834  0.5600338230624682  0.5695214380518078
  0.4399804000643875  0.0342239330607156  0.5695203526408075
  0.9657187799775804  0.4057202791783656  0.5695305435687910
  0.5411110644935958  0.4589060971178498  0.5928626709572171
  0.5411031637482232  0.0822127151319459  0.5928512829556308
  0.9177890670224940  0.4589113254547775  0.5928515554029525
 
  0.00000000E+00  0.00000000E+00  0.00000000E+00
  0.00000000E+00  0.00000000E+00  0.00000000E+00
  0.00000000E+00  0.00000000E+00  0.00000000E+00
  0.00000000E+00  0.00000000E+00  0.00000000E+00
  0.00000000E+00  0.00000000E+00  0.00000000E+00
  0.00000000E+00  0.00000000E+00  0.00000000E+00
  0.00000000E+00  0.00000000E+00  0.00000000E+00
  0.00000000E+00  0.00000000E+00  0.00000000E+00
  0.00000000E+00  0.00000000E+00  0.00000000E+00
  0.00000000E+00  0.00000000E+00  0.00000000E+00
  0.00000000E+00  0.00000000E+00  0.00000000E+00
  0.00000000E+00  0.00000000E+00  0.00000000E+00
  0.00000000E+00  0.00000000E+00  0.00000000E+00
  0.00000000E+00  0.00000000E+00  0.00000000E+00
  0.00000000E+00  0.00000000E+00  0.00000000E+00
  0.00000000E+00  0.00000000E+00  0.00000000E+00
  0.00000000E+00  0.00000000E+00  0.00000000E+00
  0.00000000E+00  0.00000000E+00  0.00000000E+00
  0.00000000E+00  0.00000000E+00  0.00000000E+00
  0.00000000E+00  0.00000000E+00  0.00000000E+00
  0.00000000E+00  0.00000000E+00  0.00000000E+00
  0.00000000E+00  0.00000000E+00  0.00000000E+00
  0.00000000E+00  0.00000000E+00  0.00000000E+00
  0.00000000E+00  0.00000000E+00  0.00000000E+00
  0.00000000E+00  0.00000000E+00  0.00000000E+00
  0.00000000E+00  0.00000000E+00  0.00000000E+00
  0.00000000E+00  0.00000000E+00  0.00000000E+00
  0.00000000E+00  0.00000000E+00  0.00000000E+00
  0.00000000E+00  0.00000000E+00  0.00000000E+00
  0.00000000E+00  0.00000000E+00  0.00000000E+00
  0.00000000E+00  0.00000000E+00  0.00000000E+00
  0.00000000E+00  0.00000000E+00  0.00000000E+00
  0.00000000E+00  0.00000000E+00  0.00000000E+00
  0.00000000E+00  0.00000000E+00  0.00000000E+00
  0.00000000E+00  0.00000000E+00  0.00000000E+00
  0.00000000E+00  0.00000000E+00  0.00000000E+00
  0.00000000E+00  0.00000000E+00  0.00000000E+00
  0.00000000E+00  0.00000000E+00  0.00000000E+00
  0.00000000E+00  0.00000000E+00  0.00000000E+00
  0.00000000E+00  0.00000000E+00  0.00000000E+00
  0.00000000E+00  0.00000000E+00  0.00000000E+00
  0.00000000E+00  0.00000000E+00  0.00000000E+00
  0.00000000E+00  0.00000000E+00  0.00000000E+00
  0.00000000E+00  0.00000000E+00  0.00000000E+00
  0.00000000E+00  0.00000000E+00  0.00000000E+00
  0.00000000E+00  0.00000000E+00  0.00000000E+00
  0.00000000E+00  0.00000000E+00  0.00000000E+00
  0.00000000E+00  0.00000000E+00  0.00000000E+00
  0.00000000E+00  0.00000000E+00  0.00000000E+00
  0.00000000E+00  0.00000000E+00  0.00000000E+00
  0.00000000E+00  0.00000000E+00  0.00000000E+00
  0.00000000E+00  0.00000000E+00  0.00000000E+00
  0.00000000E+00  0.00000000E+00  0.00000000E+00
  0.00000000E+00  0.00000000E+00  0.00000000E+00
  0.00000000E+00  0.00000000E+00  0.00000000E+00
  0.00000000E+00  0.00000000E+00  0.00000000E+00
  0.00000000E+00  0.00000000E+00  0.00000000E+00
  0.00000000E+00  0.00000000E+00  0.00000000E+00
  0.00000000E+00  0.00000000E+00  0.00000000E+00
  0.00000000E+00  0.00000000E+00  0.00000000E+00
  0.00000000E+00  0.00000000E+00  0.00000000E+00
  0.00000000E+00  0.00000000E+00  0.00000000E+00
  0.00000000E+00  0.00000000E+00  0.00000000E+00
  0.00000000E+00  0.00000000E+00  0.00000000E+00
  0.00000000E+00  0.00000000E+00  0.00000000E+00
  0.00000000E+00  0.00000000E+00  0.00000000E+00
  0.00000000E+00  0.00000000E+00  0.00000000E+00
  0.00000000E+00  0.00000000E+00  0.00000000E+00
  0.00000000E+00  0.00000000E+00  0.00000000E+00
  0.00000000E+00  0.00000000E+00  0.00000000E+00
  0.00000000E+00  0.00000000E+00  0.00000000E+00
  0.00000000E+00  0.00000000E+00  0.00000000E+00
  0.00000000E+00  0.00000000E+00  0.00000000E+00
  0.00000000E+00  0.00000000E+00  0.00000000E+00
  0.00000000E+00  0.00000000E+00  0.00000000E+00
  0.00000000E+00  0.00000000E+00  0.00000000E+00
  0.00000000E+00  0.00000000E+00  0.00000000E+00
  0.00000000E+00  0.00000000E+00  0.00000000E+00
  0.00000000E+00  0.00000000E+00  0.00000000E+00
  0.00000000E+00  0.00000000E+00  0.00000000E+00
  0.00000000E+00  0.00000000E+00  0.00000000E+00
  0.00000000E+00  0.00000000E+00  0.00000000E+00
  0.00000000E+00  0.00000000E+00  0.00000000E+00
  0.00000000E+00  0.00000000E+00  0.00000000E+00
  0.00000000E+00  0.00000000E+00  0.00000000E+00
  0.00000000E+00  0.00000000E+00  0.00000000E+00
  0.00000000E+00  0.00000000E+00  0.00000000E+00
  0.00000000E+00  0.00000000E+00  0.00000000E+00
  0.00000000E+00  0.00000000E+00  0.00000000E+00
  0.00000000E+00  0.00000000E+00  0.00000000E+00
  0.00000000E+00  0.00000000E+00  0.00000000E+00
  0.00000000E+00  0.00000000E+00  0.00000000E+00
  0.00000000E+00  0.00000000E+00  0.00000000E+00
  0.00000000E+00  0.00000000E+00  0.00000000E+00
  0.00000000E+00  0.00000000E+00  0.00000000E+00
  0.00000000E+00  0.00000000E+00  0.00000000E+00
  0.00000000E+00  0.00000000E+00  0.00000000E+00
  0.00000000E+00  0.00000000E+00  0.00000000E+00
  0.00000000E+00  0.00000000E+00  0.00000000E+00
  0.00000000E+00  0.00000000E+00  0.00000000E+00
  0.00000000E+00  0.00000000E+00  0.00000000E+00
  0.00000000E+00  0.00000000E+00  0.00000000E+00
  0.00000000E+00  0.00000000E+00  0.00000000E+00
  0.00000000E+00  0.00000000E+00  0.00000000E+00
  0.00000000E+00  0.00000000E+00  0.00000000E+00
  0.00000000E+00  0.00000000E+00  0.00000000E+00
  0.00000000E+00  0.00000000E+00  0.00000000E+00
  0.00000000E+00  0.00000000E+00  0.00000000E+00
