Generated by VASPKIT code               
   1.00000000000000     
    11.5673891416584986   -0.7547650714427088    0.0000000000000000
    -0.7445913790287521   11.5938897926466868    0.0000000000000000
     0.0000000000000012    0.0000000000000012   19.7195834148218871
  C             
    84
Direct
  0.4840844436529609  0.5130357583723041  0.5986758636025135
  0.4607780224643470  0.3915776611904927  0.5782730621691958
  0.6031301173552660  0.5556520933953347  0.5799921738716712
  0.5573137757155282  0.3696188082959961  0.5368110083180987
  0.6397769108439975  0.4671773518355287  0.5374457918347270
  0.6051148304726945  0.6572443511440430  0.5409946777046535
  0.6634560835022524  0.6459102994932039  0.4798694958515259
  0.6983334561234553  0.5226527385768123  0.4739170145963517
  0.4802190712835956  0.6816062789114554  0.5292930695711804
  0.4103499421811209  0.5756587723975137  0.5627436935010823
  0.3172109160333986  0.4909327015887291  0.5285497889029230
  0.4739542599482103  0.6929224426010338  0.4463280584473935
  0.3963421457018024  0.5926559572883728  0.4106669889127642
  0.3070924076284625  0.5008001231648529  0.4448700242512131
  0.5958943178661962  0.6691242420635730  0.4242682583554597
  0.3814863088601781  0.3240175217924651  0.4772199815854090
  0.3584597167070003  0.3736426986561795  0.5395318041332668
  0.3481063291784418  0.3869370254874396  0.4219311401851916
  0.4439111781810642  0.4120923092782595  0.3782318274655312
  0.4640443200056874  0.5366143218288422  0.3663943984190793
  0.5864323721194313  0.5747344558184777  0.3788690637731105
  0.5118902117187775  0.3059469867261244  0.4724309117781578
  0.5478306810779280  0.3792724084804501  0.4089616834480078
  0.6326733807640161  0.4779790574649648  0.4097746162264062
  0.9022970916773808  0.0773560375441881  0.5736903866854088
  0.4061904926569319  0.0813100098081980  0.5739003369470009
  0.9039941164110592  0.3996923795608782  0.5703584003958795
  0.0147684213095735  0.1369416240719697  0.5605466476488020
  0.5147140020725215  0.1404878905523400  0.5534419706272377
  0.8572573424878318  0.5084475620594675  0.5576177344437881
  0.9242394094509151  0.9635436491109363  0.5951510980756136
  0.4321221649259228  0.9711948485431225  0.5978594709925913
  0.0183449420566787  0.4258611499244609  0.5984353407688570
  0.0524137962943260  0.9631157050129203  0.5980342020352932
  0.5610395481467606  0.9732841453149622  0.5966137543340877
  0.0380279725350565  0.5507130556990882  0.6057369723196306
  0.1087473734338579  0.0758151755990255  0.5778327399064649
  0.6118785745560865  0.0832180617836712  0.5705683731005597
  0.9366334880458075  0.5997086845567959  0.5791688627734528
  0.8736013742760105  0.8774200976768206  0.5521670484549682
  0.3773864256280426  0.8779951603921172  0.5610364735994670
  0.1054131390451990  0.3844954989293874  0.5559673150528426
  0.9703661324441769  0.8121994737896484  0.5253931967579819
  0.4732808116624399  0.8119648077989343  0.5360954924744812
  0.1877073411396401  0.4902586486282115  0.5352351598107978
  0.0820493223936509  0.8779812086638480  0.5554523232578317
  0.5885195557944544  0.8823148981074475  0.5570131792043022
  0.1336826629211582  0.5899836327050396  0.5637904235439544
  0.8039422619892045  0.9294826871857430  0.4976253828005356
  0.3025515706691987  0.9217091886822565  0.5046804784881288
  0.0417615940243071  0.3215483435688323  0.4940072002496670
  0.8861568914251652  0.9238730571736588  0.4383102660748430
  0.3763310841293846  0.9016605949924369  0.4434199822949223
  0.0806416270575204  0.4052710833885708  0.4347994128239779
  0.9801639419080438  0.8628767185126973  0.4549824746771556
  0.4715524310188803  0.8268126581450354  0.4556982938055714
  0.1755660517120042  0.5025899878775777  0.4542602559252624
  0.8220659870561063  0.0702470467118419  0.5126456722088468
  0.3215851223441323  0.0628927396020512  0.5159426306121633
  0.9178993789384550  0.3500716349509200  0.5058161062613291
  0.9123528217347165  0.1233562111542356  0.4607139483565750
  0.4018893308501644  0.1047894472556706  0.4579066962117618
  0.8785330376869972  0.4141991359171198  0.4532120051673038
  0.9422821157788137  0.0371690204133610  0.4185705563904658
  0.4305234864731949  0.0099894390130136  0.4205542508526525
  0.9817045722181503  0.4545841385409170  0.4143495228267651
  0.0280492769706018  0.1892640710589368  0.4905450552252192
  0.5165261223806391  0.1769910810181934  0.4796745887150034
  0.8251126212226534  0.5172209101717342  0.4819544186992324
  0.1218487166334815  0.1197281314337457  0.4639219631664337
  0.6134051893112806  0.1098207237780405  0.4545874789195699
  0.9135637909161304  0.6178438637390788  0.4605174875316388
  0.0704300030809886  0.0353122303020544  0.4203708846968216
  0.5576650197261450  0.0129805799876095  0.4196282371123866
  0.9995497376354393  0.5797800633964622  0.4196843129684776
  0.0920568699469680  0.9211012453780163  0.4412285656918537
  0.5863383494313039  0.9041052683824128  0.4405624944995499
  0.1148309739929241  0.6099288185053733  0.4478712731433340
  0.1705059230599376  0.9262827756432690  0.5030770596890850
  0.6707167891029628  0.9257650236074102  0.4990940596347245
  0.0983020853562106  0.6594719490234110  0.5110996895937007
  0.1904399136940988  0.0662303254253985  0.5182757552071350
  0.6885876021015129  0.0679824607554710  0.5103394008731928
  0.9720070076710140  0.6839575736215086  0.5214511186236134
 
  0.00000000E+00  0.00000000E+00  0.00000000E+00
  0.00000000E+00  0.00000000E+00  0.00000000E+00
  0.00000000E+00  0.00000000E+00  0.00000000E+00
  0.00000000E+00  0.00000000E+00  0.00000000E+00
  0.00000000E+00  0.00000000E+00  0.00000000E+00
  0.00000000E+00  0.00000000E+00  0.00000000E+00
  0.00000000E+00  0.00000000E+00  0.00000000E+00
  0.00000000E+00  0.00000000E+00  0.00000000E+00
  0.00000000E+00  0.00000000E+00  0.00000000E+00
  0.00000000E+00  0.00000000E+00  0.00000000E+00
  0.00000000E+00  0.00000000E+00  0.00000000E+00
  0.00000000E+00  0.00000000E+00  0.00000000E+00
  0.00000000E+00  0.00000000E+00  0.00000000E+00
  0.00000000E+00  0.00000000E+00  0.00000000E+00
  0.00000000E+00  0.00000000E+00  0.00000000E+00
  0.00000000E+00  0.00000000E+00  0.00000000E+00
  0.00000000E+00  0.00000000E+00  0.00000000E+00
  0.00000000E+00  0.00000000E+00  0.00000000E+00
  0.00000000E+00  0.00000000E+00  0.00000000E+00
  0.00000000E+00  0.00000000E+00  0.00000000E+00
  0.00000000E+00  0.00000000E+00  0.00000000E+00
  0.00000000E+00  0.00000000E+00  0.00000000E+00
  0.00000000E+00  0.00000000E+00  0.00000000E+00
  0.00000000E+00  0.00000000E+00  0.00000000E+00
  0.00000000E+00  0.00000000E+00  0.00000000E+00
  0.00000000E+00  0.00000000E+00  0.00000000E+00
  0.00000000E+00  0.00000000E+00  0.00000000E+00
  0.00000000E+00  0.00000000E+00  0.00000000E+00
  0.00000000E+00  0.00000000E+00  0.00000000E+00
  0.00000000E+00  0.00000000E+00  0.00000000E+00
  0.00000000E+00  0.00000000E+00  0.00000000E+00
  0.00000000E+00  0.00000000E+00  0.00000000E+00
  0.00000000E+00  0.00000000E+00  0.00000000E+00
  0.00000000E+00  0.00000000E+00  0.00000000E+00
  0.00000000E+00  0.00000000E+00  0.00000000E+00
  0.00000000E+00  0.00000000E+00  0.00000000E+00
  0.00000000E+00  0.00000000E+00  0.00000000E+00
  0.00000000E+00  0.00000000E+00  0.00000000E+00
  0.00000000E+00  0.00000000E+00  0.00000000E+00
  0.00000000E+00  0.00000000E+00  0.00000000E+00
  0.00000000E+00  0.00000000E+00  0.00000000E+00
  0.00000000E+00  0.00000000E+00  0.00000000E+00
  0.00000000E+00  0.00000000E+00  0.00000000E+00
  0.00000000E+00  0.00000000E+00  0.00000000E+00
  0.00000000E+00  0.00000000E+00  0.00000000E+00
  0.00000000E+00  0.00000000E+00  0.00000000E+00
  0.00000000E+00  0.00000000E+00  0.00000000E+00
  0.00000000E+00  0.00000000E+00  0.00000000E+00
  0.00000000E+00  0.00000000E+00  0.00000000E+00
  0.00000000E+00  0.00000000E+00  0.00000000E+00
  0.00000000E+00  0.00000000E+00  0.00000000E+00
  0.00000000E+00  0.00000000E+00  0.00000000E+00
  0.00000000E+00  0.00000000E+00  0.00000000E+00
  0.00000000E+00  0.00000000E+00  0.00000000E+00
  0.00000000E+00  0.00000000E+00  0.00000000E+00
  0.00000000E+00  0.00000000E+00  0.00000000E+00
  0.00000000E+00  0.00000000E+00  0.00000000E+00
  0.00000000E+00  0.00000000E+00  0.00000000E+00
  0.00000000E+00  0.00000000E+00  0.00000000E+00
  0.00000000E+00  0.00000000E+00  0.00000000E+00
  0.00000000E+00  0.00000000E+00  0.00000000E+00
  0.00000000E+00  0.00000000E+00  0.00000000E+00
  0.00000000E+00  0.00000000E+00  0.00000000E+00
  0.00000000E+00  0.00000000E+00  0.00000000E+00
  0.00000000E+00  0.00000000E+00  0.00000000E+00
  0.00000000E+00  0.00000000E+00  0.00000000E+00
  0.00000000E+00  0.00000000E+00  0.00000000E+00
  0.00000000E+00  0.00000000E+00  0.00000000E+00
  0.00000000E+00  0.00000000E+00  0.00000000E+00
  0.00000000E+00  0.00000000E+00  0.00000000E+00
  0.00000000E+00  0.00000000E+00  0.00000000E+00
  0.00000000E+00  0.00000000E+00  0.00000000E+00
  0.00000000E+00  0.00000000E+00  0.00000000E+00
  0.00000000E+00  0.00000000E+00  0.00000000E+00
  0.00000000E+00  0.00000000E+00  0.00000000E+00
  0.00000000E+00  0.00000000E+00  0.00000000E+00
  0.00000000E+00  0.00000000E+00  0.00000000E+00
  0.00000000E+00  0.00000000E+00  0.00000000E+00
  0.00000000E+00  0.00000000E+00  0.00000000E+00
  0.00000000E+00  0.00000000E+00  0.00000000E+00
  0.00000000E+00  0.00000000E+00  0.00000000E+00
  0.00000000E+00  0.00000000E+00  0.00000000E+00
  0.00000000E+00  0.00000000E+00  0.00000000E+00
  0.00000000E+00  0.00000000E+00  0.00000000E+00
