Generated by VASPKIT code               
   1.00000000000000     
    11.8362891322766774   -0.4377421772075025    0.0000000000000000
    -0.4263731885844239   12.0540727528587031    0.0000000000000000
     0.0000000000000012    0.0000000000000012   19.7170663405358084
  C             
    84
Direct
  0.5712687604299642  0.6757272380463857  0.5248121717385209
  0.6526742121972469  0.6339601619779862  0.4867622663161885
  0.4681572446854398  0.7017506035940581  0.4844445443348533
  0.5915409806989758  0.5820447641188852  0.4252307843524102
  0.4819273669510824  0.6197653825562716  0.4221499804200675
  0.3790171943778231  0.6396016677139550  0.5263839731730451
  0.3323629209627665  0.5539901869575753  0.4883208287656728
  0.3919487495587273  0.5333702597234480  0.4263068788559722
  0.4252714384871467  0.5861721491376098  0.5876315921533042
  0.5450662975640613  0.6115308048422368  0.5877233565903983
  0.6232762336757213  0.5280815662194822  0.5905027329724615
  0.3776111326669867  0.4741687301078129  0.5913519831314020
  0.4558678645552273  0.3906634412101752  0.5888292991565406
  0.5756694236995084  0.4159869617816849  0.5879497587210536
  0.2939480585798842  0.4531271328384843  0.5292978101193753
  0.6674657247716036  0.4459087421014603  0.4879622755455694
  0.7061882096555940  0.5477963060809395  0.5279971793225200
  0.6211703241125837  0.3611748304368730  0.5269469791154442
  0.5313305027278553  0.2982605983829315  0.4859179335519019
  0.4287896140311850  0.3248637950927243  0.5266593989928255
  0.3469935788018540  0.3659947076515884  0.4886223833550715
  0.6068068096938584  0.4652200520722403  0.4261199028054714
  0.5166757027998169  0.3788290912094137  0.4231677263815730
  0.4071210295693235  0.4164941760250444  0.4263350559227648
  0.0068296591273770  0.8146168089146998  0.4786436085327980
  0.4399954595326998  0.0046678650364470  0.6309624070792291
  0.9833397608733206  0.4421287547304134  0.5720599750861097
  0.0641832396058283  0.8831177262527774  0.4205668511522964
  0.5600544174279942  0.9926502677344345  0.6308035768180489
  0.0164978185652934  0.5604344563192654  0.5714315212881786
  0.8915848379630729  0.8681695515898080  0.4775068983207327
  0.3807814277445981  0.9130094874470470  0.5911275082709501
  0.0641798028471326  0.3773703946195745  0.5425889157414009
  0.8780900023044864  0.9347329532662614  0.4191186688230116
  0.4634592625887749  0.8471737624234666  0.5687954240323891
  0.1669414525930504  0.4551611671724867  0.5212039755159948
  0.9821587883993697  0.9438517866632656  0.3819181207439620
  0.5742403311354390  0.8957600902016938  0.5916002525244732
  0.1239471066594449  0.5701168275965378  0.5373645508902845
  0.8733462265800799  0.9291067592557279  0.5361357570943988
  0.3077759638989772  0.9532783373126543  0.5319385656334881
  0.0042014380826441  0.3129253229083612  0.4814933081575533
  0.8248337215047167  0.0438321634423863  0.5190658943637749
  0.3797019800417594  0.9105128110440720  0.4711895531810388
  0.0611987327708453  0.3792026967327212  0.4223993011833729
  0.8475631316175721  0.0449944479243208  0.4417557377233849
  0.4659737299047588  0.8269885807123253  0.4916024648683308
  0.1468892630215803  0.4534664136364757  0.4438176783278759
  0.9835683176776736  0.9399553351338178  0.5692783010411674
  0.3588122746389634  0.0766560770301355  0.5340032442639094
  0.8914440789500406  0.3685007349756370  0.4798197085659348
  0.0156396414901701  0.0574090930398235  0.5700598034791218
  0.4201809703676956  0.1067540680819863  0.4756487136239114
  0.8792921941987842  0.4340880927822355  0.4206508879592525
  0.9325589957514941  0.1203032687800772  0.5405418298317159
  0.4388450932438893  0.0040975626585320  0.4417494099097577
  0.9812361980348504  0.4407316488479171  0.3819559079353311
  0.0670361471255305  0.8781862130083915  0.5392081077806159
  0.4255726630219724  0.1024291852789171  0.5926261120511145
  0.8760884437942535  0.4314916427767442  0.5377487131452302
  0.1749468129391555  0.9552852607292368  0.5189764972465992
  0.5362866101557182  0.1517312926135424  0.5700242005541772
  0.8331712505055966  0.5458471957721167  0.5201004194892427
  0.1261865576871677  0.0692807675868537  0.5373366791998220
  0.5334887737508293  0.1731738722638154  0.4929938819465411
  0.8536492478524743  0.5453826617413379  0.4427814644025515
  0.1530167626983334  0.9564598983941780  0.4416194981279642
  0.6189563956344089  0.0851300488923938  0.5915339634290120
  0.9358145422750024  0.6241860776218754  0.5409227526719940
  0.1227512902991259  0.0673803494400532  0.4202484550206572
  0.6918381799310890  0.0459421853572230  0.5319247843556294
  0.9961536418622745  0.6871066643453396  0.4793412996175643
  0.1086608278069095  0.1320564502140429  0.4793923647657508
  0.6196911199528324  0.0900944754993637  0.4716926150879626
  0.9395222869462798  0.6191194381540150  0.4208047640505376
  0.9934714232264258  0.1855744114701974  0.4808263107404376
  0.5604198264903465  0.9971909708699719  0.4415758441500587
  0.0197763777527012  0.5563444022832899  0.3813533489155193
  0.9366774462927674  0.1188493639358581  0.4218701324743220
  0.5791621940507521  0.8937665097119837  0.4745380492238331
  0.1214443471842248  0.5641098566431361  0.4203205444207229
  0.0190780214229723  0.0595143148584828  0.3826751562802611
  0.6406962776290053  0.9226600612779883  0.5330366156463169
  0.1089478373132407  0.6314577651130119  0.4786662155586965
 
  0.00000000E+00  0.00000000E+00  0.00000000E+00
  0.00000000E+00  0.00000000E+00  0.00000000E+00
  0.00000000E+00  0.00000000E+00  0.00000000E+00
  0.00000000E+00  0.00000000E+00  0.00000000E+00
  0.00000000E+00  0.00000000E+00  0.00000000E+00
  0.00000000E+00  0.00000000E+00  0.00000000E+00
  0.00000000E+00  0.00000000E+00  0.00000000E+00
  0.00000000E+00  0.00000000E+00  0.00000000E+00
  0.00000000E+00  0.00000000E+00  0.00000000E+00
  0.00000000E+00  0.00000000E+00  0.00000000E+00
  0.00000000E+00  0.00000000E+00  0.00000000E+00
  0.00000000E+00  0.00000000E+00  0.00000000E+00
  0.00000000E+00  0.00000000E+00  0.00000000E+00
  0.00000000E+00  0.00000000E+00  0.00000000E+00
  0.00000000E+00  0.00000000E+00  0.00000000E+00
  0.00000000E+00  0.00000000E+00  0.00000000E+00
  0.00000000E+00  0.00000000E+00  0.00000000E+00
  0.00000000E+00  0.00000000E+00  0.00000000E+00
  0.00000000E+00  0.00000000E+00  0.00000000E+00
  0.00000000E+00  0.00000000E+00  0.00000000E+00
  0.00000000E+00  0.00000000E+00  0.00000000E+00
  0.00000000E+00  0.00000000E+00  0.00000000E+00
  0.00000000E+00  0.00000000E+00  0.00000000E+00
  0.00000000E+00  0.00000000E+00  0.00000000E+00
  0.00000000E+00  0.00000000E+00  0.00000000E+00
  0.00000000E+00  0.00000000E+00  0.00000000E+00
  0.00000000E+00  0.00000000E+00  0.00000000E+00
  0.00000000E+00  0.00000000E+00  0.00000000E+00
  0.00000000E+00  0.00000000E+00  0.00000000E+00
  0.00000000E+00  0.00000000E+00  0.00000000E+00
  0.00000000E+00  0.00000000E+00  0.00000000E+00
  0.00000000E+00  0.00000000E+00  0.00000000E+00
  0.00000000E+00  0.00000000E+00  0.00000000E+00
  0.00000000E+00  0.00000000E+00  0.00000000E+00
  0.00000000E+00  0.00000000E+00  0.00000000E+00
  0.00000000E+00  0.00000000E+00  0.00000000E+00
  0.00000000E+00  0.00000000E+00  0.00000000E+00
  0.00000000E+00  0.00000000E+00  0.00000000E+00
  0.00000000E+00  0.00000000E+00  0.00000000E+00
  0.00000000E+00  0.00000000E+00  0.00000000E+00
  0.00000000E+00  0.00000000E+00  0.00000000E+00
  0.00000000E+00  0.00000000E+00  0.00000000E+00
  0.00000000E+00  0.00000000E+00  0.00000000E+00
  0.00000000E+00  0.00000000E+00  0.00000000E+00
  0.00000000E+00  0.00000000E+00  0.00000000E+00
  0.00000000E+00  0.00000000E+00  0.00000000E+00
  0.00000000E+00  0.00000000E+00  0.00000000E+00
  0.00000000E+00  0.00000000E+00  0.00000000E+00
  0.00000000E+00  0.00000000E+00  0.00000000E+00
  0.00000000E+00  0.00000000E+00  0.00000000E+00
  0.00000000E+00  0.00000000E+00  0.00000000E+00
  0.00000000E+00  0.00000000E+00  0.00000000E+00
  0.00000000E+00  0.00000000E+00  0.00000000E+00
  0.00000000E+00  0.00000000E+00  0.00000000E+00
  0.00000000E+00  0.00000000E+00  0.00000000E+00
  0.00000000E+00  0.00000000E+00  0.00000000E+00
  0.00000000E+00  0.00000000E+00  0.00000000E+00
  0.00000000E+00  0.00000000E+00  0.00000000E+00
  0.00000000E+00  0.00000000E+00  0.00000000E+00
  0.00000000E+00  0.00000000E+00  0.00000000E+00
  0.00000000E+00  0.00000000E+00  0.00000000E+00
  0.00000000E+00  0.00000000E+00  0.00000000E+00
  0.00000000E+00  0.00000000E+00  0.00000000E+00
  0.00000000E+00  0.00000000E+00  0.00000000E+00
  0.00000000E+00  0.00000000E+00  0.00000000E+00
  0.00000000E+00  0.00000000E+00  0.00000000E+00
  0.00000000E+00  0.00000000E+00  0.00000000E+00
  0.00000000E+00  0.00000000E+00  0.00000000E+00
  0.00000000E+00  0.00000000E+00  0.00000000E+00
  0.00000000E+00  0.00000000E+00  0.00000000E+00
  0.00000000E+00  0.00000000E+00  0.00000000E+00
  0.00000000E+00  0.00000000E+00  0.00000000E+00
  0.00000000E+00  0.00000000E+00  0.00000000E+00
  0.00000000E+00  0.00000000E+00  0.00000000E+00
  0.00000000E+00  0.00000000E+00  0.00000000E+00
  0.00000000E+00  0.00000000E+00  0.00000000E+00
  0.00000000E+00  0.00000000E+00  0.00000000E+00
  0.00000000E+00  0.00000000E+00  0.00000000E+00
  0.00000000E+00  0.00000000E+00  0.00000000E+00
  0.00000000E+00  0.00000000E+00  0.00000000E+00
  0.00000000E+00  0.00000000E+00  0.00000000E+00
  0.00000000E+00  0.00000000E+00  0.00000000E+00
  0.00000000E+00  0.00000000E+00  0.00000000E+00
  0.00000000E+00  0.00000000E+00  0.00000000E+00
