C 
 1.0000000000000000
    12.7283470730303030    0.0000000000000000    0.0000000000000000
    -6.3641735365151595   11.0230719134295452    0.0000000000000000
     0.0000000000000000    0.0000000000000000   16.0000000000000000
 C  
 104
Direct
  0.0983056208628125 -0.0894958658193510  0.5825967203980036
 -0.0280128529879383 -0.1564955749278790  0.6035727468813612
  0.1160289341791304 -0.0996147774629343  0.4952041584859431
 -0.0942786844988417 -0.1902248566460069  0.5228287359419134
 -0.0063990825139553 -0.1553881996769172  0.4566680849928929
  0.1846946256293553  0.0180026048981673  0.4581054688701837
  0.1216528468620973  0.0299465337050052  0.3877852679154777
 -0.0028573462547578 -0.0763313928192926  0.3909857367767761
  0.1900785154163425  0.1056603193201491  0.5215041954968840
  0.1372415047255169  0.0398883974037651  0.5976432663347362
  0.0378099170726454  0.0452794702647658  0.6362354900963335
  0.1435366375485404  0.1769213190011045  0.4839007435890870
  0.0441691877654018  0.1823460161775753  0.5224837974648350
 -0.0086983320661428  0.1165494991874975  0.5986237668282153
  0.1085814538785095  0.1348211891864903  0.3963878857419089
 -0.1657835042894684 -0.0840480654152096  0.6044012630963900
 -0.0645045033311376 -0.0808275563542573  0.6458979055104894
 -0.1405987759799052  0.0360315473082329  0.5841764697892008
 -0.1601145725105830  0.0455790353092809  0.4970366266713887
 -0.0541155957074388  0.1435852283099375  0.4596991182441428
 -0.0160793926482077  0.1024988232700723  0.3886125965749854
 -0.1785646514198861 -0.1459302802295318  0.5233502653232291
 -0.1749823762547838 -0.0667702051864607  0.4577332410824086
 -0.0871095734773058 -0.0319832088042005  0.3915518947144128
  0.5986204680521025  0.2773851769723587  0.6373957723287524
  0.7293025984852208  0.3567637900592476  0.6332660190833874
  0.5704313274480788  0.1645446640129810  0.5986754732891034
  0.6838659761061368  0.1748223305224126  0.5708033336505191
  0.7858044400926105  0.2928788870332744  0.5948936341666625
  0.4903230096477707  0.1423794767443413  0.5271874968397530
  0.5625874083474122  0.1478690319293036  0.4544984828487054
  0.6789980830733180  0.1644667142778562  0.4813917687863968
  0.4807026043263696  0.2514365242687933  0.5210517426235727
  0.5294547971882529  0.3142719610067160  0.4421939370635848
  0.5859169142517626  0.2503631582150243  0.4038240835231265
  0.5376001674646841  0.3316003411417286  0.5921415836383465
  0.6362239303947065  0.4426654375090549  0.5556929783590026
  0.6313735088448723  0.4323376765458146  0.4662762297007513
  0.7526067713477657  0.4592539241876911  0.5825972987178677
  0.8248746131741201  0.4647550648126467  0.5099112654538267
  0.7447918969153722  0.4425886488387364  0.4384103451838804
  0.7165967884136585  0.3297375046567701  0.3996913494892864
  0.7776364177359083  0.2755302469530705  0.4449498637580556
  0.8345444918301546  0.3557201962192141  0.5160351260095281
  0.2253897726829043  0.7154003557646921  0.4305696301020548
  0.1968141047444026  0.8041240743726424  0.4644009116903782
  0.1194324811508435  0.6246713898985893  0.3879480769486184
  0.0259290783548706  0.6578118022457885  0.3956951041773864
  0.0736763126734128  0.7730219138533905  0.4404082093064697
  0.0788417231620726  0.5064902355317563  0.4268477956992025
 -0.0391261515415602  0.4731976334285712  0.4633656330680662
 -0.0724095501549724  0.5638685503070070  0.4424571770043268
  0.1589056247513901  0.5327804998163550  0.4984365622752038
  0.0916393755952781  0.5011350374866312  0.5767475204886585
 -0.0314882223364547  0.4700072405096054  0.5527439259581991
  0.2565413725293024  0.6586602074124289  0.4983040440798013
  0.2377320676824210  0.7102605269566725  0.5746936581367427
  0.1393974734035516  0.6163304563721704  0.6214735213433302
  0.2044710923663532  0.8009251651918057  0.5537767563775582
  0.0865127053348437  0.7676411757965349  0.5902994812822370
  0.0458912492348682  0.6494597461470946  0.6292026810256317
 -0.0600687336425479  0.5587254375550019  0.5865746421546886
 -0.0912222089503257  0.6154822586258275  0.5188399899056991
  0.0064213459501062  0.7413716544299900  0.5187247669081815
  0.1762499613952582  0.3702150459985514  0.5324639141737589
  0.2218114049798799  0.3728521381761421  0.4487649126254949
  0.2380162846551965  0.4920962947087360  0.5640233364532209
  0.3214501208683634  0.5693953753220350  0.4996511536269134
  0.3094868619943218  0.4976809303630489  0.4250959677056112
  0.3051207861099118  0.4973275291616323  0.6396148225986963
  0.4327112076817609  0.5740497314701695  0.6167241528876383
  0.4421916709936598  0.6202319638795977  0.5323359578309232
  0.2887877827906428  0.3760256514182804  0.6473671635194479
  0.4040055323698681  0.3781653422885616  0.6414825025377835
  0.4916653718915525  0.5029924729422861  0.6178385784943405
  0.2015154979052428  0.2929393444495785  0.5866805153688756
  0.2712924132674565  0.2556112446532976  0.5342676543610998
  0.3920430604067212  0.3064317686261987  0.5669427157408891
  0.2807479937581391  0.3017797123790055  0.4498939020766110
  0.4083336488869123  0.3784902410517044  0.4269999643777433
  0.4754666419225003  0.3837459463531265  0.5025791323438251
  0.5372307000754928  0.5056341131742741  0.5341420418420733
  0.5119659546484583  0.5829119825534794  0.4799114511026539
  0.4246993469314863  0.4998065782475689  0.4192193796066313
  0.5214216628455590  0.7321684763384088  0.4647709511135698
  0.5805465701525138  0.8375226696668288  0.4104294096256662
  0.4084447825723606  0.7206012966079067  0.4914538671582652
  0.3983850339290835  0.8189092589761946  0.4534670471529089
  0.5028982940522401  0.8908580329621315  0.3993290425678920
  0.4079959387648083  0.7297501130556066  0.5825762663163483
  0.4056440180747687  0.8417612881267122  0.5982681094198912
  0.3966334424744416  0.8940409839988951  0.5197078187417596
  0.5290686306924897  0.7574023231808219  0.6079749607296430
  0.5945421172453659  0.8751502098514080  0.6488954029070111
  0.5168759969544114  0.9284524534347151  0.6378106576799281
  0.5974416532072152  0.7491292649783975  0.5378103953019032
  0.7007947585346277  0.8719418734797402  0.5285355907845095
  0.6990702413046103  0.9470963105285747  0.5947749803189163
  0.6917790040660150  0.9241919364176073  0.4499805924621004
  0.6894386615971484  1.0362055392623104  0.4656701317716267
  0.6889843233955508  1.0453816436553978  0.5567882918241105
  0.5759970266481442  1.0338068409221501  0.5834718583277720
  0.4999811484483397  1.0168561853752067  0.5104202207064397
  0.5683807807330790  1.0086005246907073  0.4402572510834512
