C 
 1.0000000000000000
     9.3176915298230334    0.0000000000000000    0.0000000000000000
     0.0000000000000000    9.3176915298230316    0.0000000000000000
     0.0000000000000000    0.0000000000000000   16.0000000000000000
 C  
  64
Direct
  0.2449859254955394  0.0343932875836678  0.4616964664877635
  0.2432848441709367 -0.0460196976495714  0.5380439424293876
  0.1777971149207062 -0.0446492562177501  0.3956304376853894
  0.1452519901078057 -0.1689649084271382  0.5232613019988193
  0.1051096901811715 -0.1680664008297404  0.4363793025626844
  0.0662120438334776  0.0384774449789859  0.3577125556306932
 -0.0667664467119642 -0.0388857066837479  0.3578770151120531
 -0.0441803554072887 -0.1646298430628339  0.4131912384231871
  0.0437782332967557  0.1643684350702245  0.4129965921215619
  0.1531427521858290  0.1618503454862745  0.4765881639349660
  0.1134522961040944  0.1628813779868234  0.5635892092729754
 -0.1053998751126956  0.1679621969464016  0.4363618627106668
 -0.1450875073746404  0.1690350768681896  0.5233249405956605
 -0.0357188621655388  0.1664873883534396  0.5869304740752934
 -0.1782769137197000  0.0443718503311006  0.3958556584600595
  0.0648118538886825 -0.0416692513612789  0.6421695000288100
  0.1802790007343341  0.0360574651674481  0.6041815346442325
 -0.0642426418384609  0.0419866770194026  0.6423199341948465
 -0.1797309981238769 -0.0357897953476101  0.6044358100031558
 -0.2429900151889496  0.0461611751754645  0.5382980971354929
 -0.2453226191885486 -0.0344413738453687  0.4620022648179987
  0.0361094759964592 -0.1663115613833827  0.5869660372914070
 -0.1131912323616976 -0.1627221386098214  0.5638159653946685
 -0.1533077537224265 -0.1618827875491774  0.4769141563678612
  0.4638998085991246 -0.1998562417929443  0.4175527747246618
  0.5991645372970078 -0.1412522650081962  0.4471803350020035
  0.3534374823214768 -0.1526916731645084  0.4737193976979687
  0.4210626856845288 -0.0652156725127278  0.5377745651702064
  0.5746546375168627 -0.0510960558057945  0.5206631663361068
  0.2845544836518985 -0.2776722498743489  0.5118302244306824
  0.3213094253481821 -0.2677756314132894  0.6005162007666586
  0.4011250500751707 -0.1365749837490469  0.6164106580920939
  0.3667941279325727 -0.3998381627176781  0.4813043508668492
  0.4363984789098040 -0.4764245748208279  0.5494988158251225
  0.4118477741981926 -0.3862853158793189  0.6229714683161836
  0.4697937421030245 -0.3567334051079666  0.4176265988382867
  0.6098923013673310 -0.3909695801819011  0.4537451933404938
  0.5899862206297588 -0.4623418690063664  0.5323841674769684
  0.6896863581910896 -0.2597802914343262  0.4696222707232936
  0.7264528425742522 -0.2498887770285745  0.5583035495800179
  0.6575815768339585 -0.3748518172390674  0.5964356418258315
  0.5471075234469487 -0.3276821227065961  0.6526020148967892
  0.5412309901888082 -0.1707883307838901  0.6525294303432202
  0.6442570170413980 -0.1277017932896539  0.5888519084973313
 -0.1054278845867981  0.4355922947789361  0.3855041402002671
 -0.0470197340445928  0.5792706682008867  0.3760368069643973
 -0.2114714523118941  0.4407247460982267  0.4505011927619556
 -0.2179877497459032  0.5875663777285267  0.4808664245011525
 -0.1201217374876937  0.6783852797346716  0.4327475348261345
 -0.1693580614103924  0.3441174286517608  0.5182680445470801
 -0.1411635625280670  0.4390038631859089  0.5892156965944858
 -0.1744025636607689  0.5864998264366547  0.5668940523814984
 -0.0284175485348269  0.2911074054527937  0.4938284086845777
  0.0815838303247581  0.3337412551446581  0.5535161799334682
  0.0084635728618587  0.4328120845130929  0.6102285313895393
  0.0084478072250380  0.3355199077694740  0.4092528539986874
  0.1358552829655766  0.4255844025154173  0.4193750349070995
  0.1794723186820363  0.4245307557216712  0.5054010488570484
  0.1026071041379570  0.5730467335148605  0.3970438301669957
  0.1308129245793412  0.6679333849330293  0.4679857725705883
  0.1729245564950183  0.5713606374541258  0.5357666548816185
  0.0668690229331738  0.5764891023093659  0.6007649979872294
 -0.0470057684415879  0.6765840747402633  0.5770113120260434
 -0.0101088293754812  0.7210008946196681  0.4924336087682501
