Generated by VASPKIT code               
   1.00000000000000     
    13.8892927037878433    0.6071865181635916    0.0000000000000000
    -6.4139085355312835   12.2485808109786802    0.0000000000000000
     0.0000000000000013    0.0000000000000022   19.7163940472056929
  C             
   104
Direct
  0.6393436914405828  0.4503057518651330  0.5642671717655495
  0.5413657445439828  0.3609065112495479  0.5744067247666992
  0.7258578798637531  0.4188720881883249  0.5717448477814414
  0.5715657827686506  0.2699979470153691  0.5695398530765495
  0.6838021557085779  0.3067029913034792  0.5720823656911531
  0.7949681265211606  0.4541074603684329  0.5157962463752462
  0.8198110939407327  0.3749444892046090  0.4881832261639170
  0.7471260649818261  0.2701362386544489  0.5242536877280732
  0.7618788775849066  0.5207443151651705  0.4657256467239955
  0.6508358921488160  0.4948516571156575  0.4969180657494358
  0.5537727682637117  0.4342044177172278  0.4625540562908131
  0.7480057922362005  0.4513594750986573  0.4018798394929197
  0.6496719500486063  0.3917600815321193  0.3715714422977427
  0.5488322254465754  0.3835370204205737  0.3999773979308500
  0.7909676776721001  0.3716199808152373  0.4186466298780479
  0.4524772354702464  0.2508457179753492  0.4816468376934699
  0.4722043080193397  0.3574920033117022  0.5145192033160690
  0.4660198749604131  0.2646299131617932  0.4046026714176192
  0.5392705200343793  0.2110129271544479  0.3938167810973278
  0.6377320627235432  0.2794969951234976  0.3655525559051083
  0.7250323078608281  0.2682077128040362  0.3959849810377110
  0.5206492589420799  0.2055708826576656  0.5116977211315790
  0.5683478812330738  0.1768460595427610  0.4580208348426669
  0.6825862205237755  0.1970320827444055  0.4596551247941714
  0.3977689963010353  0.5931865442666948  0.5629382031556586
  0.3304937698672951  0.2214579809315559  0.4018707825260872
  0.7147565287896540  0.1105409586919019  0.4847239634930680
  0.8563610312964519  0.6320552272456125  0.4767779104252902
  0.4603068194526145  0.7052436652987486  0.5735377810475839
  0.3378204404202210  0.2166785151188376  0.4799089317337766
  0.7757081874300429  0.1801725525864271  0.5494062399861900
  0.8877858419373115  0.6310021183286025  0.5511711205142376
  0.4428652254720172  0.5605827501103718  0.5084315313833601
  0.2909744344376392  0.3089853937811250  0.3929507007768220
  0.6354607571789579  0.0075351917741542  0.5156827374301949
  0.9634335642587829  0.6485773618168548  0.4421524786770293
  0.5340633377574978  0.6468482138660910  0.4817040837613427
  0.3094913604368024  0.3798312587217937  0.4541826365444204
  0.6379412973601882  0.0045498900887760  0.5856106393088109
  0.0336965008388516  0.6367423354636490  0.4897140728944709
  0.5570796900324658  0.7460125311505454  0.5265565710769343
  0.3455706313474102  0.3225141781008674  0.5105120980145624
  0.7201763634959387  0.1056285532777322  0.6095188246038112
  0.9904712477096244  0.6237243689584903  0.5556931018984748
  0.3596090587588355  0.5008421098278804  0.4555215947364604
  0.1815103670815562  0.2632737617708899  0.3793323453919892
  0.6440166043995439  0.9123762718925621  0.4877091436051142
  0.0190381330007133  0.7598404795436602  0.4204532216437004
  0.3966199371813924  0.5768309826872867  0.3971709826106988
  0.1170298546582064  0.2972794795534154  0.4211004345291340
  0.6614152092679302  0.8415881859126958  0.5516153001209755
  0.1249652758646530  0.8105365767867065  0.4417936595268095
  0.5005829263451762  0.6609535394905752  0.4142260077659878
  0.1964007476425254  0.3748509415534985  0.4746043691395897
  0.6543839967667131  0.9120516404766810  0.6106575765115864
  0.1479885664676746  0.7279562900862893  0.4861427335954132
  0.2506211879486228  0.5053147100227694  0.4805818302948435
  0.1448657098567831  0.1478187219040670  0.3783615481302798
  0.7521709487707710  0.9660007300350066  0.4559220289724606
  0.9560049353662112  0.8164400000163096  0.4406115769140984
  0.2406289208388200  0.5937408855370087  0.4354847784698243
  0.0556300311393565  0.1044939750849837  0.4196812414990799
  0.8263120472708889  0.9375767288336195  0.4931601734976282
  0.0254879012553945  0.9159421842011324  0.4800808329339359
  0.3266914236967394  0.6286188790938003  0.3893842161513120
  0.0259611308978813  0.1907508581897348  0.4522976697791586
  0.7859995752594839  0.8574112924306573  0.5533436108105134
  0.1405665003188658  0.9147061479504055  0.4789712637766753
  0.2879873746655828  0.5710661171724475  0.5453666239217112
  0.2280010225395858  0.1142261889888487  0.3917400462192965
  0.7920300816340855  0.0770397701369455  0.4506356336406593
  0.8667707503726982  0.7474024814820067  0.4762370624507266
  0.2848674349438895  0.6701730450793233  0.5421129657879520
  0.1905224602544600  0.0415034188727231  0.4577413857316699
  0.9072582186215988  0.1339725990389616  0.4824461754022873
  0.8612530707801760  0.7931017090070079  0.5470290873071543
  0.2418411748050450  0.6945640033568551  0.4760367275732571
  0.0760116065211531  0.0371098715620115  0.4715010748581266
  0.9053504213133604  0.0314386416102348  0.5149398430531757
  0.9779413427826155  0.8813479578809296  0.5481784784258761
  0.3920514350957842  0.7537518567609411  0.5578796515080099
  0.2563195270578512  0.1222170850344116  0.5097156456980712
  0.8835025101822706  0.1805972195640971  0.5487500372185796
  0.8880827642850445  0.7127322569138417  0.5914235066886394
  0.4290517343522231  0.8203891937586720  0.4991631895138794
  0.2058943995670023  0.1556406387752970  0.5575863364389558
  0.8903153110411749  0.1238071721139711  0.6065228529302663
  0.9962166208251683  0.7623095827301581  0.6216623633903900
  0.3490831577768826  0.7826232751981392  0.4492249297204822
  0.0970096940845718  0.1110973152369529  0.5350381327231976
  0.9114652035352080  0.0339146106249209  0.5879517977636916
  0.0483036929392140  0.8669384097770099  0.5911735778464484
  0.3915019136286593  0.7435154342637375  0.3946140190466689
  0.0815865985535156  0.2008698554325097  0.5193449870587500
  0.8289482267185022  0.9375305058220426  0.6117131223912377
  0.1449182747925078  0.8791044204839062  0.5521976386137699
  0.4986768614885879  0.7622291911172714  0.4069461817593789
  0.1699602815429101  0.2993664289572185  0.5345216999794561
  0.7525168446699130  0.9622077141928664  0.6452503435327602
  0.1455991188648151  0.7793660335953150  0.5560588979765765
  0.5353306181962765  0.8217528351415146  0.4726242751285888
  0.2517151519710062  0.2755773114902590  0.5589011063489747
  0.7918475768867220  0.0805787822635128  0.6462329584268229
  0.0580831138965152  0.7080193839130863  0.5995727387679198
 
  0.00000000E+00  0.00000000E+00  0.00000000E+00
  0.00000000E+00  0.00000000E+00  0.00000000E+00
  0.00000000E+00  0.00000000E+00  0.00000000E+00
  0.00000000E+00  0.00000000E+00  0.00000000E+00
  0.00000000E+00  0.00000000E+00  0.00000000E+00
  0.00000000E+00  0.00000000E+00  0.00000000E+00
  0.00000000E+00  0.00000000E+00  0.00000000E+00
  0.00000000E+00  0.00000000E+00  0.00000000E+00
  0.00000000E+00  0.00000000E+00  0.00000000E+00
  0.00000000E+00  0.00000000E+00  0.00000000E+00
  0.00000000E+00  0.00000000E+00  0.00000000E+00
  0.00000000E+00  0.00000000E+00  0.00000000E+00
  0.00000000E+00  0.00000000E+00  0.00000000E+00
  0.00000000E+00  0.00000000E+00  0.00000000E+00
  0.00000000E+00  0.00000000E+00  0.00000000E+00
  0.00000000E+00  0.00000000E+00  0.00000000E+00
  0.00000000E+00  0.00000000E+00  0.00000000E+00
  0.00000000E+00  0.00000000E+00  0.00000000E+00
  0.00000000E+00  0.00000000E+00  0.00000000E+00
  0.00000000E+00  0.00000000E+00  0.00000000E+00
  0.00000000E+00  0.00000000E+00  0.00000000E+00
  0.00000000E+00  0.00000000E+00  0.00000000E+00
  0.00000000E+00  0.00000000E+00  0.00000000E+00
  0.00000000E+00  0.00000000E+00  0.00000000E+00
  0.00000000E+00  0.00000000E+00  0.00000000E+00
  0.00000000E+00  0.00000000E+00  0.00000000E+00
  0.00000000E+00  0.00000000E+00  0.00000000E+00
  0.00000000E+00  0.00000000E+00  0.00000000E+00
  0.00000000E+00  0.00000000E+00  0.00000000E+00
  0.00000000E+00  0.00000000E+00  0.00000000E+00
  0.00000000E+00  0.00000000E+00  0.00000000E+00
  0.00000000E+00  0.00000000E+00  0.00000000E+00
  0.00000000E+00  0.00000000E+00  0.00000000E+00
  0.00000000E+00  0.00000000E+00  0.00000000E+00
  0.00000000E+00  0.00000000E+00  0.00000000E+00
  0.00000000E+00  0.00000000E+00  0.00000000E+00
  0.00000000E+00  0.00000000E+00  0.00000000E+00
  0.00000000E+00  0.00000000E+00  0.00000000E+00
  0.00000000E+00  0.00000000E+00  0.00000000E+00
  0.00000000E+00  0.00000000E+00  0.00000000E+00
  0.00000000E+00  0.00000000E+00  0.00000000E+00
  0.00000000E+00  0.00000000E+00  0.00000000E+00
  0.00000000E+00  0.00000000E+00  0.00000000E+00
  0.00000000E+00  0.00000000E+00  0.00000000E+00
  0.00000000E+00  0.00000000E+00  0.00000000E+00
  0.00000000E+00  0.00000000E+00  0.00000000E+00
  0.00000000E+00  0.00000000E+00  0.00000000E+00
  0.00000000E+00  0.00000000E+00  0.00000000E+00
  0.00000000E+00  0.00000000E+00  0.00000000E+00
  0.00000000E+00  0.00000000E+00  0.00000000E+00
  0.00000000E+00  0.00000000E+00  0.00000000E+00
  0.00000000E+00  0.00000000E+00  0.00000000E+00
  0.00000000E+00  0.00000000E+00  0.00000000E+00
  0.00000000E+00  0.00000000E+00  0.00000000E+00
  0.00000000E+00  0.00000000E+00  0.00000000E+00
  0.00000000E+00  0.00000000E+00  0.00000000E+00
  0.00000000E+00  0.00000000E+00  0.00000000E+00
  0.00000000E+00  0.00000000E+00  0.00000000E+00
  0.00000000E+00  0.00000000E+00  0.00000000E+00
  0.00000000E+00  0.00000000E+00  0.00000000E+00
  0.00000000E+00  0.00000000E+00  0.00000000E+00
  0.00000000E+00  0.00000000E+00  0.00000000E+00
  0.00000000E+00  0.00000000E+00  0.00000000E+00
  0.00000000E+00  0.00000000E+00  0.00000000E+00
  0.00000000E+00  0.00000000E+00  0.00000000E+00
  0.00000000E+00  0.00000000E+00  0.00000000E+00
  0.00000000E+00  0.00000000E+00  0.00000000E+00
  0.00000000E+00  0.00000000E+00  0.00000000E+00
  0.00000000E+00  0.00000000E+00  0.00000000E+00
  0.00000000E+00  0.00000000E+00  0.00000000E+00
  0.00000000E+00  0.00000000E+00  0.00000000E+00
  0.00000000E+00  0.00000000E+00  0.00000000E+00
  0.00000000E+00  0.00000000E+00  0.00000000E+00
  0.00000000E+00  0.00000000E+00  0.00000000E+00
  0.00000000E+00  0.00000000E+00  0.00000000E+00
  0.00000000E+00  0.00000000E+00  0.00000000E+00
  0.00000000E+00  0.00000000E+00  0.00000000E+00
  0.00000000E+00  0.00000000E+00  0.00000000E+00
  0.00000000E+00  0.00000000E+00  0.00000000E+00
  0.00000000E+00  0.00000000E+00  0.00000000E+00
  0.00000000E+00  0.00000000E+00  0.00000000E+00
  0.00000000E+00  0.00000000E+00  0.00000000E+00
  0.00000000E+00  0.00000000E+00  0.00000000E+00
  0.00000000E+00  0.00000000E+00  0.00000000E+00
  0.00000000E+00  0.00000000E+00  0.00000000E+00
  0.00000000E+00  0.00000000E+00  0.00000000E+00
  0.00000000E+00  0.00000000E+00  0.00000000E+00
  0.00000000E+00  0.00000000E+00  0.00000000E+00
  0.00000000E+00  0.00000000E+00  0.00000000E+00
  0.00000000E+00  0.00000000E+00  0.00000000E+00
  0.00000000E+00  0.00000000E+00  0.00000000E+00
  0.00000000E+00  0.00000000E+00  0.00000000E+00
  0.00000000E+00  0.00000000E+00  0.00000000E+00
  0.00000000E+00  0.00000000E+00  0.00000000E+00
  0.00000000E+00  0.00000000E+00  0.00000000E+00
  0.00000000E+00  0.00000000E+00  0.00000000E+00
  0.00000000E+00  0.00000000E+00  0.00000000E+00
  0.00000000E+00  0.00000000E+00  0.00000000E+00
  0.00000000E+00  0.00000000E+00  0.00000000E+00
  0.00000000E+00  0.00000000E+00  0.00000000E+00
  0.00000000E+00  0.00000000E+00  0.00000000E+00
  0.00000000E+00  0.00000000E+00  0.00000000E+00
  0.00000000E+00  0.00000000E+00  0.00000000E+00
  0.00000000E+00  0.00000000E+00  0.00000000E+00
