C 
 1.0000000000000000
    10.1825083333011630    0.0000000000000000    0.0000000000000000
     0.0000000000000000   10.1825083333011648    0.0000000000000000
     0.0000000000000000    0.0000000000000000   16.0000000000000000
 C  
  88
Direct
  0.6038844996016355  0.6952534238422429  0.4542522037427577
  0.6585842254239906  0.5871725910384238  0.4086463633361759
  0.4662326895298287  0.7079612724619930  0.4376710533849474
  0.5450281991261312  0.5126976657781670  0.3749567001717930
  0.4275987202506946  0.5862929619896633  0.3927492195818894
  0.3929396234801565  0.7077807583166870  0.5140138268139612
  0.2929485998177924  0.6087184293309112  0.5123059200966928
  0.3216344490558826  0.5258476173671033  0.4382772422263673
  0.4863437300191206  0.6675543400172727  0.5804442467180801
  0.6153593753363160  0.6599080742726552  0.5438766552405385
  0.6899614354485204  0.5400665653348682  0.5496132081957065
  0.4318299400271012  0.5553486317716830  0.6228088937704822
  0.5064065392641839  0.4355625356820910  0.6285685108136635
  0.6354293241525150  0.4278950188664951  0.5919837650951447
  0.3034324145220314  0.5240549149891923  0.5834582108589518
  0.6773766801419653  0.3680771481732275  0.4541014177302080
  0.7262162604361939  0.4991503142309547  0.4635512485209632
  0.6366983575103139  0.3154201473007331  0.5330228612307887
  0.5041668329543157  0.2688561614077402  0.5287879083047666
  0.4257582356353686  0.3280299667598350  0.5928254695629842
  0.3117285820604276  0.3896004426389180  0.5578321590352371
  0.5565491213529578  0.3786796238288902  0.4027485075770117
  0.4506752013968399  0.3182275833322376  0.4483545201361033
  0.3332169634557178  0.3918438112680150  0.4661110927813593
 -0.0916544532206411  0.0806989324943519  0.6262093695733979
 -0.0640259050179757 -0.0554738545776381  0.6119429647110838
 -0.0493696367087456  0.1588946144674855  0.5568271142615541
 -0.0266103146968398 -0.0661133570199846  0.5225494015558562
 -0.0178174491757356  0.0646823532214083  0.4888573563301454
 -0.1552111024318039  0.2377996876997194  0.5260835845768277
 -0.1743523747796981  0.2167403288346324  0.4383404979684629
 -0.0940025092955247  0.1001852617113377  0.4164766071797956
 -0.2757069976689582  0.1881049042149150  0.5675702399244551
 -0.2368052520208828  0.0920242554963159  0.6288118032350329
 -0.2909443647013649 -0.0385844997104305  0.6260366118432842
 -0.3688308457356697  0.1536548995374525  0.5035033685982686
 -0.4229839092866514  0.0231143604450961  0.5007368143727422
 -0.3840642468651535 -0.0729951415787892  0.5619728434777140
 -0.3077810045801645  0.1815666841891922  0.4210589889786304
 -0.2031092227628268 -0.2112031603988300  0.5487440651180610
 -0.1801403582892133 -0.1332101527568312  0.6217937112971280
 -0.3327509034482210 -0.1894268914916054  0.5167647428099995
 -0.3281688186017165 -0.1533562625939587  0.4303093899882694
 -0.3963424097426322 -0.0322450465025090  0.4166748643597504
 -0.3135470707528679  0.0610362927156434  0.3751343032023957
 -0.1116699523141793 -0.1613917354344085  0.4839036597209908
 -0.1879816277082417 -0.1259053299965790  0.4115758596021263
 -0.1791259900361394  0.0049044853714907  0.3778724949305021
  0.1280740456909311  0.1075210656497149  0.5290029397032064
  0.2478344876891402  0.1757665580642310  0.5525046999620605
  0.1288469747253212 -0.0178780099137230  0.5699686419147293
  0.2491213295993863 -0.0264560239302010  0.6185526616045747
  0.3232112133492817  0.0961600539616006  0.6115997603334773
  0.1256516970969989 -0.1221783595741904  0.5071284673262694
  0.2523165677137731 -0.1885663460878417  0.5157012727940343
  0.3256868810964270 -0.1323190700161734  0.5849059194032293
  0.1341844403590696 -0.0534895223864322  0.4274628654887656
  0.2527623639686757 -0.0893785888893166  0.3820064461789110
  0.3281015430714626 -0.1690042788438215  0.4410947480840739
  0.1243391209896804  0.0881295647583432  0.4384480897686073
  0.2502566261264264  0.1390794647613482  0.4086893499448116
  0.3268441385338618  0.0332325892382872  0.3750325149170984
  0.3235929312453545  0.1953287504560099  0.4778882069832978
  0.4502590845220175  0.1289526203391875  0.4864567130133344
  0.4470966717140107  0.0246405517242605  0.4236270325813457
  0.4478624145371021 -0.1007653441182904  0.4645967170062310
  0.4516101633447605 -0.0813610365467813  0.5551596265859364
  0.4417803246211106  0.0602727689386413  0.5661320278046726
 -0.1583700883142217  0.4818601173935100  0.5551607800376126
 -0.1703608667184768  0.6152316070813957  0.5237760751903894
 -0.0444969421900718  0.4771180934305475  0.6079460410665365
  0.0132916626242468  0.6076011356497053  0.6088738820415432
 -0.0669623959463495  0.6978542548511204  0.5593442805578668
  0.0493620320376515  0.3822854940665172  0.5740544285181032
  0.1626320357011646  0.4615561852597455  0.5492518996399783
  0.1417506111663501  0.5979502535705902  0.5724835986477148
 -0.0088174959483701  0.3395427704233670  0.4954658498495794
  0.0737907272654539  0.3740737235184600  0.4245014619391603
  0.1771909457528391  0.4566558608871068  0.4600796585358495
 -0.1416226578504462  0.3902477106206197  0.4855524478115640
 -0.1349156569736673  0.4739383274965526  0.4113665305063469
 -0.0064621152624690  0.4643000584852717  0.3749581687257350
 -0.1558131056947224  0.6103025800863332  0.4346045170495544
 -0.0425532974977391  0.6895743386002466  0.4097961981461619
  0.0513300019199409  0.5947716872065320  0.3759040364010734
  0.1652063002683455  0.5900256347267949  0.4286960068198795
  0.1484525495539857  0.6816592236350801  0.4983046407740420
  0.0156406064556443  0.7323689950427539  0.4883733179990271
