Generated by VASPKIT code               
   1.00000000000000     
    11.7316902739601794    0.4447386234691394    0.0000000000000000
     0.4285890197420903   11.4905607958751279    0.0000000000000000
     0.0000000000000013    0.0000000000000013   19.7111978190105077
  C             
    88
Direct
  0.5469045219289432  0.8894312584848142  0.6044147937827691
  0.1127744126216141  0.5897187159875309  0.5878419592252722
  0.4651638181191853  0.9763301171745148  0.6334680609841186
  0.0509358658807585  0.5148544235534793  0.6259002983448352
  0.4962611119599317  0.8046071077878055  0.5561511313166632
  0.2007302512007534  0.5196073256399801  0.5427923410068113
  0.3738123509381925  0.9782750855876381  0.5808025919959817
  0.0681229737159555  0.3941694417355122  0.6003237884965278
  0.3932221759638084  0.8844635468680093  0.5344185225981967
  0.1508845642735473  0.3950377816327600  0.5457697880192341
  0.5737772824316862  0.8103116822328204  0.4927908894361572
  0.1516816268697003  0.5608489426060826  0.4755491635912329
  0.4986217195221215  0.8384670260242395  0.4297324602401033
  0.1304101577372722  0.4643830132552130  0.4371103117826500
  0.3941708395716660  0.9043604648382652  0.4638476477628150
  0.1245913555876944  0.3592675493983724  0.4805333476853231
  0.6491509807439700  0.9061651080978643  0.5028733583914048
  0.0593511355255240  0.6578602267346396  0.4702750801282687
  0.6349076502815574  0.9479160185458315  0.5717150862908924
  0.0205049048979923  0.6726962999013262  0.5497770833787679
  0.6129396420055517  0.0708178823682478  0.5847520389540473
  0.9121323916959210  0.6262613585549271  0.5707067264983242
  0.6392090066702902  0.9808638624332273  0.4472266118753945
  0.9743475545251398  0.5973899697922571  0.4262270743063076
  0.6149315088860515  0.1040618123486459  0.4608409798356827
  0.8740979826259181  0.5648295698198524  0.4550129548923071
  0.6068786690863879  0.1492098081445899  0.5286582317786999
  0.8343307411095204  0.5889513593161900  0.5240313616397043
  0.5534171468077796  0.9422400441469257  0.3983490841729275
  0.0289753233060578  0.4843084396013711  0.3991694836942129
  0.4357641917386985  0.1608439962905475  0.5853596208950291
  0.8708739380165369  0.4486332181779867  0.6090746783890485
  0.5097276136084049  0.0872609964181119  0.6286501716479435
  0.9288063855880285  0.5467389390987613  0.6279220099089863
  0.4960144964142632  0.2279329643098622  0.5338536123272817
  0.7838938967517805  0.4777080135206673  0.5523130669260043
  0.4319856198752100  0.2131212189405138  0.4648141351161829
  0.8286928467855214  0.3839861031442449  0.5009246588868429
  0.5188987072660205  0.1438911269098067  0.4212386234677304
  0.8610988755619585  0.4403019659002506  0.4422212438525360
  0.4754667207837328  0.0395120860768481  0.3926308602072376
  0.9622465693916461  0.3903136962949603  0.4112990429379635
  0.3551538376402688  0.0941126670434964  0.5532005708616541
  0.9568710611640798  0.3584424595486238  0.5888027557086418
  0.3526853545080317  0.1163026901009502  0.4807066743933888
  0.9275493995884118  0.2985540687254785  0.5252068594798659
  0.3768502279114626  0.0197532427848301  0.4374386000918607
  0.0183856319434731  0.2998254710670246  0.4604372608736457
  0.8925090535278695  0.8702755940419827  0.5248310126893156
  0.6183230151933343  0.3883395126808488  0.4977333319957529
  0.0070092042883315  0.8032997007595520  0.5407068290134875
  0.5025731101704410  0.3569727691072807  0.5205490979239968
  0.8859002309564454  0.9029283025469238  0.4549321201211700
  0.6119682684106501  0.4115359060408814  0.4267671573215690
  0.9854096415093118  0.8663202806212703  0.4194547711454973
  0.5090394028898403  0.3880086039430244  0.3956809473901181
  0.0667715315446385  0.7949649111392146  0.4670523695261772
  0.4290309756375330  0.3481189689521759  0.4516214822673021
  0.8668531865957485  0.0312824940130686  0.4499239153661586
  0.6393293478918046  0.5308867620874481  0.4115919648545387
  0.9565563994981162  0.0769118989420530  0.4117289303579534
  0.5449961047881041  0.5901210671746167  0.3731645318400592
  0.0310892445004141  0.9739965804733727  0.3966489470506943
  0.4663545700630819  0.5025411296730986  0.3675743817129756
  0.8606632019161766  0.0762101409533381  0.5165840745799629
  0.6524443416519743  0.5828845762032345  0.4743511998342392
  0.9461024581175513  0.1652031195992949  0.5256720360340466
  0.5718052473544335  0.6821233774108726  0.4809180366734960
  0.0177473041014717  0.1650143884281527  0.4556018974941762
  0.4947414079106969  0.6968484513300401  0.4165114422890846
  0.8824470224746964  0.9782457391491725  0.5615425141829751
  0.6521058016505590  0.4965499171945574  0.5346320320464432
  0.9860938899556757  0.9922761982672748  0.5975303393772675
  0.5341674355837235  0.5436542444603004  0.5675962796676485
  0.0304257211386598  0.0985988948350912  0.5744077476511728
  0.4888192415226173  0.6653819049384021  0.5430498478213925
  0.0632584740247587  0.8914785768176682  0.5828986817111540
  0.4526979401711042  0.4646267126182610  0.5576899491651218
  0.1510241190402519  0.9326634992850478  0.5435204317759817
  0.3369281746557893  0.5161463479948617  0.5270831501449367
  0.1312371501322758  0.0602381589163560  0.5390424323573432
  0.3779939690823842  0.6357291643110695  0.5089777022876336
  0.1268425383903059  0.0912276321465828  0.4697908260052919
  0.3853875027289353  0.6481267707028007  0.4402721038455052
  0.1344461318478381  0.9824039339776852  0.4325455736686045
  0.3675188332705401  0.5362307436696522  0.4077010764095467
  0.1561841727736110  0.8834321306047959  0.4764616168798463
  0.3469995920102913  0.4532607270227839  0.4566045530751479
 
  0.00000000E+00  0.00000000E+00  0.00000000E+00
  0.00000000E+00  0.00000000E+00  0.00000000E+00
  0.00000000E+00  0.00000000E+00  0.00000000E+00
  0.00000000E+00  0.00000000E+00  0.00000000E+00
  0.00000000E+00  0.00000000E+00  0.00000000E+00
  0.00000000E+00  0.00000000E+00  0.00000000E+00
  0.00000000E+00  0.00000000E+00  0.00000000E+00
  0.00000000E+00  0.00000000E+00  0.00000000E+00
  0.00000000E+00  0.00000000E+00  0.00000000E+00
  0.00000000E+00  0.00000000E+00  0.00000000E+00
  0.00000000E+00  0.00000000E+00  0.00000000E+00
  0.00000000E+00  0.00000000E+00  0.00000000E+00
  0.00000000E+00  0.00000000E+00  0.00000000E+00
  0.00000000E+00  0.00000000E+00  0.00000000E+00
  0.00000000E+00  0.00000000E+00  0.00000000E+00
  0.00000000E+00  0.00000000E+00  0.00000000E+00
  0.00000000E+00  0.00000000E+00  0.00000000E+00
  0.00000000E+00  0.00000000E+00  0.00000000E+00
  0.00000000E+00  0.00000000E+00  0.00000000E+00
  0.00000000E+00  0.00000000E+00  0.00000000E+00
  0.00000000E+00  0.00000000E+00  0.00000000E+00
  0.00000000E+00  0.00000000E+00  0.00000000E+00
  0.00000000E+00  0.00000000E+00  0.00000000E+00
  0.00000000E+00  0.00000000E+00  0.00000000E+00
  0.00000000E+00  0.00000000E+00  0.00000000E+00
  0.00000000E+00  0.00000000E+00  0.00000000E+00
  0.00000000E+00  0.00000000E+00  0.00000000E+00
  0.00000000E+00  0.00000000E+00  0.00000000E+00
  0.00000000E+00  0.00000000E+00  0.00000000E+00
  0.00000000E+00  0.00000000E+00  0.00000000E+00
  0.00000000E+00  0.00000000E+00  0.00000000E+00
  0.00000000E+00  0.00000000E+00  0.00000000E+00
  0.00000000E+00  0.00000000E+00  0.00000000E+00
  0.00000000E+00  0.00000000E+00  0.00000000E+00
  0.00000000E+00  0.00000000E+00  0.00000000E+00
  0.00000000E+00  0.00000000E+00  0.00000000E+00
  0.00000000E+00  0.00000000E+00  0.00000000E+00
  0.00000000E+00  0.00000000E+00  0.00000000E+00
  0.00000000E+00  0.00000000E+00  0.00000000E+00
  0.00000000E+00  0.00000000E+00  0.00000000E+00
  0.00000000E+00  0.00000000E+00  0.00000000E+00
  0.00000000E+00  0.00000000E+00  0.00000000E+00
  0.00000000E+00  0.00000000E+00  0.00000000E+00
  0.00000000E+00  0.00000000E+00  0.00000000E+00
  0.00000000E+00  0.00000000E+00  0.00000000E+00
  0.00000000E+00  0.00000000E+00  0.00000000E+00
  0.00000000E+00  0.00000000E+00  0.00000000E+00
  0.00000000E+00  0.00000000E+00  0.00000000E+00
  0.00000000E+00  0.00000000E+00  0.00000000E+00
  0.00000000E+00  0.00000000E+00  0.00000000E+00
  0.00000000E+00  0.00000000E+00  0.00000000E+00
  0.00000000E+00  0.00000000E+00  0.00000000E+00
  0.00000000E+00  0.00000000E+00  0.00000000E+00
  0.00000000E+00  0.00000000E+00  0.00000000E+00
  0.00000000E+00  0.00000000E+00  0.00000000E+00
  0.00000000E+00  0.00000000E+00  0.00000000E+00
  0.00000000E+00  0.00000000E+00  0.00000000E+00
  0.00000000E+00  0.00000000E+00  0.00000000E+00
  0.00000000E+00  0.00000000E+00  0.00000000E+00
  0.00000000E+00  0.00000000E+00  0.00000000E+00
  0.00000000E+00  0.00000000E+00  0.00000000E+00
  0.00000000E+00  0.00000000E+00  0.00000000E+00
  0.00000000E+00  0.00000000E+00  0.00000000E+00
  0.00000000E+00  0.00000000E+00  0.00000000E+00
  0.00000000E+00  0.00000000E+00  0.00000000E+00
  0.00000000E+00  0.00000000E+00  0.00000000E+00
  0.00000000E+00  0.00000000E+00  0.00000000E+00
  0.00000000E+00  0.00000000E+00  0.00000000E+00
  0.00000000E+00  0.00000000E+00  0.00000000E+00
  0.00000000E+00  0.00000000E+00  0.00000000E+00
  0.00000000E+00  0.00000000E+00  0.00000000E+00
  0.00000000E+00  0.00000000E+00  0.00000000E+00
  0.00000000E+00  0.00000000E+00  0.00000000E+00
  0.00000000E+00  0.00000000E+00  0.00000000E+00
  0.00000000E+00  0.00000000E+00  0.00000000E+00
  0.00000000E+00  0.00000000E+00  0.00000000E+00
  0.00000000E+00  0.00000000E+00  0.00000000E+00
  0.00000000E+00  0.00000000E+00  0.00000000E+00
  0.00000000E+00  0.00000000E+00  0.00000000E+00
  0.00000000E+00  0.00000000E+00  0.00000000E+00
  0.00000000E+00  0.00000000E+00  0.00000000E+00
  0.00000000E+00  0.00000000E+00  0.00000000E+00
  0.00000000E+00  0.00000000E+00  0.00000000E+00
  0.00000000E+00  0.00000000E+00  0.00000000E+00
  0.00000000E+00  0.00000000E+00  0.00000000E+00
  0.00000000E+00  0.00000000E+00  0.00000000E+00
  0.00000000E+00  0.00000000E+00  0.00000000E+00
  0.00000000E+00  0.00000000E+00  0.00000000E+00
