C 
 1.0000000000000000
    13.7604408874258120    0.0000000000000000    0.0000000000000000
    -1.1620352026715284    5.4995034386842523    0.0000000000000000
     0.0000000000000000    0.0000000000000000   16.0000000000000000
 C  
  68
Direct
  0.0643670564177565  0.5618368869147849  0.5890633643244906
  0.0616820711749454  0.3215124835953400  0.6202093330605724
  0.1643885901571628  0.6986523347810795  0.5852943552533871
  0.1661808780231658  0.2903287525162241  0.6202093833810219
  0.2288802671801070  0.5203670520245425  0.5987998160364674
  0.1871206959120486  0.7947350928906065  0.5031044715757147
  0.2744552317466885  0.7249608933441591  0.4711162941494529
  0.2961868123518601  0.5367975986327068  0.5291267040759852
  0.1041118899570728  0.6735725376936694  0.4487910897420394
  0.0290383657703337  0.5311481411210426  0.5013827366807543
 -0.0046348820945036  0.2749015744166413  0.4859178377666245
  0.1455613286895554  0.5598476798009574  0.3806609714775525
  0.1118877735723304  0.3037218870862440  0.3651808011327646
  0.0368192920220502  0.1612501702520164  0.4177855951730638
  0.2551333873414670  0.6087729276170730  0.3914389100612636
  0.0691316305931581 -0.0276370999346159  0.5412171985475785
  0.0091196160999062  0.1422619425503941  0.5638787850995798
  0.0771303685733448 -0.0436865917456950  0.4521855419083183
  0.1791235217356342 -0.0013391658063253  0.4270068369990575
  0.1998513192270848  0.1893559114721668  0.3662043960931333
  0.2818908432916606  0.3758150995437580  0.3920521609357475
  0.1707243384287059  0.0767300293219675  0.5719064502865499
  0.2379399637587352  0.0931004741151367  0.5021739292412084
  0.3006692178786965  0.3231835086898861  0.4807969933267373
  0.9441200053063098  0.6088745953040400  0.5638343836433011
  0.8915598452628204  0.7352501440266579  0.6202142775548377
  0.8846109464467850  0.3773509744754468  0.5414558475480893
  0.7871384083609244  0.5977833171020646  0.6200796191908864
  0.7828364244942914  0.3794970872044690  0.5719323069421678
  0.8767135064760762  0.3533903946382902  0.4525144838555529
  0.7746499785787775  0.2926429018110668  0.4271950138327403
  0.7156973703396751  0.3273604392392353  0.5021614698042224
  0.9169363354555070  0.5988918054782312  0.4178692823949330
  0.9581661414974508  0.7551157984370210  0.4859686935180820
  0.9244732992886172  0.9773036840602910  0.5013358593289287
  0.8419827114817161  0.6647840295132486  0.3650551506831243
  0.8083178655024646  0.8869105682714610  0.3803943991327386
  0.8495330540431667  1.0431451468788739  0.4485113208007822
  0.7538993948355752  0.4610045148341709  0.3659005878630570
  0.7889122354379710  1.0070369079779697  0.5847751120049101
  0.8890722656951556  0.9727328188996828  0.5891296518021665
  0.7662597809660946  1.0803648542269788  0.5024882356114599
  0.6790137763410531  0.9224749007615558  0.4704876639762465
  0.6989161522199131  0.8248592392559444  0.3911323327791745
  0.6720070723470063  0.5645092155872301  0.3916881323061563
  0.7243575352815991  0.7640562200540790  0.5984202178247676
  0.6572803733547850  0.7121434694843983  0.5286033619958065
  0.6529658609922081  0.4937571199884904  0.4804807088739727
  0.3912277168413415  0.2006756909428632  0.5668731657701132
  0.4775708499660890  0.1447760189846931  0.6086442646914190
  0.3360358821061724 -0.0212026228767055  0.5315444058103129
  0.3885988030776779 -0.2130267249046281  0.5516604800012850
  0.4756246002316526 -0.1159623474467867  0.6031541161887333
  0.3301384897946352  0.0055807692832542  0.4408526275631639
  0.3868879391314574 -0.1655279007926288  0.4069696444573845
  0.4201257389388041 -0.3025541491170866  0.4744049971428267
  0.3911258170530724  0.2446248725512150  0.4233939171788236
  0.4755800156520870  0.2275626389201194  0.3705615975676488
  0.4736070942668730 -0.0331571701965874  0.3650598204089152
  0.4226805400288363  0.3776546683101188  0.5001186574744156
  0.5310582190106212  0.4141751523105219  0.4992951085689846
  0.5626083964127654  0.3246723942677273  0.4220399304734900
  0.5642775501153450  0.2771855750134368  0.5667296149433274
  0.6210332659107106  0.1060979222171751  0.5328496280376973
  0.6151486330378051  0.1328249416016466  0.4421569989040022
  0.5599484352719067 -0.0890645307745165  0.4068278233438541
  0.5285040849704021 -0.2660556022424614  0.4735930105926581
  0.5600786905940630 -0.1329925943786358  0.5503159646842317
