C 
 1.0000000000000000
     8.8483824738822907    0.0000000000000000    0.0000000000000000
    -4.4241912369411507    7.6629240047830613    0.0000000000000000
     0.0000000000000000    0.0000000000000000   16.0000000000000000
 C  
  64
Direct
 -0.0098430822659226 -0.2558841729493761  0.5542276926011790
  0.0897129902447880 -0.2103899428267602  0.4784397512767735
  0.0743329838701897 -0.1211697998790822  0.6155898554672994
  0.2245397163019929 -0.0235408448287623  0.4869056363812479
  0.2150557506486449  0.0310294833251466  0.5705638640644696
 -0.0424553528155292 -0.0656412768916636  0.6456910202203412
  0.0330975230991561  0.1194831247931500  0.6368929902049155
  0.1899780492413664  0.1780178214191092  0.5837093614935516
 -0.1956916673520546 -0.1450399461407660  0.5890040734252997
 -0.1757181827994844 -0.2614026516097074  0.5330718511348084
 -0.1793252172705810 -0.2397702561360605  0.4440053831278969
 -0.2193442447701627 -0.0069491253733078  0.5559054930204916
 -0.2230027668375469  0.0146573810593311  0.4668768410860954
 -0.2029924822805362 -0.1016905641108709  0.4109310859554846
 -0.0812303991412598  0.1607013815363131  0.5915949473375327
  0.0639719921746079 -0.0594128659353356  0.3631638445253348
 -0.0156811314716783 -0.2207258395717576  0.4083796323324571
 -0.0545028023115294  0.0056243392960262  0.3542859916935551
  0.0225999542502272  0.1811325483703468  0.3844484914827005
 -0.0872219592821874  0.1957832932424819  0.4457885560720656
  0.0072318578753762  0.2704733367476974  0.5216116756959072
  0.2088077460965871  0.0687868082439634  0.4163822694497915
  0.1835452089557257  0.2156680470503626  0.4294889796116529
  0.1741355158398089  0.2702597211695216  0.5131687249915950
  0.1328685480414878  0.6019142180097143  0.4649325838214805
  0.2775110626915580  0.7400759656682383  0.4188574788768349
  0.1297060168378179  0.6690118509847865  0.5461876397931974
  0.2724687109007467  0.8482896484094929  0.5498901774388442
  0.3631021419358091  0.8989150962022731  0.4694660988905774
  0.1530579775011307  0.5640947038105288  0.6100342696868050
  0.3211230826785769  0.6836065045440901  0.6486690631279868
  0.3911690736908535  0.8573487268676074  0.6134512230849301
  0.1848471689351208  0.4417951290891953  0.5629759567023095
  0.3574268212502041  0.4667744131829092  0.5803372980720840
  0.4429722004976588  0.6255712213945103  0.6309589837616569
  0.1583329847443321  0.4515893841978110  0.4737621157492409
  0.3293254639437200  0.5082979020123343  0.4363660416717590
  0.4480566990409112  0.5173589096837989  0.4999157432858224
  0.3993285740915738  0.6820023505896664  0.4011477349562010
  0.5673958922673537  0.8015082453927143  0.4397747873771939
  0.5907884207051874  0.6966355548261224  0.5036282730734941
  0.5876156786809391  0.7637336594578534  0.5848880392125342
  0.5621645647955827  0.9140823033925043  0.5760503012606564
  0.5356737334173183  0.9238686433867921  0.4868261282719347
  0.8515066804094213  0.3318915831280535  0.4011925914260559
  0.7086157374742620  0.1587593426300426  0.4212381815091163
  0.9282598280443025  0.4185259228506784  0.4785472228225687
  0.8323308464795295  0.2984519191139352  0.5459862130254287
  0.6981966256805091  0.1313759667134218  0.5117077830618684
  0.9143010275145119  0.5759403721988452  0.4855464160463989
  0.7967297573963618  0.5416248897024560  0.5562766440840310
  0.7507770022276847  0.3747990089367711  0.5941975938921391
  0.8132469261718509  0.5707670347952638  0.4126386341054723
  0.6488023471313923  0.5586445441037129  0.4366607510654761
  0.6384277954747326  0.5313127761362441  0.5271234810453854
  0.7856166150959184  0.4306368382646460  0.3558231109667603
  0.5962549186654658  0.3152730955592370  0.3541646610114322
  0.5146613957050933  0.3915971497735248  0.4023698091685351
  0.5503361770274616  0.1484747990107740  0.3920713283099136
  0.4327557089198434  0.1141505074379354  0.4627943968000687
  0.4187715404548092  0.2715436451022298  0.4698143945018463
  0.4955387716829879  0.3581864322637727  0.5471721101662325
  0.5614163612579852  0.2594125604873609  0.5925446115249353
  0.5337520990635555  0.1192677577796008  0.5357199715842605
