Generated by VASPKIT code               
   1.00000000000000     
    17.3802040892737963    0.1166254738797381    0.0000000000000000
    -8.5933253930853777   15.0561217220867896    0.0000000000000000
     0.0000000000000013    0.0000000000000022   19.7177638520174163
  C             
   128
Direct
  0.7942201655482453  0.5035056632945604  0.5383684591295668
  0.4369172078577641  0.7911272352123834  0.4855369437001774
  0.7829225953187516  0.4383931482678325  0.5872212562161393
  0.4526417779569464  0.7495845596445230  0.5407779292901590
  0.8223491437850626  0.4836033098830302  0.4775572008141541
  0.4540653025053605  0.7675839434622598  0.4208704515540101
  0.7951263956506912  0.3715998972221649  0.5573914810979780
  0.4622496913185273  0.6707626932126162  0.5135733652177752
  0.8364289261502168  0.4001550516902799  0.4857061996829624
  0.4674767800161191  0.6862991141731867  0.4295698857575215
  0.7638351901028430  0.4728721423252943  0.4244746506908881
  0.3751962583636775  0.7403148421677210  0.3836236484806688
  0.7331558608355633  0.3861541898691514  0.3976203989443536
  0.3396694059186174  0.6541196675655767  0.3570398484997803
  0.7650989568426481  0.3380658598436477  0.4356335974054890
  0.3850120491866568  0.6141297652672254  0.3933088784573685
  0.6793265991681362  0.4742744969224397  0.4505232159196195
  0.3053388669538527  0.7458380441073720  0.4247901915583251
  0.7034558859068872  0.4970984160931923  0.5307281655816170
  0.3443681871512063  0.7774798204611552  0.4888864094335216
  0.6474122235558463  0.4228307543311584  0.5797166188589141
  0.3040497449813179  0.7285678791856001  0.5494382527644047
  0.6095271579269942  0.3812493659098025  0.4340810721643842
  0.2264894878228032  0.6604869485681201  0.4203756781122930
  0.5556688652295619  0.3200114192244256  0.4866213275132666
  0.1848772380030086  0.6107165315479814  0.4793664005123449
  0.5737498088610268  0.3395353682578727  0.5567760937703835
  0.2261013595316363  0.6435124366485599  0.5435009152699559
  0.6387104220984200  0.3360879163029674  0.3899182023259137
  0.2461602462585362  0.6049039829262630  0.3732556129294189
  0.6625970462484767  0.3053414268946006  0.6189095238111818
  0.3373592020912012  0.6206910655911396  0.5937247086273162
  0.6996042622043358  0.4009340488204481  0.6224866229287771
  0.3725998174941852  0.7116002047826266  0.5793497460988689
  0.5799526941626743  0.2668764606239021  0.5886191522941112
  0.2440401250301678  0.5762562494329035  0.5772267451370774
  0.5700338334094762  0.1968924186940956  0.5366095921838853
  0.2311291465828469  0.5161588660750885  0.5260472807890757
  0.5523462877972639  0.2365633520282941  0.4730035636185523
  0.1708439907515118  0.5146372432518560  0.4700780804041669
  0.6117660110812215  0.2504562819949593  0.4212891547025429
  0.2283142281851271  0.5279398719606390  0.4075882151593831
  0.7195896688082690  0.2873966406419113  0.5736032019556739
  0.3807843534255760  0.5945147385002074  0.5420006523330663
  0.6689537567777125  0.2235769237208989  0.5234827947829785
  0.3152774962806578  0.5295964857870747  0.5003630808978925
  0.6895338156086196  0.2550607586895267  0.4548739969233337
  0.3162130927221474  0.5399683478646905  0.4271381016009631
  0.8935960937986687  0.8725611558582747  0.4379361531451231
  0.2817773202393932  0.1009676518258267  0.5840916131863725
  0.8762764707702024  0.1680794509786913  0.5342669145856606
  0.7762057597854606  0.6716210961573169  0.5144209902820693
  0.8690706707431921  0.8919517848172354  0.5118623720573748
  0.2330646507199173  0.0147176864105498  0.6095225619652014
  0.9522512414381085  0.1962586002698369  0.5740566914412180
  0.7616102134308922  0.7324581564866421  0.5505799912686637
  0.9799762363448077  0.8700349341070194  0.4505498193150135
  0.2805994999580544  0.0988692428913997  0.5114544985083896
  0.9021500637765837  0.1737265318536973  0.4632821139361901
  0.7918672992708408  0.6980281893767920  0.4446439651908824
  0.9994467426149665  0.8746339367534279  0.5216522004821861
  0.2204267255534571  0.0068431401795836  0.4827257769133274
  0.9964372838997202  0.1926251425452691  0.4553099950565893
  0.8007826395044044  0.7892075027002705  0.4345544120338485
  0.9410593323606099  0.8948238064993860  0.5567362921414502
  0.1841291349278272  0.9500535025036628  0.5523292265858644
  0.0298686120735808  0.2053532556171414  0.5333622148850711
  0.7788520950853932  0.8115232463471717  0.5080603956011618
  0.0518117974646200  0.9382590402788814  0.4153156642014894
  0.3690493127472896  0.1287620786352478  0.4901864023610725
  0.8919252144081081  0.2423760621536628  0.4330848124677950
  0.7235785679327432  0.6352146312928777  0.4046888259149309
  0.1292402498694633  0.9922800847736876  0.4627744877568230
  0.3748165477886112  0.0593639861981255  0.4552842363624146
  0.9759267665903851  0.3141472240112740  0.4120934850553091
  0.6752361022312963  0.6743943216407620  0.3754977449507828
  0.0942908825464352  0.9467989362975914  0.5349978269225326
  0.2867667911395574  0.9830998299510603  0.4535733262084076
  0.0410108279170644  0.2861777033132878  0.4260521333448026
  0.7161878914073854  0.7660386583231092  0.3946134034559198
  0.0218272239049407  0.9961828758624677  0.3878371586327617
  0.4226207243309646  0.1497382412219010  0.5493745740866116
  0.8606950393632667  0.2790482559587733  0.4832125778125212
  0.6632268989716490  0.5545909703039856  0.4455865939496896
  0.0713030302058121  0.0838637993685927  0.4159125589652600
  0.4836479934452327  0.1090886926545929  0.5491020537546526
  0.9149151647422009  0.3809964204311070  0.4869879974595326
  0.5773669188957362  0.5615592678068491  0.4453905875819255
  0.1270317670679119  0.0789409337679993  0.4651494243222960
  0.4362109123428043  0.0409868266585150  0.4908225451628466
  0.9947300524890130  0.3967187465208583  0.4399963560054013
  0.5859718138259411  0.6280488853131129  0.4000444519455723
  0.9294969638332630  0.9611601316718728  0.4025748672102600
  0.3735528979140136  0.1363421835253843  0.6080173897476362
  0.8507687437639380  0.2365571431472696  0.5453194550335517
  0.6960709712557480  0.5800180299137219  0.5215828793399917
  0.9221844561490102  0.0232139427986227  0.4437298796552063
  0.3803371866339351  0.0683702354400814  0.6448764021191447
  0.9109416739147482  0.3022147898829646  0.5925587229895446
  0.6293032340114288  0.5997995792408142  0.5550167361597641
  0.0082904065214808  0.1105613344802788  0.4483565367396750
  0.4428134136317722  0.0470307068266086  0.6128181230036244
  0.9567632576430959  0.3866489219406698  0.5563199278634259
  0.5591756759866980  0.5837590206911077  0.5116758323383579
  0.8918661295568315  0.9877113356955532  0.5096769618686401
  0.2913664588839098  0.9930091537012434  0.6473144319396604
  0.9735176096861162  0.2756161487514001  0.6119658568401732
  0.6730926983726062  0.6909361132793737  0.5754563314987368
  0.9572002165218663  0.0363688627807299  0.5574725235593043
  0.2939047659045042  0.9236159158044038  0.6106221382837786
  0.0570039888275604  0.3422623892954795  0.5849922457803680
  0.6295105261046542  0.7339894125266565  0.5450212334266981
  0.0338596943671421  0.1191403007940427  0.5272655162073013
  0.3862190478587779  0.9585092037497341  0.5888245976650902
  0.0455600611040592  0.4117902890194113  0.5522162551439237
  0.5476029938644463  0.6666830201025802  0.5094584307089816
  0.1064707363138705  0.0948244995203511  0.5315848385264359
  0.3845901146363995  0.9540832596878431  0.5164517626364868
  0.0826737214633505  0.4298756518960115  0.4800651766490764
  0.5615314068800288  0.6932816848127620  0.4318587340147231
  0.0797511506799735  0.0175847094226050  0.5706505086799736
  0.2912312986190700  0.9192922213660383  0.4950076637223043
  0.0966270271355545  0.3469663683602108  0.4743138330041901
  0.6542909263396440  0.7780775603774821  0.4329396785882441
  0.9884108355145144  0.9809082044817633  0.5867709360758397
  0.2344688745300411  0.8971585014072745  0.5532730355244866
  0.0914164217718556  0.3049585459273244  0.5379370688591520
  0.6867572064111974  0.8013402918195706  0.5011607600753741
 
  0.00000000E+00  0.00000000E+00  0.00000000E+00
  0.00000000E+00  0.00000000E+00  0.00000000E+00
  0.00000000E+00  0.00000000E+00  0.00000000E+00
  0.00000000E+00  0.00000000E+00  0.00000000E+00
  0.00000000E+00  0.00000000E+00  0.00000000E+00
  0.00000000E+00  0.00000000E+00  0.00000000E+00
  0.00000000E+00  0.00000000E+00  0.00000000E+00
  0.00000000E+00  0.00000000E+00  0.00000000E+00
  0.00000000E+00  0.00000000E+00  0.00000000E+00
  0.00000000E+00  0.00000000E+00  0.00000000E+00
  0.00000000E+00  0.00000000E+00  0.00000000E+00
  0.00000000E+00  0.00000000E+00  0.00000000E+00
  0.00000000E+00  0.00000000E+00  0.00000000E+00
  0.00000000E+00  0.00000000E+00  0.00000000E+00
  0.00000000E+00  0.00000000E+00  0.00000000E+00
  0.00000000E+00  0.00000000E+00  0.00000000E+00
  0.00000000E+00  0.00000000E+00  0.00000000E+00
  0.00000000E+00  0.00000000E+00  0.00000000E+00
  0.00000000E+00  0.00000000E+00  0.00000000E+00
  0.00000000E+00  0.00000000E+00  0.00000000E+00
  0.00000000E+00  0.00000000E+00  0.00000000E+00
  0.00000000E+00  0.00000000E+00  0.00000000E+00
  0.00000000E+00  0.00000000E+00  0.00000000E+00
  0.00000000E+00  0.00000000E+00  0.00000000E+00
  0.00000000E+00  0.00000000E+00  0.00000000E+00
  0.00000000E+00  0.00000000E+00  0.00000000E+00
  0.00000000E+00  0.00000000E+00  0.00000000E+00
  0.00000000E+00  0.00000000E+00  0.00000000E+00
  0.00000000E+00  0.00000000E+00  0.00000000E+00
  0.00000000E+00  0.00000000E+00  0.00000000E+00
  0.00000000E+00  0.00000000E+00  0.00000000E+00
  0.00000000E+00  0.00000000E+00  0.00000000E+00
  0.00000000E+00  0.00000000E+00  0.00000000E+00
  0.00000000E+00  0.00000000E+00  0.00000000E+00
  0.00000000E+00  0.00000000E+00  0.00000000E+00
  0.00000000E+00  0.00000000E+00  0.00000000E+00
  0.00000000E+00  0.00000000E+00  0.00000000E+00
  0.00000000E+00  0.00000000E+00  0.00000000E+00
  0.00000000E+00  0.00000000E+00  0.00000000E+00
  0.00000000E+00  0.00000000E+00  0.00000000E+00
  0.00000000E+00  0.00000000E+00  0.00000000E+00
  0.00000000E+00  0.00000000E+00  0.00000000E+00
  0.00000000E+00  0.00000000E+00  0.00000000E+00
  0.00000000E+00  0.00000000E+00  0.00000000E+00
  0.00000000E+00  0.00000000E+00  0.00000000E+00
  0.00000000E+00  0.00000000E+00  0.00000000E+00
  0.00000000E+00  0.00000000E+00  0.00000000E+00
  0.00000000E+00  0.00000000E+00  0.00000000E+00
  0.00000000E+00  0.00000000E+00  0.00000000E+00
  0.00000000E+00  0.00000000E+00  0.00000000E+00
  0.00000000E+00  0.00000000E+00  0.00000000E+00
  0.00000000E+00  0.00000000E+00  0.00000000E+00
  0.00000000E+00  0.00000000E+00  0.00000000E+00
  0.00000000E+00  0.00000000E+00  0.00000000E+00
  0.00000000E+00  0.00000000E+00  0.00000000E+00
  0.00000000E+00  0.00000000E+00  0.00000000E+00
  0.00000000E+00  0.00000000E+00  0.00000000E+00
  0.00000000E+00  0.00000000E+00  0.00000000E+00
  0.00000000E+00  0.00000000E+00  0.00000000E+00
  0.00000000E+00  0.00000000E+00  0.00000000E+00
  0.00000000E+00  0.00000000E+00  0.00000000E+00
  0.00000000E+00  0.00000000E+00  0.00000000E+00
  0.00000000E+00  0.00000000E+00  0.00000000E+00
  0.00000000E+00  0.00000000E+00  0.00000000E+00
  0.00000000E+00  0.00000000E+00  0.00000000E+00
  0.00000000E+00  0.00000000E+00  0.00000000E+00
  0.00000000E+00  0.00000000E+00  0.00000000E+00
  0.00000000E+00  0.00000000E+00  0.00000000E+00
  0.00000000E+00  0.00000000E+00  0.00000000E+00
  0.00000000E+00  0.00000000E+00  0.00000000E+00
  0.00000000E+00  0.00000000E+00  0.00000000E+00
  0.00000000E+00  0.00000000E+00  0.00000000E+00
  0.00000000E+00  0.00000000E+00  0.00000000E+00
  0.00000000E+00  0.00000000E+00  0.00000000E+00
  0.00000000E+00  0.00000000E+00  0.00000000E+00
  0.00000000E+00  0.00000000E+00  0.00000000E+00
  0.00000000E+00  0.00000000E+00  0.00000000E+00
  0.00000000E+00  0.00000000E+00  0.00000000E+00
  0.00000000E+00  0.00000000E+00  0.00000000E+00
  0.00000000E+00  0.00000000E+00  0.00000000E+00
  0.00000000E+00  0.00000000E+00  0.00000000E+00
  0.00000000E+00  0.00000000E+00  0.00000000E+00
  0.00000000E+00  0.00000000E+00  0.00000000E+00
  0.00000000E+00  0.00000000E+00  0.00000000E+00
  0.00000000E+00  0.00000000E+00  0.00000000E+00
  0.00000000E+00  0.00000000E+00  0.00000000E+00
  0.00000000E+00  0.00000000E+00  0.00000000E+00
  0.00000000E+00  0.00000000E+00  0.00000000E+00
  0.00000000E+00  0.00000000E+00  0.00000000E+00
  0.00000000E+00  0.00000000E+00  0.00000000E+00
  0.00000000E+00  0.00000000E+00  0.00000000E+00
  0.00000000E+00  0.00000000E+00  0.00000000E+00
  0.00000000E+00  0.00000000E+00  0.00000000E+00
  0.00000000E+00  0.00000000E+00  0.00000000E+00
  0.00000000E+00  0.00000000E+00  0.00000000E+00
  0.00000000E+00  0.00000000E+00  0.00000000E+00
  0.00000000E+00  0.00000000E+00  0.00000000E+00
  0.00000000E+00  0.00000000E+00  0.00000000E+00
  0.00000000E+00  0.00000000E+00  0.00000000E+00
  0.00000000E+00  0.00000000E+00  0.00000000E+00
  0.00000000E+00  0.00000000E+00  0.00000000E+00
  0.00000000E+00  0.00000000E+00  0.00000000E+00
  0.00000000E+00  0.00000000E+00  0.00000000E+00
  0.00000000E+00  0.00000000E+00  0.00000000E+00
  0.00000000E+00  0.00000000E+00  0.00000000E+00
  0.00000000E+00  0.00000000E+00  0.00000000E+00
  0.00000000E+00  0.00000000E+00  0.00000000E+00
  0.00000000E+00  0.00000000E+00  0.00000000E+00
  0.00000000E+00  0.00000000E+00  0.00000000E+00
  0.00000000E+00  0.00000000E+00  0.00000000E+00
  0.00000000E+00  0.00000000E+00  0.00000000E+00
  0.00000000E+00  0.00000000E+00  0.00000000E+00
  0.00000000E+00  0.00000000E+00  0.00000000E+00
  0.00000000E+00  0.00000000E+00  0.00000000E+00
  0.00000000E+00  0.00000000E+00  0.00000000E+00
  0.00000000E+00  0.00000000E+00  0.00000000E+00
  0.00000000E+00  0.00000000E+00  0.00000000E+00
  0.00000000E+00  0.00000000E+00  0.00000000E+00
  0.00000000E+00  0.00000000E+00  0.00000000E+00
  0.00000000E+00  0.00000000E+00  0.00000000E+00
  0.00000000E+00  0.00000000E+00  0.00000000E+00
  0.00000000E+00  0.00000000E+00  0.00000000E+00
  0.00000000E+00  0.00000000E+00  0.00000000E+00
  0.00000000E+00  0.00000000E+00  0.00000000E+00
  0.00000000E+00  0.00000000E+00  0.00000000E+00
  0.00000000E+00  0.00000000E+00  0.00000000E+00
  0.00000000E+00  0.00000000E+00  0.00000000E+00
  0.00000000E+00  0.00000000E+00  0.00000000E+00
