Generated by VASPKIT code               
   1.00000000000000     
     9.8023691257736285   -0.0058171368835103    0.0000000000000000
    -4.9065062601497473    9.1486776521864499    0.0000000000000000
     0.0000000000000012    0.0000000000000023   19.7125436851461053
  C             
    64
Direct
  0.9591821786168542  0.4448668991309191  0.4587937337052776
  0.8981434919920831  0.2813218408153673  0.4792696296104347
  0.8439022158453894  0.4396755507470374  0.4044937905536946
  0.7398636864137391  0.2028504306040478  0.4493404752705250
  0.7201806672818215  0.2937975528841999  0.4026192290215714
  0.7735362053127869  0.5471600905925672  0.4112654409684064
  0.5955903895158834  0.4393277353853113  0.4040550976805446
  0.5735854352276020  0.2936668334584456  0.4024750314736781
  0.7641221634165137  0.5282384642821304  0.4873629813391586
  0.8722818566280194  0.4904514468397031  0.5147535485653191
  0.8302369758237673  0.4065853835630917  0.5736321704403807
  0.6182001076654018  0.4899594075084341  0.5144879044292291
  0.5761356668747595  0.4062715918948536  0.5734561494652701
  0.6823787570457572  0.3651736749065626  0.6054424252297063
  0.4855249297104733  0.4442248607892644  0.4584866192978404
  0.6987926140251741  0.1614220053919148  0.5653352740995694
  0.8453545306712023  0.2789719136187606  0.5536867139388584
  0.6030529506048660  0.2066494289332264  0.6007828171848473
  0.4617928108405663  0.1611223176017071  0.5654173083393246
  0.4328518723541796  0.2786680487104748  0.5536816366468105
  0.3828214350642068  0.2808713794305020  0.4791602006331985
  0.6264239714608369  0.0912709546994058  0.4986450131635179
  0.4647099688873296  0.0913267885023132  0.4986646698809807
  0.4629642055608504  0.2027524144270659  0.4493421003115947
  0.2140928754985047  0.1711359576839791  0.4655223725064292
  0.3825109307108505  0.9230698031152885  0.5040828658946240
  0.1260779510467941  0.1091891365746348  0.3986030209854877
  0.2775552162312492  0.8264496350881874  0.4477368268316427
  0.1953681206147699  0.0203879784917869  0.4863294579544743
  0.5397202509305656  0.9227118411295737  0.5042321213917195
  0.1643599758108482  0.9029603786995071  0.4328922503725937
  0.5466509572938595  0.8255013165883121  0.4477763177890594
  0.0966462704757168  0.9610253416662515  0.3814722135360152
  0.3756620524434801  0.7522955350686608  0.4218186113667918
  0.1005406031992758  0.9687944141694775  0.5417478054748215
  0.5467999968869394  0.8543817440136262  0.5709046771701786
  0.9806643148785006  0.8233164289581364  0.5262041370572010
  0.5464335903692474  0.7207176731979146  0.5576552265627638
  0.0190555955679622  0.7643151142398270  0.4637820715709815
  0.5644774534351472  0.6995510227287924  0.4825773512908463
  0.0314580265952892  0.0643718483988200  0.5528415029908655
  0.4091663614065378  0.8137591834652890  0.6094091545782154
  0.8664955023546944  0.9688418347873591  0.5418907444265572
  0.3332666807847802  0.6606539275797892  0.6284025110639064
  0.8407415593877464  0.8232121454006883  0.5263044461908327
  0.4218203585284765  0.6014894982532003  0.5925582994231531
  0.0906873465633993  0.1819770810137935  0.5085721184255854
  0.3077461137432287  0.8544503059634437  0.5708204864462110
  0.9566643554761260  0.1714323265384105  0.4655383230465335
  0.1757768074171116  0.7242340987947128  0.5583733991367293
  0.8239806499283469  0.0206387883361535  0.4862994398945554
  0.1894205534192850  0.6050233093800113  0.5914163788798579
  0.9824513738238835  0.1095402983109897  0.3985606266567480
  0.1354251106496587  0.7006619641658756  0.4833867771699794
  0.8637598926446626  0.9611249202229196  0.3816875150236843
  0.1349721388298886  0.5515781174640336  0.4687970252329007
  0.7383932564409615  0.9031082659011618  0.4328929221863619
  0.1860686862568662  0.5156540237580953  0.5367161622842160
  0.7442011950415647  0.7643287470784359  0.4635017237794881
  0.3326453675286812  0.5183471407804218  0.5363872170055315
  0.8619386650758228  0.7244571260392704  0.4156141140162927
  0.4166738033204969  0.5511858370694356  0.4679671948530723
  0.9338913152108554  0.8681264266015342  0.3722169032735814
  0.3007776373378186  0.6027044485648968  0.4322129253305046
 
  0.00000000E+00  0.00000000E+00  0.00000000E+00
  0.00000000E+00  0.00000000E+00  0.00000000E+00
  0.00000000E+00  0.00000000E+00  0.00000000E+00
  0.00000000E+00  0.00000000E+00  0.00000000E+00
  0.00000000E+00  0.00000000E+00  0.00000000E+00
  0.00000000E+00  0.00000000E+00  0.00000000E+00
  0.00000000E+00  0.00000000E+00  0.00000000E+00
  0.00000000E+00  0.00000000E+00  0.00000000E+00
  0.00000000E+00  0.00000000E+00  0.00000000E+00
  0.00000000E+00  0.00000000E+00  0.00000000E+00
  0.00000000E+00  0.00000000E+00  0.00000000E+00
  0.00000000E+00  0.00000000E+00  0.00000000E+00
  0.00000000E+00  0.00000000E+00  0.00000000E+00
  0.00000000E+00  0.00000000E+00  0.00000000E+00
  0.00000000E+00  0.00000000E+00  0.00000000E+00
  0.00000000E+00  0.00000000E+00  0.00000000E+00
  0.00000000E+00  0.00000000E+00  0.00000000E+00
  0.00000000E+00  0.00000000E+00  0.00000000E+00
  0.00000000E+00  0.00000000E+00  0.00000000E+00
  0.00000000E+00  0.00000000E+00  0.00000000E+00
  0.00000000E+00  0.00000000E+00  0.00000000E+00
  0.00000000E+00  0.00000000E+00  0.00000000E+00
  0.00000000E+00  0.00000000E+00  0.00000000E+00
  0.00000000E+00  0.00000000E+00  0.00000000E+00
  0.00000000E+00  0.00000000E+00  0.00000000E+00
  0.00000000E+00  0.00000000E+00  0.00000000E+00
  0.00000000E+00  0.00000000E+00  0.00000000E+00
  0.00000000E+00  0.00000000E+00  0.00000000E+00
  0.00000000E+00  0.00000000E+00  0.00000000E+00
  0.00000000E+00  0.00000000E+00  0.00000000E+00
  0.00000000E+00  0.00000000E+00  0.00000000E+00
  0.00000000E+00  0.00000000E+00  0.00000000E+00
  0.00000000E+00  0.00000000E+00  0.00000000E+00
  0.00000000E+00  0.00000000E+00  0.00000000E+00
  0.00000000E+00  0.00000000E+00  0.00000000E+00
  0.00000000E+00  0.00000000E+00  0.00000000E+00
  0.00000000E+00  0.00000000E+00  0.00000000E+00
  0.00000000E+00  0.00000000E+00  0.00000000E+00
  0.00000000E+00  0.00000000E+00  0.00000000E+00
  0.00000000E+00  0.00000000E+00  0.00000000E+00
  0.00000000E+00  0.00000000E+00  0.00000000E+00
  0.00000000E+00  0.00000000E+00  0.00000000E+00
  0.00000000E+00  0.00000000E+00  0.00000000E+00
  0.00000000E+00  0.00000000E+00  0.00000000E+00
  0.00000000E+00  0.00000000E+00  0.00000000E+00
  0.00000000E+00  0.00000000E+00  0.00000000E+00
  0.00000000E+00  0.00000000E+00  0.00000000E+00
  0.00000000E+00  0.00000000E+00  0.00000000E+00
  0.00000000E+00  0.00000000E+00  0.00000000E+00
  0.00000000E+00  0.00000000E+00  0.00000000E+00
  0.00000000E+00  0.00000000E+00  0.00000000E+00
  0.00000000E+00  0.00000000E+00  0.00000000E+00
  0.00000000E+00  0.00000000E+00  0.00000000E+00
  0.00000000E+00  0.00000000E+00  0.00000000E+00
  0.00000000E+00  0.00000000E+00  0.00000000E+00
  0.00000000E+00  0.00000000E+00  0.00000000E+00
  0.00000000E+00  0.00000000E+00  0.00000000E+00
  0.00000000E+00  0.00000000E+00  0.00000000E+00
  0.00000000E+00  0.00000000E+00  0.00000000E+00
  0.00000000E+00  0.00000000E+00  0.00000000E+00
  0.00000000E+00  0.00000000E+00  0.00000000E+00
  0.00000000E+00  0.00000000E+00  0.00000000E+00
  0.00000000E+00  0.00000000E+00  0.00000000E+00
  0.00000000E+00  0.00000000E+00  0.00000000E+00
