C 
 1.0000000000000000
    12.5678070263296355    0.0000000000000000    0.0000000000000000
    -6.2839035131648249   10.8840401546620296    0.0000000000000000
     0.0000000000000000    0.0000000000000000   16.0000000000000000
 C  
 104
Direct
  0.2134475325135096  0.7163920579910700  0.4097249458807812
  0.2432957072084518  0.7932368711632714  0.4821469885937226
  0.3223535129480787  0.7417129303013761  0.3649751696457992
  0.3784430916486649  0.8521489635111119  0.4924344809917762
  0.4267150829738579  0.8206021504407762  0.4209926275166089
  0.3275282253196381  0.6314989435001845  0.3531076830247257
  0.4410505040177686  0.6459999152219732  0.3841149052608516
  0.4992796674988366  0.7622110856140162  0.4325463494846763
  0.2297112995375449  0.5369843871890767  0.4068753400085811
  0.1599436791576270  0.5889287781430018  0.4414923693684897
  0.1459495704124635  0.5916426070329199  0.5306831384153339
  0.2855243311053940  0.4876682862794696  0.4614346630754259
  0.2715131942105192  0.4903431360870471  0.5505889449084301
  0.2017594767661809  0.5423146592868091  0.5852185081286067
  0.4190509617554830  0.5506413396273304  0.4423862062551231
  0.2828858992140214  0.7491823430341333  0.6178317532458238
  0.1904137659111146  0.7209568698451503  0.5557311899635041
  0.2819284145828463  0.6400601264775893  0.6450119650112047
  0.4014854565577879  0.6533903534711585  0.6369830243275300
  0.3959475309545198  0.5550985225971190  0.5883521225400201
  0.4806122424491423  0.6018439553973897  0.5198160836533608
  0.4026487774263767  0.8252191486681419  0.5754367726134438
  0.4750975633474667  0.7667132671291761  0.5870251785534830
  0.5234065124827028  0.7352173019907057  0.5155603883264187
  0.0526935548736139 -0.0142391615787212  0.5956416144706981
  0.0122164285757654 -0.1332204540937193  0.5572528939177472
 -0.0443062838741092  0.0136457903339806  0.5859786014518165
 -0.1442013482665541 -0.0882598705420957  0.5416422056579666
 -0.1133318489963380 -0.1843385798094423  0.5259118326185472
  0.0007384221726477  0.1269062867711031  0.5376037397931295
 -0.0698616531929101  0.0882630093880922  0.4598657962586835
 -0.1600613030689512 -0.0419848087612059  0.4634363514814147
  0.1248998871363666  0.1590090018445681  0.5131323405634554
  0.1368175563792348  0.1577206239708843  0.4226635154666198
  0.0112819621518145  0.1066380917490433  0.3913352348532420
  0.1633920758113098  0.0801271859771791  0.5538286024146687
  0.1835622662535534  0.0154033604979389  0.4851455812108129
  0.1677146956492077  0.0616677839257958  0.4069271827185164
  0.0933804954617736 -0.1148226495021630  0.4887320575633279
  0.0227897516097459 -0.1534688775377156  0.4109941230915651
  0.0678074412876216 -0.0402288006326637  0.3626038997167047
 -0.0291978614363612 -0.0123401864263926  0.3529449574758953
 -0.1399059110665688 -0.1067271855435988  0.3947574734347775
 -0.1013964844077709 -0.1856130466551172  0.4354431158561214
  0.6951778402715022 -0.0636027708702372  0.4738662276565948
  0.7664782157026749 -0.0142968887850382  0.5498930031647437
  0.7375088452370846  0.0349222150192679  0.4144889125418357
  0.8347321059205950  0.1446035822792162  0.4541626698050989
  0.8585232852483540  0.1152148794477412  0.5381110423352310
  0.6357516023931451  0.0542195564221922  0.3914885169066737
  0.6713453278323792  0.1764299594813251  0.4237957678505666
  0.7937085214367594  0.2323676945580472  0.4599262056075027
  0.5344953220913383 -0.0297915324919744  0.4449206532149888
  0.4959764784404595  0.0361575522285647  0.5007463264994420
  0.5880003204909180  0.1656529625898249  0.4889411955659965
  0.5647868960943613 -0.1110130190665833  0.4910561565721787
  0.5607657903246861 -0.0810084979132362  0.5789120393405603
  0.5197355160658934  0.0067535826833221  0.5846951027735453
  0.6831125963779230 -0.0250965922303517  0.6150287871761364
  0.7187020605868801  0.0971050701042792  0.6473424197236746
  0.6169663327951600  0.1164360773256843  0.6243500993321913
  0.6593002933470883  0.2149630354106540  0.5649656134311075
  0.7897073246584689  0.2623788285271313  0.5477843091346845
  0.8199865782273796  0.1811504385941698  0.5939365052587036
  0.9816738811581556  0.7385847483396102  0.4850597624196077
  0.8956971762421758  0.6895209442766600  0.5543722743430178
  0.9125496131537613  0.6926276876345713  0.4091910410848026
  0.7842140722453658  0.6153727682312976  0.4320392047565470
  0.7701858821919461  0.6159242787300913  0.5227831743667777
  0.9557693945894924  0.6203976800462374  0.3637881025353822
  0.8514010754603750  0.4949184673988937  0.3649893506132275
  0.7462858776696696  0.4927640705242901  0.4046190656364799
  1.0458973135244183  0.6169448166456440  0.4192480361504364
  1.0080861639621994  0.4918675476483325  0.4450583228065317
  0.8826016843067670  0.4182875712829741  0.4134485742786273
  1.0716848923973510  0.6974940702369260  0.4910186216271797
  1.0320120113260645  0.6150362426040360  0.5632038716303707
  0.9940834419101091  0.4924148377930750  0.5358012347329008
  0.9269249538828281  0.6129065162653916  0.6028253518900929
  0.8225627319185321  0.4874304539612503  0.6040342730941471
  0.8657482396787538  0.4151737179118336  0.5586330264819030
  0.7966230750351048  0.3692203308357149  0.4827576149836351
  0.7065984260934930  0.4103105412216231  0.4768080853220534
  0.7323922451634853  0.4908502763121347  0.5485939238838272
  0.2963075720106139  0.2483397820064206  0.3942857315636559
  0.2681830948289096  0.1735187883556129  0.4691447324223476
  0.4030410812001902  0.2549699527854060  0.3564975347914687
  0.4403184192890511  0.1842248079875059  0.4082338233824471
  0.3541003027722503  0.1276060999704637  0.4775764971222498
  0.5015516797290341  0.3832743023640517  0.3528998444314793
  0.5963934790089525  0.3892760157480700  0.4088974164620303
  0.5602333608841554  0.2675110974576476  0.4407228704192582
  0.4521126591090266  0.4508980229289772  0.3964281733050208
  0.5236249482468894  0.5118044086676301  0.4707652155856758
  0.6095489473226235  0.4659133780015335  0.4791737722129957
  0.3225405485310155  0.3721268357123479  0.4162581875217073
  0.3175030020160845  0.3719263900907655  0.5076008048979306
  0.4374111605155606  0.4552154399171104  0.5401087849733519
  0.2813318216387703  0.2501716343078781  0.5394090835314970
  0.3761639729501776  0.2561731078234443  0.5954111329185713
  0.4746933747850595  0.3844660071246577  0.5918265316330980
  0.5814303819238104  0.3910951291009386  0.5540316175861890
  0.5551889011861257  0.2672905022347740  0.5320665805515201
  0.4256097077074316  0.1885269213505601  0.5519123852842290
