C 
 1.0000000000000000
    15.8979939824500249    0.0000000000000000    0.0000000000000000
     0.0000000000000000    8.9920492022425105    0.0000000000000000
     0.0000000000000000    0.0000000000000000   16.0000000000000000
 C  
 128
Direct
  0.4846351215564562  0.4739343989717812  0.4209621525831961
  0.5138189827940139  0.4893863684630559  0.5052627144442238
  0.4071725708162837  0.3927158621873054  0.4183366944000390
  0.4429471403411160  0.4415193611074480  0.5593125281588806
  0.3778018479012216  0.3826892634170921  0.5062829714450305
  0.3440543040086901  0.4754550812819432  0.3746513115853318
  0.2701055000988349  0.4922219385215537  0.4250412798034959
  0.2940457783600552  0.4432414607936485  0.5103136886035561
  0.3786561973053074  0.6274402969223752  0.3635222123545163
  0.4646429164985429  0.6264772794010909  0.3918471135185956
  0.4916275858812322  0.7294090481018621  0.4553962505202797
  0.3195771910967385  0.7313910731549890  0.3987158785096048
  0.3465485396058245  0.8343154080508738  0.4622220563643890
  0.4325408179665876  0.8333423730675359  0.4905678288872537
  0.2471504509254109  0.6456838517236485  0.4322276438594863
  0.4834008579761422  0.6847132898782182  0.5984672229094992
  0.5289683543592296  0.6423347754955869  0.5250074649445587
  0.4320507424435678  0.8126010977897707  0.5825710300717610
  0.3463691071140089  0.7843081863838596  0.6051348279148818
  0.2914742781579736  0.8141358370252608  0.5361941326902122
  0.2396592051877139  0.6876590175248646  0.5182189572842745
  0.4243594249666561  0.5609899961071559  0.6163322524110111
  0.3406379615337342  0.6216907596399474  0.6203275699101154
  0.2754870122749974  0.5627868503474063  0.5673052397815490
  0.6451645723836036 -0.0220922499448746  0.5801182329679092
  0.5693174970466657  0.0241357055539527  0.6209622797824070
  0.6956349613687771  0.1037914242462331  0.5578803882832331
  0.5641239346882494  0.1875195330296858  0.6088752485191465
  0.6411559685208180  0.2361583500082655  0.5702809510120368
  0.7155717373743160  0.1009281910074132  0.4706513705559848
  0.6912591734882768  0.2373903943070013  0.4311344669490931
  0.6386197182849371  0.3178304590038124  0.4929047195977944
  0.6616634552457429 -0.0162746936199155  0.4333145171631110
  0.6186111562925355 -0.0915082262642368  0.5002821837986338
  0.5281614830602080 -0.1006913296227495  0.5002338326356695
  0.6142891899939658  0.0498146910967746  0.3662162490280871
  0.5238776121452987  0.0406059471130178  0.3661479562271088
  0.4808118163190304 -0.0346083477539952  0.4331298030401089
  0.6380747842162562  0.2092882061430505  0.3606489936533792
  0.4392390927147544  0.0779820483676686  0.5574809619413723
  0.4970803984015459 -0.0372629472702875  0.5801875994764096
  0.4195833733503549  0.0710849333947075  0.4701578587860268
  0.4348506231550870  0.2114620710158401  0.4307135145867353
  0.4900337555888287  0.1940249338420458  0.3606673991546130
  0.5611694798066920  0.2911973439775314  0.3675844460208190
  0.4845489731547712  0.2204453508824038  0.5700626237147098
  0.4819781141237538  0.3019762219439130  0.4926425319205768
  0.5590320834782473  0.3506602127699693  0.4540744070641776
 -0.2028378205154074  1.2022180214684615  0.5240576517714224
 -0.2025416596297183  1.1951453276833730  0.4333288866622967
 -0.1273848974739245  1.2771260838380887  0.5496343624633879
 -0.0808534927487009  1.3159052032024485  0.4745579134966061
 -0.1283335023205777  1.2713630954997241  0.4003385929932332
 -0.0772089922914125  1.1775721469385230  0.6020080800607053
 -0.0010362891859362  1.1494941117824264  0.5532327843770758
 -0.0024927977125858  1.2367683223258181  0.4767927423641714
 -0.1226110324266844  1.0369076768895500  0.6004735594169864
 -0.0723516180134456  0.9192397176416862  0.5628478973484340
  0.0018552778289777  0.9954606208289772  0.5298851908237550
 -0.2037538650088279  1.0519887532867556  0.5591146204526218
 -0.1981907824232042  0.9538279773886919  0.4864192412439577
 -0.1198337844865752  0.8746653590591568  0.4886406393935385
 -0.1996592768804245  1.0411046311958994  0.4099981691044333
 -0.1234933524532548  1.0130183055636584  0.3612198716433779
 -0.0732997983966797  0.9134707421430878  0.4135767711184815
  0.0021552727674770  0.9883884465839569  0.4391581394179965
  0.0030689163193451  1.1386260233109369  0.4040881132723784
 -0.0780790591259587  1.1536791776325779  0.3627204067793549
  0.1232999190218731  0.5353865992916325  0.5622669085875346
  0.0828553010606589  0.6729223417946291  0.5879188637264512
  0.1665271190690388  0.5638914524349130  0.4851581229462312
  0.1525370094763024  0.7189053133665939  0.4635647179810749
  0.1031158823263403  0.7918874321407881  0.5288878860555912
  0.1325489212114633  0.4673363365766226  0.4197782082480696
  0.0924554070770610  0.5692047555100440  0.3606858536922991
  0.1066095991363275  0.7222038326708604  0.3863673416853406
  0.0628392120707111  0.3898305440554563  0.4596779793478457
 -0.0169678447148349  0.4250807651168867  0.4196522479386697
  0.0033056320796582  0.5440038544316165  0.3606146096939968
  0.0600764729721500  0.4195458408547101  0.5491008124029441
 -0.0204547071973783  0.4947230647814291  0.5621638184019776
 -0.0664005555434015  0.4980300265296096  0.4849731466152641
 -0.0062906472162642  0.6476878460730622  0.5878513012281932
 -0.0463891353827166  0.7495541568222261  0.5287660357935255
 -0.0803722146260725  0.6530364184362775  0.4633743560909199
 -0.0371383171803559  0.6815390665666327  0.3862624411411656
  0.0260843069537817  0.7974022016394855  0.3994347964021375
  0.0233040036708893  0.8271171224345992  0.4888643082534219
  0.8435158668683153 -0.4579430504474866  0.5335502596622821
  0.8391040827103649 -0.2971778501526161  0.5254781426156225
  0.8230924431865679 -0.5209555438445915  0.4536670343224692
  0.8061450947830896 -0.3987631389535745  0.3966615290532484
  0.8192374763479306 -0.2565819873525104  0.4391657316912093
  0.7484525558464004 -0.6149689629557090  0.4618560516571023
  0.6840295477643951 -0.5395590117997284  0.4122286510098818
  0.7199072545512797 -0.4103077694818367  0.3709544773393200
  0.7215413435472956 -0.5948921651148191  0.5481386918154922
  0.6380949222540477 -0.5286262512802780  0.5527209030803167
  0.6182308653114091 -0.4880791437020925  0.4664114106472944
  0.7827251108994644 -0.5092955630597235  0.5958131477778982
  0.7374217685175553 -0.3749453219330332  0.6209365147188632
  0.6511756602621207 -0.3864638127462654  0.5952404081626926
  0.7733089595264490 -0.2457257671543842  0.5796722217598974
  0.7088871329695460 -0.1703088025254757  0.5300525134153948
  0.6342375485983552 -0.2642958956338212  0.5382244583999681
  0.6138166945798470 -0.3273176485086789  0.4583365411594203
  0.6746123326514837 -0.2759422388327368  0.3960706749382172
  0.7357879879822246 -0.1903273437187331  0.4437584938356878
  0.1187276398859864 -0.0204483985529477  0.5298940168726088
  0.1192748047551956  0.1095073834318684  0.5838672327632370
  0.1042174693010494  0.0299702396717819  0.4460103202650348
  0.0958989813381428  0.1908422344829826  0.4486019742255383
  0.1015105735918814  0.2433423072573007  0.5349686359532345
  0.1756816932776746 -0.0118142806458511  0.3934240803508373
  0.2137097527573720  0.1297511972859235  0.3689498998600753
  0.1637950395622511  0.2527245572743924  0.4008045604087168
  0.2360007645072204 -0.0776955637167892  0.4510780580697941
  0.3138696788788831  0.0074144496303377  0.4539642043937392
  0.2961043734909933  0.1412088533565680  0.4050499230645505
  0.1999918395716998 -0.0963686173577405  0.5340996149446459
  0.2515901304510976 -0.0020040842915317  0.5881132481876516
  0.3194982446231865  0.0598897321542805  0.5403305950720726
  0.2016709031470229  0.1209303933872702  0.6199654692657782
  0.2397010743911951  0.2624921025482028  0.5954994861458195
  0.3111670248526728  0.2207504341030934  0.5429087434599756
  0.2966525725802643  0.2711660650979118  0.4590191598241886
  0.2153826719673548  0.3471040735008536  0.4548216826215770
  0.1793866704702223  0.3284339954378127  0.5378567132285472
