C 
 1.0000000000000000
    11.1972513191765319    0.0000000000000000    0.0000000000000000
     0.0000000000000000   11.1972513191765319    0.0000000000000000
     0.0000000000000000    0.0000000000000000   16.0000000000000000
 C  
 104
Direct
  0.6810534806428161  0.5312414890194194  0.5754282386221419
  0.6356528361910105  0.4164081264222355  0.5989878713474994
  0.7099692700657461  0.5339549156918996  0.4882419978756664
  0.6126865264670356  0.3516978167371631  0.5196475267644540
  0.6578881568190460  0.4234700130747188  0.4520331715901265
  0.6504479889291043  0.6311490218849727  0.4477180067078008
  0.5824185084338568  0.5895794114419239  0.3776185688054510
  0.5801617620799210  0.4574789025448179  0.3843947781101112
  0.5621267095555885  0.6774263786182910  0.5088125447695341
  0.5808706844897681  0.6163103961331312  0.5869210056956046
  0.4838240349499638  0.5530635890842582  0.6260630708913696
  0.4462830342215781  0.6753720328760425  0.4697867463495921
  0.3492598114744337  0.6121834385649439  0.5089183384197717
  0.3680017188155575  0.5510357383419980  0.5870285375200895
  0.4607132637327747  0.6279021228922209  0.3836675018580922
  0.4346208603443656  0.3548165146806589  0.5989904191263249
  0.5223119226743351  0.4276158220942972  0.6396336434085719
  0.3325521394849959  0.4243996600259425  0.5755781322524360
  0.3070409106746674  0.4105040544976627  0.4884192116199662
  0.3019742485509836  0.5243967931202185  0.4478797146621821
  0.3813119983041764  0.5280606390789617  0.3776170134146012
  0.4897268247256934  0.3140054822600733  0.5196644252793232
  0.4119277191318596  0.3480916859235734  0.4520884018842592
  0.4571755892407223  0.4198359549905780  0.3844546699198675
  0.2183174390909824 -0.0283627086653401  0.6281576418678272
  0.1326037826963645  0.0567579053303155  0.5949785398796121
  0.3088709991843844  0.0380811701809948  0.6713901868907511
  0.2786335494195686  0.1639249263405358  0.6646697960332696
  0.1655046760031151  0.1780374890257147  0.6200011001221006
  0.4248431380798081  0.0155105809646295  0.6323715933940673
  0.4598411310809940  0.1306559223760087  0.5968296380427622
  0.3722644710564794  0.2213406803441879  0.6184392469133783
  0.3976146072512755 -0.0588340249501944  0.5601431395931664
  0.4299691940811158  0.0003670669675746  0.4823385510606233
  0.4628948109483896  0.1216198347304666  0.5073717966028763
  0.2729675603850561 -0.0959164130161872  0.5598906973777973
  0.2232363809448259 -0.0429603277421705  0.4839051147542339
  0.3168544060718549  0.0144588794904529  0.4376567947453481
  0.1356653393448431  0.0476951189663149  0.5055229297915224
  0.1706547496433387  0.1628348157733032  0.4699760343607297
  0.2866278223749892  0.1402990110466242  0.4309542492739332
  0.3771866334101914  0.2067427028101061  0.4741932821546920
  0.3225203214470963  0.2743083196579182  0.5424605539552347
  0.1978636967058833  0.2372230385854496  0.5421907853725062
  0.6897221351067531  0.0325334542886770  0.6496291714740163
  0.8121891808463139 -0.0036818895522723  0.6335124010471201
  0.6237419579654642 -0.0723778505496603  0.6725343822214154
  0.7058041606656366 -0.1728759663111758  0.6704239705354250
  0.8261117746556380 -0.1315516556389879  0.6495494838270079
  0.5268358721307618 -0.0911100771391727  0.6126352587277474
  0.5576542143122543 -0.2026338885554901  0.5702088935465186
  0.6648133868176808 -0.2536635527101156  0.6069732637839638
  0.5444844885623468  0.0010443480923357  0.5495859604004847
  0.5687731159911580 -0.0506369546032794  0.4678199300410121
  0.5826590329698867 -0.1784944391775444  0.4838627603295778
  0.6374923413599600  0.0848298190538225  0.5742458856040996
  0.7300360697264511  0.0714850972856369  0.5103956873115715
  0.6890642565108327 -0.0092970127005733  0.4469304086056113
  0.8371750318152534  0.0204781383438183  0.5471672022244836
  0.8680002010273186 -0.0910361589816697  0.5047378492278375
  0.7711091693595064 -0.1097996469597618  0.4448350405632461
  0.7051220521514230 -0.2147141417199817  0.4677454513729342
  0.7573708912336844 -0.2670148415600131  0.5431320749475984
  0.8503919657407695 -0.1832195682146390  0.5677772843619862
 -0.0773929469225349  0.2390005308035749  0.6548807402404170
 -0.1346074898412422  0.1498802294051100  0.6023975471380512
 -0.1473404486738382  0.3461961876389744  0.6500604964446507
 -0.2473986227108726  0.3227391158322077  0.5945958640661637
 -0.2445184879615540  0.1984369472962009  0.5664978977219864
 -0.0738442018172221  0.4429110371574222  0.6164099223457329
 -0.1284632161509797  0.4715400505800703  0.5358240448767495
 -0.2357016517849266  0.4004809454377642  0.5237553708805169
  0.0390885062213650  0.3860746264096836  0.5949946903057804
  0.0630720569004302  0.3934820188736297  0.5056965936210097
 -0.0468215692698997  0.4420646931587223  0.4698139134956743
  0.0434381692231044  0.2631343529218569  0.6245112630895806
  0.0542759176148317  0.1914642020588241  0.5484500814358357
  0.0659822294958136  0.2691874681856130  0.4775957464336651
 -0.0529449848868916  0.1204115477388161  0.5363996458709960
 -0.1075571900743194  0.1490301435575749  0.4558132923527883
 -0.0340856216686813  0.2457470132318546  0.4221453134226850
 -0.1040372729214754  0.3529500412076228  0.4173296050400584
 -0.2248813486909962  0.3288014622082511  0.4476960683190621
 -0.2205170237356071  0.2058455791063263  0.4772014781900865
 -0.0291995564799306  0.7950344749850111  0.6274402384125874
 -0.0038864475732620  0.8642018978919399  0.5526692176242577
  0.0826362118805611  0.7700334402281925  0.6676344629373494
  0.1764695274772221  0.8238695061048651  0.6174603568104312
  0.1242851514508082  0.8880427935948964  0.5466776159040726
  0.0999942432888864  0.6407212533445336  0.6723077905334980
  0.2029676908275023  0.6173852596065266  0.6184869648920376
  0.2511036429667841  0.7292065723854679  0.5869884803270006
 -0.0011614089354646  0.5907433867394807  0.6270060140527697
  0.0375879312324135  0.5239232724576611  0.5537897760094037
  0.1657506461992109  0.5477444135220498  0.5478213247752172
 -0.0875554696998062  0.6826764868647835  0.6049143619637720
 -0.0892382458205049  0.6827342717844120  0.5134969438439144
 -0.0146128284566365  0.5880699806560767  0.4830059585869916
 -0.0411224887103517  0.7945490153024426  0.4820152729438217
  0.0618406368498436  0.7712149578541917  0.4281897495202316
  0.0792281806022357  0.6419090749904270  0.4328505403797074
  0.1910682922661602  0.6169083807013565  0.4730515706040032
  0.2494276325205541  0.7292830806396944  0.4955700000565443
  0.1630209565966298  0.8212107153345182  0.4734623273725621
