Generated by VASPKIT code               
   1.00000000000000     
     9.5341671107307331    0.0010820901896279    0.0000000000000000
    -0.0016431215350833   10.4610428900043075    0.0000000000000000
     0.0000000000000012    0.0000000000000013   19.7116461208936222
  C             
    68
Direct
  0.5522453184472167  0.9103530063121243  0.6131883741374553
  0.0157486712049109  0.5516271013397310  0.6205933952613765
  0.4793802017710033  0.0294966939317824  0.6141832342984550
  0.8895920810617531  0.4849165340156676  0.6020155173083331
  0.4686948935221608  0.8138888077948047  0.5878528353590267
  0.1304699879921932  0.4775713146751802  0.6021671868959324
  0.3417022406823364  0.0086160956910026  0.5817401243498523
  0.9279329241213027  0.3780153641025266  0.5620919442682498
  0.3227015291314282  0.8646192457544728  0.5608800730717280
  0.0825041511498143  0.3490363349859159  0.5654176993441247
  0.5444968966876538  0.7638484066233876  0.5290673570767610
  0.2101379509214132  0.5474125665451320  0.5516100916903088
  0.4553990556297593  0.7638775284902820  0.4709686936131008
  0.2549797945460333  0.4797613137492555  0.4924427087233897
  0.3357802709680800  0.8341140537434724  0.4849719568890949
  0.1532946521881208  0.3757806100903300  0.4960990708385164
  0.6641505590870485  0.8340504683503749  0.5150761141643113
  0.1281183345151848  0.6528038999892078  0.5302844153497543
  0.6909481503181595  0.9262843349689874  0.5735402346639762
  0.0126408393427451  0.6826012803330204  0.5807378447604766
  0.6926432222818366  0.0814818652644267  0.5536068596762209
  0.8727072028881430  0.6587098148913103  0.5411448600848660
  0.6772754026110628  0.8645927287172802  0.4391536280497682
  0.1273210941698235  0.6586697397892646  0.4588760171151473
  0.6582817708351948  0.0085997396066542  0.4183163781213860
  0.9874010795729468  0.6825408265886623  0.4192694559731618
  0.6808996753764155  0.1158066846992713  0.4739738645188566
  0.8719487356666542  0.6527644432515858  0.4697321224397225
  0.5312204740659209  0.8139247990007683  0.4121894942124441
  0.2161307503643833  0.5556935758880932  0.4337877265646354
  0.4643252194120525  0.1833845660016994  0.5304871257220065
  0.7450857653998666  0.4797719782360858  0.5076492456366728
  0.5508429118397372  0.1261874222129500  0.5811922421685431
  0.7839225281111707  0.5557454305653489  0.5662743951284074
  0.5356912857081036  0.1833826699988369  0.4695993117630225
  0.7899043430103817  0.5473776068385127  0.4484522983944154
  0.4491317663098912  0.1262064401527497  0.4188972802656505
  0.8695715573746622  0.4775103519678512  0.3979149681426679
  0.5205945993546844  0.0295371244547303  0.3858857388277528
  0.9842886854647453  0.5515438881287572  0.3794375313738488
  0.4476968565241137  0.9104235478608096  0.3868692893947230
  0.1104574977391922  0.4848482807032024  0.3980549293125695
  0.3190824202225864  0.1158536274779016  0.5260992333707445
  0.8467100764337984  0.3757655145426979  0.5040098087549660
  0.3073216187830582  0.0815218683362570  0.4464632848977084
  0.9175109383496620  0.3489787326500656  0.4346788294984967
  0.3090006173109143  0.9263368704904789  0.4265204404707701
  0.0720938043882360  0.3779709895292178  0.4380158810625122
  0.1735584905969763  0.8730453922665150  0.5886531679041667
  0.1724844461800204  0.9559142646530655  0.3919936107454786
  0.0485753618401676  0.8122544108802320  0.6069971317707832
  0.9514295008106018  0.8122306058778749  0.3930121144852802
  0.0396894926801933  0.9110274516937974  0.3668194481173436
  0.9602889004124556  0.9109974208813957  0.6332099537155230
  0.8274923609673766  0.9558705063253110  0.6080306367648779
  0.8264297469570125  0.8730220084369307  0.4113794059844935
  0.0404178962741474  0.0260805604785802  0.6436316357249942
  0.9714620903338964  0.1351653600432709  0.6159606538512958
  0.8318795775547095  0.0850251716300911  0.5944745779547637
  0.1733549365331085  0.0088825108704570  0.6056745471240593
  0.1821328280592220  0.1279070471584543  0.5629266531599567
  0.0831170724503672  0.2128337422307465  0.5844723588890228
  0.1681100262729212  0.0851099308222579  0.4055702228068955
  0.0285457432249690  0.1352149248829068  0.3840836705045370
  0.9169000804952405  0.2127928641233352  0.4156206938648608
  0.8178728205139324  0.1278614780950717  0.4371556438981105
  0.8266963519968330  0.0088550932474761  0.3943904512378312
  0.9595818729883071  0.0261031660701174  0.3564206820266438
 
  0.00000000E+00  0.00000000E+00  0.00000000E+00
  0.00000000E+00  0.00000000E+00  0.00000000E+00
  0.00000000E+00  0.00000000E+00  0.00000000E+00
  0.00000000E+00  0.00000000E+00  0.00000000E+00
  0.00000000E+00  0.00000000E+00  0.00000000E+00
  0.00000000E+00  0.00000000E+00  0.00000000E+00
  0.00000000E+00  0.00000000E+00  0.00000000E+00
  0.00000000E+00  0.00000000E+00  0.00000000E+00
  0.00000000E+00  0.00000000E+00  0.00000000E+00
  0.00000000E+00  0.00000000E+00  0.00000000E+00
  0.00000000E+00  0.00000000E+00  0.00000000E+00
  0.00000000E+00  0.00000000E+00  0.00000000E+00
  0.00000000E+00  0.00000000E+00  0.00000000E+00
  0.00000000E+00  0.00000000E+00  0.00000000E+00
  0.00000000E+00  0.00000000E+00  0.00000000E+00
  0.00000000E+00  0.00000000E+00  0.00000000E+00
  0.00000000E+00  0.00000000E+00  0.00000000E+00
  0.00000000E+00  0.00000000E+00  0.00000000E+00
  0.00000000E+00  0.00000000E+00  0.00000000E+00
  0.00000000E+00  0.00000000E+00  0.00000000E+00
  0.00000000E+00  0.00000000E+00  0.00000000E+00
  0.00000000E+00  0.00000000E+00  0.00000000E+00
  0.00000000E+00  0.00000000E+00  0.00000000E+00
  0.00000000E+00  0.00000000E+00  0.00000000E+00
  0.00000000E+00  0.00000000E+00  0.00000000E+00
  0.00000000E+00  0.00000000E+00  0.00000000E+00
  0.00000000E+00  0.00000000E+00  0.00000000E+00
  0.00000000E+00  0.00000000E+00  0.00000000E+00
  0.00000000E+00  0.00000000E+00  0.00000000E+00
  0.00000000E+00  0.00000000E+00  0.00000000E+00
  0.00000000E+00  0.00000000E+00  0.00000000E+00
  0.00000000E+00  0.00000000E+00  0.00000000E+00
  0.00000000E+00  0.00000000E+00  0.00000000E+00
  0.00000000E+00  0.00000000E+00  0.00000000E+00
  0.00000000E+00  0.00000000E+00  0.00000000E+00
  0.00000000E+00  0.00000000E+00  0.00000000E+00
  0.00000000E+00  0.00000000E+00  0.00000000E+00
  0.00000000E+00  0.00000000E+00  0.00000000E+00
  0.00000000E+00  0.00000000E+00  0.00000000E+00
  0.00000000E+00  0.00000000E+00  0.00000000E+00
  0.00000000E+00  0.00000000E+00  0.00000000E+00
  0.00000000E+00  0.00000000E+00  0.00000000E+00
  0.00000000E+00  0.00000000E+00  0.00000000E+00
  0.00000000E+00  0.00000000E+00  0.00000000E+00
  0.00000000E+00  0.00000000E+00  0.00000000E+00
  0.00000000E+00  0.00000000E+00  0.00000000E+00
  0.00000000E+00  0.00000000E+00  0.00000000E+00
  0.00000000E+00  0.00000000E+00  0.00000000E+00
  0.00000000E+00  0.00000000E+00  0.00000000E+00
  0.00000000E+00  0.00000000E+00  0.00000000E+00
  0.00000000E+00  0.00000000E+00  0.00000000E+00
  0.00000000E+00  0.00000000E+00  0.00000000E+00
  0.00000000E+00  0.00000000E+00  0.00000000E+00
  0.00000000E+00  0.00000000E+00  0.00000000E+00
  0.00000000E+00  0.00000000E+00  0.00000000E+00
  0.00000000E+00  0.00000000E+00  0.00000000E+00
  0.00000000E+00  0.00000000E+00  0.00000000E+00
  0.00000000E+00  0.00000000E+00  0.00000000E+00
  0.00000000E+00  0.00000000E+00  0.00000000E+00
  0.00000000E+00  0.00000000E+00  0.00000000E+00
  0.00000000E+00  0.00000000E+00  0.00000000E+00
  0.00000000E+00  0.00000000E+00  0.00000000E+00
  0.00000000E+00  0.00000000E+00  0.00000000E+00
  0.00000000E+00  0.00000000E+00  0.00000000E+00
  0.00000000E+00  0.00000000E+00  0.00000000E+00
  0.00000000E+00  0.00000000E+00  0.00000000E+00
  0.00000000E+00  0.00000000E+00  0.00000000E+00
  0.00000000E+00  0.00000000E+00  0.00000000E+00
