Generated by VASPKIT code               
   1.00000000000000     
    11.5196796050017447    0.0135165752284393    0.0000000000000000
    -5.7471142851179300   10.5807050035422705    0.0000000000000000
     0.0000000000000012    0.0000000000000022   19.7144090584244509
  C             
    84
Direct
  0.2368126233414492  0.1701566717592624  0.4567817428229760
  0.2441945856737967  0.0770528278246503  0.5035468647850951
  0.1596745642283194  0.0833232888537810  0.4021230743692902
  0.1609951818002268  0.9320173493904889  0.4900106257025066
  0.1104020862583451  0.9495472525863935  0.4200798984798750
  0.0471616473380966  0.1000614652622460  0.3903854156339687
  0.9357602600572673  0.9775219991847427  0.3777218542722761
  0.9741854670354774  0.8844515736508156  0.4037237193804080
  0.0253170396255453  0.1726740970083084  0.4421422522342741
  0.1487892665792476  0.2205040035447153  0.4921396941277250
  0.1157270907094226  0.1485601760913391  0.5586747714074585
  0.8749614974786890  0.0882610336868523  0.4656653766485730
  0.8857772109112634  0.0382174650398255  0.5339402146777249
  0.9835478905587008  0.0710067847844108  0.5805380954090470
  0.8383360504259042  0.9712762758934076  0.4219507996153684
  0.0918876267512076  0.9522262235011391  0.5986314619482652
  0.1816217504063698  0.0773317680619168  0.5696424748812077
  0.9709965931930805  0.9515666655393833  0.6090951309003882
  0.8579036127936167  0.8513900790988117  0.5755845785300320
  0.7764909075463032  0.9045416336584110  0.5359566614406077
  0.7920961734095631  0.8678131859760640  0.4650087880845789
  0.0629937144341914  0.8448500380357458  0.5447043246733964
  0.9190530206571618  0.8068630724660231  0.5274988056482219
  0.8836157663310695  0.8220019122199071  0.4602091370730076
  0.5754170325148626  0.4856480369261923  0.5874470740374695
  0.4898528510026358  0.1013841617446875  0.5770784476192864
  0.8948852929736970  0.3853703714559554  0.5773142097834250
  0.6824029053596240  0.5184306833878073  0.5346127073889450
  0.4835499647204810  0.1725449091114541  0.5146935558270139
  0.8127783516204176  0.3120532524841862  0.5153571602894383
  0.4641017611255401  0.3736013247884125  0.5716915982452490
  0.6165347148744933  0.1005878324718746  0.5771931852604224
  0.9008131224360371  0.5024388205926126  0.5860849372195088
  0.4823917650269000  0.3021534402015404  0.5116642416757325
  0.7032800482450078  0.1725796495475578  0.5162334915884949
  0.8204879969785703  0.5259358682768240  0.5340202457358741
  0.6231865176767829  0.4059787506985118  0.4819695176008353
  0.5954845185508404  0.1739988787548760  0.4742953915950301
  0.7677069505885626  0.4100872308144360  0.4823981674154172
  0.3506962167973069  0.3983552245097721  0.5662936186025304
  0.5951890298533999  0.9777689844308221  0.5834020303836508
  0.0396998341906276  0.6035174676778936  0.5871375738168729
  0.2789229767091864  0.3526345126420989  0.5008405181726039
  0.6578135531182712  0.9337655548665378  0.5294258674510718
  0.0659163316802917  0.7095663423995451  0.5370885866138269
  0.3668616246453452  0.2995946056662650  0.4620598958777939
  0.7278388317613712  0.0687852909781782  0.4787010600601858
  0.9355195760883687  0.6352768138861286  0.4977426671378473
  0.3903848433553938  0.5258972966674533  0.5775289004194222
  0.4506617257440595  0.8999798554236377  0.5846672463364428
  0.1196201725241463  0.5464173357289847  0.5774325019390441
  0.3543957113963438  0.5880563515042514  0.5189381496326975
  0.4184321568247300  0.8285861600411847  0.5275568682415575
  0.2163784933129604  0.5964955197839951  0.5185785199641055
  0.2926636348724591  0.4745649101755048  0.4660813477547696
  0.5307416606856146  0.8292046389704765  0.4893045113844989
  0.1812834369704535  0.7019283275082778  0.4871429286531380
  0.5308377695969453  0.5826489268598634  0.5885625941430186
  0.3844641530593102  0.9773900772131794  0.5809429997567076
  0.0318425443979438  0.4122299001331776  0.5704172795982051
  0.5899618177918126  0.6642020182031647  0.5350210741650705
  0.2961293334711342  0.9367029106186018  0.5152067160095963
  0.0480899158542824  0.3788170842379439  0.5044838996914480
  0.4983515301976820  0.6883457248976053  0.4883928327093051
  0.3115093637922136  0.8299705593766139  0.4836543974238930
  0.1628669415427556  0.4828855651062697  0.4664631522772818
  0.6684177787218686  0.6214017959546240  0.4982662094116786
  0.3653103250039507  0.0653445548846506  0.4804242485203394
  0.9281202861612399  0.3323138361703377  0.4680029626270696
  0.6199798294763228  0.5908726944791122  0.4328573065132324
  0.4172039490136804  0.0256301189580430  0.4174849108568908
  0.9480101439760789  0.4147511240423950  0.4130454334962522
  0.5093088957126577  0.6181932710667005  0.4257820944877629
  0.3965169574182120  0.9010405162144290  0.4226755664858222
  0.0886103377848311  0.5131903991836632  0.4133084380649497
  0.3999462143163007  0.5019452404367937  0.4149666927227962
  0.5235375104338453  0.9018404266457940  0.4271946451586614
  0.0922785406723781  0.6271766183091756  0.4273033462108660
  0.4417750960464110  0.4029733327076352  0.4128431654590802
  0.6259452399075827  0.0243314431496829  0.4220802531748877
  0.9545191217754303  0.5999101725229984  0.4337577237304438
  0.5777908451937319  0.4585718905318170  0.4230199880088394
  0.5607600739629367  0.1029007255800627  0.4169851297199679
  0.8637202529493639  0.4680138252790886  0.4225289913368876
 
  0.00000000E+00  0.00000000E+00  0.00000000E+00
  0.00000000E+00  0.00000000E+00  0.00000000E+00
  0.00000000E+00  0.00000000E+00  0.00000000E+00
  0.00000000E+00  0.00000000E+00  0.00000000E+00
  0.00000000E+00  0.00000000E+00  0.00000000E+00
  0.00000000E+00  0.00000000E+00  0.00000000E+00
  0.00000000E+00  0.00000000E+00  0.00000000E+00
  0.00000000E+00  0.00000000E+00  0.00000000E+00
  0.00000000E+00  0.00000000E+00  0.00000000E+00
  0.00000000E+00  0.00000000E+00  0.00000000E+00
  0.00000000E+00  0.00000000E+00  0.00000000E+00
  0.00000000E+00  0.00000000E+00  0.00000000E+00
  0.00000000E+00  0.00000000E+00  0.00000000E+00
  0.00000000E+00  0.00000000E+00  0.00000000E+00
  0.00000000E+00  0.00000000E+00  0.00000000E+00
  0.00000000E+00  0.00000000E+00  0.00000000E+00
  0.00000000E+00  0.00000000E+00  0.00000000E+00
  0.00000000E+00  0.00000000E+00  0.00000000E+00
  0.00000000E+00  0.00000000E+00  0.00000000E+00
  0.00000000E+00  0.00000000E+00  0.00000000E+00
  0.00000000E+00  0.00000000E+00  0.00000000E+00
  0.00000000E+00  0.00000000E+00  0.00000000E+00
  0.00000000E+00  0.00000000E+00  0.00000000E+00
  0.00000000E+00  0.00000000E+00  0.00000000E+00
  0.00000000E+00  0.00000000E+00  0.00000000E+00
  0.00000000E+00  0.00000000E+00  0.00000000E+00
  0.00000000E+00  0.00000000E+00  0.00000000E+00
  0.00000000E+00  0.00000000E+00  0.00000000E+00
  0.00000000E+00  0.00000000E+00  0.00000000E+00
  0.00000000E+00  0.00000000E+00  0.00000000E+00
  0.00000000E+00  0.00000000E+00  0.00000000E+00
  0.00000000E+00  0.00000000E+00  0.00000000E+00
  0.00000000E+00  0.00000000E+00  0.00000000E+00
  0.00000000E+00  0.00000000E+00  0.00000000E+00
  0.00000000E+00  0.00000000E+00  0.00000000E+00
  0.00000000E+00  0.00000000E+00  0.00000000E+00
  0.00000000E+00  0.00000000E+00  0.00000000E+00
  0.00000000E+00  0.00000000E+00  0.00000000E+00
  0.00000000E+00  0.00000000E+00  0.00000000E+00
  0.00000000E+00  0.00000000E+00  0.00000000E+00
  0.00000000E+00  0.00000000E+00  0.00000000E+00
  0.00000000E+00  0.00000000E+00  0.00000000E+00
  0.00000000E+00  0.00000000E+00  0.00000000E+00
  0.00000000E+00  0.00000000E+00  0.00000000E+00
  0.00000000E+00  0.00000000E+00  0.00000000E+00
  0.00000000E+00  0.00000000E+00  0.00000000E+00
  0.00000000E+00  0.00000000E+00  0.00000000E+00
  0.00000000E+00  0.00000000E+00  0.00000000E+00
  0.00000000E+00  0.00000000E+00  0.00000000E+00
  0.00000000E+00  0.00000000E+00  0.00000000E+00
  0.00000000E+00  0.00000000E+00  0.00000000E+00
  0.00000000E+00  0.00000000E+00  0.00000000E+00
  0.00000000E+00  0.00000000E+00  0.00000000E+00
  0.00000000E+00  0.00000000E+00  0.00000000E+00
  0.00000000E+00  0.00000000E+00  0.00000000E+00
  0.00000000E+00  0.00000000E+00  0.00000000E+00
  0.00000000E+00  0.00000000E+00  0.00000000E+00
  0.00000000E+00  0.00000000E+00  0.00000000E+00
  0.00000000E+00  0.00000000E+00  0.00000000E+00
  0.00000000E+00  0.00000000E+00  0.00000000E+00
  0.00000000E+00  0.00000000E+00  0.00000000E+00
  0.00000000E+00  0.00000000E+00  0.00000000E+00
  0.00000000E+00  0.00000000E+00  0.00000000E+00
  0.00000000E+00  0.00000000E+00  0.00000000E+00
  0.00000000E+00  0.00000000E+00  0.00000000E+00
  0.00000000E+00  0.00000000E+00  0.00000000E+00
  0.00000000E+00  0.00000000E+00  0.00000000E+00
  0.00000000E+00  0.00000000E+00  0.00000000E+00
  0.00000000E+00  0.00000000E+00  0.00000000E+00
  0.00000000E+00  0.00000000E+00  0.00000000E+00
  0.00000000E+00  0.00000000E+00  0.00000000E+00
  0.00000000E+00  0.00000000E+00  0.00000000E+00
  0.00000000E+00  0.00000000E+00  0.00000000E+00
  0.00000000E+00  0.00000000E+00  0.00000000E+00
  0.00000000E+00  0.00000000E+00  0.00000000E+00
  0.00000000E+00  0.00000000E+00  0.00000000E+00
  0.00000000E+00  0.00000000E+00  0.00000000E+00
  0.00000000E+00  0.00000000E+00  0.00000000E+00
  0.00000000E+00  0.00000000E+00  0.00000000E+00
  0.00000000E+00  0.00000000E+00  0.00000000E+00
  0.00000000E+00  0.00000000E+00  0.00000000E+00
  0.00000000E+00  0.00000000E+00  0.00000000E+00
  0.00000000E+00  0.00000000E+00  0.00000000E+00
  0.00000000E+00  0.00000000E+00  0.00000000E+00
