C 
 1.0000000000000000
     9.2447137605831422    0.0000000000000000    0.0000000000000000
    -4.6223568802915782    8.0061569673805728    0.0000000000000000
     0.0000000000000000    0.0000000000000000   16.0000000000000000
 C  
  68
Direct
  0.6092960345097564  0.5430084181454712  0.5493199696924628
  0.7868717750876837  0.6187150933043788  0.5409343748203941
  0.5287262974116479  0.4875030891985009  0.4698729032787009
  0.8165945150997840  0.5789555852873529  0.4549876842277719
  0.6590517772103797  0.4986835786906961  0.4116286089542960
  0.4038329970101595  0.3144065595808614  0.4731757706130427
  0.4308113306150263  0.2222987378269153  0.4089730105093063
  0.5990765438962201  0.3367722512403111  0.3743542684882719
  0.4294607697402372  0.2504055630600492  0.5535967324993724
  0.5551273348300576  0.3902533572774916  0.6001597059945769
  0.7025024441389961  0.3895993433604492  0.6288044489128457
  0.4510530536760095  0.1097366266242837  0.5356579824251855
  0.5983390718103768  0.1090459600176779  0.5643081998331690
  0.7240467565226597  0.2489199369971457  0.6108631790706058
  0.4389545018837413  0.0837923886956329  0.4437159449879450
  0.9462585800907191  0.4851055679770028  0.5509727354179276
  0.8507059487455430  0.5422464124359594  0.5962788007318004
  0.8857963931287131  0.3115789142407444  0.5668277380880655
  0.8483173821733322  0.2198695182046855  0.4901421488293150
  0.6802206381739131  0.0829384410981460  0.4907175721692598
  0.5901366436869604  0.0885559986346879  0.4190411037930077
  0.9141186486623142  0.4972653164431065  0.4611346874471019
  0.8541253725880673  0.3352796012116240  0.4239492226941004
  0.6965831893076978  0.2550557404468243  0.3805579053706509
 -0.1348384720551435 -0.0570902756017143  0.6543339555868587
 -0.1867254668933100 -0.2113285309037344  0.6112781155545626
  0.0424090509358373  0.0320648329414182  0.6665071302820638
 -0.0313557277927810 -0.2028989452620306  0.5803170578788998
  0.1085165585239303 -0.0542670544384363  0.6139195846586897
  0.1143702083816717  0.1980446417558310  0.6338670085101310
  0.2452216580327519  0.2309350022201883  0.5756746245321374
  0.2325566257112625  0.0672882725649059  0.5585613937190888
 -0.0192080049834721  0.2026581847307057  0.5845503410906606
 -0.1716223044091539  0.0465981522979479  0.5970840716433055
 -0.2617515626293658 -0.0549809359926480  0.5263480664173517
  0.0431875845065207  0.2572990702091553  0.5012481343229424
 -0.0469182409076966  0.1557965914176407  0.4305343727752325
 -0.1993360035040155 -0.0003026274435899  0.4430629578940539
  0.2168266294080020  0.2878147619330872  0.4974326984985022
 -0.2127015688305965 -0.2554556153177282  0.4658190968689174
 -0.2826213184984904 -0.2236350494999880  0.5386248512753766
 -0.1801584983566005 -0.1338196091655478  0.4021766580412137
 -0.0099972361257383 -0.0565602873044911  0.3749790818276156
  0.0690295585752596  0.1214055755776549  0.3817407081205806
  0.2192432838023674  0.1869094856507656  0.4301730225339861
 -0.0472741646973631 -0.2299289063766598  0.4913470601332411
  0.0766315818481390 -0.1083356611343773  0.4359541816048936
  0.2165487475539080  0.0402763870527086  0.4695832307682211
  0.1035316709979510  0.6214325086133763  0.6156619926505486
  0.1090680836918269  0.4741163298533014  0.5888307115220336
  0.1108924085428667  0.7138895823627799  0.5421601032354862
  0.1209863038837048  0.6232101451965933  0.4702965166716060
  0.1128889851291301  0.4682523589499775  0.4975279820241048
  0.2592272973090689  0.8802075003863236  0.5460045366809011
  0.3645655351057140  0.8826229500404258  0.4771920754600430
  0.2782941141618918  0.7278566201788579  0.4299991913471593
  0.3464464817242719  0.8771723305426183  0.6212104358080590
  0.5106676297754230  0.9006041956583800  0.6016985914626110
  0.5144846862939095  0.8947835703850431  0.5104046884346906
  0.2468367802701268  0.7251331221732321  0.6692646722629090
  0.3452707647616923  0.6410455526796777  0.6692359822858348
  0.5025991111746397  0.7456742521089829  0.6289445691628753
  0.2589848483922184  0.4862981061154913  0.6220580316091824
  0.3643239055432259  0.4887045723796080  0.5532523867402588
  0.5126707909951227  0.6550099362551206  0.5570755537967533
  0.5200246232437220  0.7474737953288256  0.4835707179172392
  0.3767088475251392  0.6437466996710450  0.4299635456542737
  0.2771203449488415  0.4916966857912256  0.4780269336250590
