C 
 1.0000000000000000
    10.2285867997005084    0.0000000000000000    0.0000000000000000
    -5.1142933998502613    8.8582160133548129    0.0000000000000000
     0.0000000000000000    0.0000000000000000   16.0000000000000000
 C  
  84
Direct
  0.0112143566043784  0.0437602045429700  0.6469173149559785
 -0.1144096552828502  0.0536386955512200  0.6148835782146872
 -0.0109084248327117 -0.1047610214450371  0.6349884490995589
 -0.2055282847301872 -0.0862902153185486  0.5656946334598892
 -0.1422891189705141 -0.1829143285896927  0.5778590753871934
  0.1144819222983664 -0.0981317109106147  0.5913995865712234
  0.0646284623044662 -0.1922269064639197  0.5185313086655042
 -0.0961682432664825 -0.2365199582697322  0.5068231460767736
  0.2056397543291835  0.0590308109916195  0.5603149402828065
  0.1424599123174107  0.1457956512819211  0.5942853038680257
  0.0960773088340410  0.2265895175274091  0.5392828136638977
  0.2225312928361100  0.0530251866160681  0.4712940101868078
  0.1762125863759626  0.1338161367237099  0.4163085465620659
  0.1129945253825849  0.2205712481144148  0.4502751507281019
  0.1422648376132547 -0.1081237951594089  0.4455610038730001
 -0.1421919166782637  0.1241246405060346  0.4788513972063317
 -0.0648276695417502  0.1761241343293263  0.5569957326509948
 -0.0370019471564334  0.1661493029264193  0.4111420975423545
 -0.0665592508395130  0.0367807956041713  0.3623999113298255
  0.0663719341575354  0.0243004654736751  0.3556550040008498
  0.0369529209798791 -0.1216807120219752  0.3824563991580937
 -0.2225428314376308 -0.0431627140376723  0.4824950646286922
 -0.1762960180310454 -0.0966035519676578  0.4114415800029662
 -0.1131064532657896 -0.1932918760047007  0.4236264114652472
  0.4797427137211082  0.4914300301062194  0.6108433213134816
  0.4826464241937746  0.3663726343856365  0.5695621476630655
  0.3587651388521776  0.5053330077906716  0.5747950587234426
  0.2875831815867804  0.3887956999478354  0.5114059280461696
  0.3590169220313315  0.2955981757233092  0.5092102456056791
  0.4197845308158915  0.6546288758267769  0.5367020752151120
  0.3920157062477864  0.6245000645813074  0.4471902437156997
  0.3081865939272655  0.4626950204792507  0.4322714083151631
  0.5827742938462377  0.7233739002972993  0.5455218278109281
  0.6572273426740073  0.7552139580738971  0.4644552771505567
  0.5335968367815896  0.6844765864038300  0.4041170854609828
  0.6226358430812861  0.6312861908861791  0.5971703341938596
  0.7080637152004464  0.5881578338464888  0.5414026957193967
  0.7286932789679311  0.6620523463327639  0.4622602534634039
  0.6242412636968581  0.4263748232469422  0.5265024887351930
  0.5964847442203133  0.3962446954266554  0.4369932792646978
  0.6574854083462323  0.5455179877705371  0.3988796957189321
  0.5364974987832498  0.5594224596221382  0.3628336102339954
  0.3935977146873894  0.4195419808426346  0.3765045122655406
  0.4334886365203152  0.3274569956388336  0.4281478898533875
  0.4642006648060995  0.0045299063829520  0.6015396045474952
  0.6063487735978766  0.1445367872997290  0.5909499517582708
  0.4796328412196930 -0.1136770137813332  0.5628892785629820
  0.6312481641651956 -0.0460519669176136  0.5285993060344791
  0.7156561360779525  0.1151205292423657  0.5484147819996097
  0.3680863854942065 -0.1823412934595853  0.4959772579663785
  0.4577125188777427 -0.1448494709270087  0.4193452060256613
  0.6176569568825078 -0.0653980337824039  0.4395802363865454
  0.2948878382095549 -0.0915782517522962  0.4920644069437662
  0.3194339942963825 -0.0165160869580292  0.4115236086972329
  0.4286981981556754 -0.0459745929156350  0.3689929336895691
  0.3422218431192628  0.0158843388050606  0.5608135172485700
  0.4173900282562806  0.1639657188507525  0.5203572409124437
  0.4038079085924976  0.1446532268920262  0.4313323968056272
  0.5773014316759151  0.2433950158982343  0.5406047677363770
  0.6669266231967768  0.2808991852631771  0.4639756600602063
  0.5554153841057958  0.2122464664897312  0.3970492133475767
  0.5708449932855870  0.0940270508930372  0.3584003770458601
  0.6928475802821488  0.0826903537539775  0.3991297622816971
  0.7401818058854051  0.1901813100614298  0.4678740837839115
  0.9682860134352441  0.4664491340153512  0.6484124946307323
  0.8597674295479385  0.4932179722437067  0.6042002838383557
  1.1145198223401531  0.5976006346461051  0.6376354185167401
  1.0955718398422520  0.7047032149674842  0.5867929777326947
  0.9356636090127020  0.6447352463294189  0.5678246394055797
  1.2141689337633836  0.5546168065743506  0.5952665813244264
  1.2464984001230059  0.6316230715608375  0.5144992260059083
  1.1774330751269413  0.7258182059489552  0.5104328271767503
  1.1173603419867284  0.3954743075787589  0.5752000555581903
  1.1061734719771310  0.3700715250976129  0.4852889579770125
  1.1821014112902146  0.5215801761759463  0.4489278453928093
  0.9689299574851846  0.3346946012756878  0.6133586219090738
  0.8644343330410179  0.2889760903362271  0.5426892282413678
  0.9462682283703532  0.3100715623137421  0.4663164282690033
  0.7953767260794409  0.3831535644753138  0.5386400359540845
  0.8276918134994595  0.4601470652882148  0.4578727889452728
  0.9273452969211365  0.4171931765258696  0.4154871424012695
  1.0735898814000309  0.5483529422267616  0.4047141454310078
  1.0729296544758549  0.6801160497333042  0.4397664291403827
  0.9244750102210412  0.6193119019565851  0.4779146568186826
