Generated by VASPKIT code               
   1.00000000000000     
    17.8549149041291919   -0.2226976737199483    0.0000000000000000
    -9.1245127371299688   15.5013906019620169    0.0000000000000000
     0.0000000000000012    0.0000000000000021   19.7192294054757866
  C             
   188
Direct
  0.6851080719956580  0.2359065335812628  0.5828386572357043
  0.2984400098141070  0.6993844274544120  0.6421092021617241
  0.7192433337745401  0.3238520675917982  0.5994518541775217
  0.2649750013273327  0.6087959461092225  0.6334736465829055
  0.5947628685516207  0.2052389883259481  0.5698673482516583
  0.3944526000283108  0.7511128874189598  0.6345582152322237
  0.6497577597480396  0.3470845618691898  0.5939930236565287
  0.3396117829226413  0.6107396715599154  0.5986164397921268
  0.5718117284176218  0.2724765323462370  0.5763943532143617
  0.4177457170224320  0.6943076198238519  0.5994752169256788
  0.5756274804588681  0.1745578814043472  0.5056657568278335
  0.4137783782013820  0.8184494017580793  0.5900730977011142
  0.5135238342861990  0.1917526884837805  0.4705984481617568
  0.4627422565137922  0.8168083822498541  0.5333272257285401
  0.5132405520838694  0.2688207059085130  0.5196261049271420
  0.4611892606066758  0.7350041725993470  0.5356734318234186
  0.6499537140419693  0.1848986792866219  0.4636330754230503
  0.3304380219049795  0.8139203779311099  0.5668454291766005
  0.7269748782583197  0.2235002263263634  0.5179912229932596
  0.2593739349088544  0.7311921406182524  0.5989421210985844
  0.8050494521348124  0.3235888665637623  0.5051845955518409
  0.1813796634273435  0.6588588844883706  0.5605796831664926
  0.6480180653649448  0.2389777109258668  0.4077899603176959
  0.3310497640982930  0.8084718748865591  0.4850727240026486
  0.7171292351308687  0.3252658374836800  0.3984286512885328
  0.2745939881589942  0.7274146174261344  0.4496301045729866
  0.7881458153266319  0.3678692792469190  0.4437167837101305
  0.1901906908935380  0.6631074856916052  0.4783879169091065
  0.5669563741406058  0.2378335061669060  0.4093551032655025
  0.4209438642568107  0.8192186436705082  0.4718529252568564
  0.7831707995361676  0.4569152496638877  0.5376549449028719
  0.2371242666815604  0.5772713439458355  0.5246711305274837
  0.7928760543839516  0.3805748761390871  0.5615462520854011
  0.1879490971137913  0.5790624602502361  0.5831517563318624
  0.7959285827169177  0.4552014934579487  0.4608784208376751
  0.1960500430048178  0.5782297235685659  0.4605910182865455
  0.7095893482799713  0.4415105505243893  0.4346064524840670
  0.2825144746490275  0.6083944867459635  0.4190688298222951
  0.6729956567497557  0.3762165118516568  0.3864402129124380
  0.3187597666402984  0.6992927187094190  0.4095049855939825
  0.5813847882998681  0.3205183814676518  0.3993353199316285
  0.4111303464149507  0.7526703047426921  0.4288774057946945
  0.6851817085255157  0.4202902445749978  0.5480891991401136
  0.3115733963368494  0.5766679978507731  0.5298813266998000
  0.6448352315308996  0.4201606824640716  0.4872803063806275
  0.3512351384281949  0.6106652417097957  0.4634698478966638
  0.5531798944876837  0.3473042576268490  0.4634518777204244
  0.4279383607509983  0.6952388996390612  0.4690875680217788
  0.9537878603325695  0.0315321152711672  0.5671811171510488
  0.1136946368211109  0.6840441333019339  0.4746784509118522
  0.3142466978601258  0.4054286535451289  0.4680161792152629
  0.5958895973779620  0.8927609195163796  0.4300818848621729
  0.9579270282254274  0.2371138947721509  0.4883222620117009
  0.7970037056293842  0.7005308923799801  0.4605975951004246
  0.2927387287019660  0.0952655783669944  0.4562157962744197
  0.9904914942664286  0.9902006706302222  0.6047314673872746
  0.0319796461720550  0.6252614149282616  0.4359022601603222
  0.3802732754149900  0.4075486013160975  0.4285055061484768
  0.5828105601976314  0.9607096992158910  0.4038592960266824
  0.9266030968780615  0.2885433338815669  0.4579132941992567
  0.7120409262906925  0.6060435880025632  0.4611134190014211
  0.3578647311164210  0.0793083947433881  0.4251827294366374
  0.8873025313024403  0.9676931708062996  0.5273292393582919
  0.0940264392569872  0.6570595478697767  0.5522104263422647
  0.3366595760710291  0.4138867653764098  0.5392545005219573
  0.6090649178675990  0.9063321780973278  0.5026514529178152
  0.9503490717698777  0.2372597531680055  0.5610084312600915
  0.7847339772841246  0.7260983263414174  0.5313563978804930
  0.3215663488364861  0.1141500827808440  0.5352787631152133
  0.8623749083875126  0.8832042146696465  0.5537024700872122
  0.0015949563312088  0.5745467692658697  0.5448552384345612
  0.4200456528298673  0.4147844172990808  0.5416926571554752
  0.6078810410789641  0.9863098012107187  0.5184352818945412
  0.9146680588795904  0.2911518823988114  0.5773138192057176
  0.7330154511111862  0.6597559798234746  0.5749913183553271
  0.3983284309482821  0.1059760405835806  0.5410505800437748
  0.9430082937960516  0.8998312147833868  0.5873554256795163
  0.9712598956198371  0.5568972204825645  0.4737617777084965
  0.4623323322071598  0.4298344470824203  0.4713899546693288
  0.5839783455082018  0.0144878262605324  0.4576174738912227
  0.8920723176854403  0.3255027382539746  0.5118581418688971
  0.6875833634170276  0.5825856675915251  0.5326363886234663
  0.4332310076347616  0.1030296411987491  0.4729029182386300
  0.8975888300647993  0.0003057151881978  0.4532794114971166
  0.0756066345561092  0.7208035885778125  0.5873349401017630
  0.2704020167046956  0.3413323171487566  0.5740067159198046
  0.6932726411823812  0.9201182078749401  0.5186864666650520
  0.0352747428917811  0.2680731949148509  0.5903382135526017
  0.7751245587147887  0.8041796646524780  0.5372088467669306
  0.2559040926755624  0.0384976670973051  0.5762074866885508
  0.9127309450841141  0.9418092648518963  0.4075294193933487
  0.9881248300628097  0.6751975125642576  0.6032226122519541
  0.3138908734859371  0.2964327436681167  0.5951216271866422
  0.7403491572160313  0.0090157650740293  0.5402308201189723
  0.0556404820321907  0.3482695227869099  0.6213935847074088
  0.6854426559782869  0.7547103581503469  0.5771519066185227
  0.2973443485961817  0.9976362951142790  0.6057937073855097
  0.8882237812100975  0.8509997212632586  0.4143699395153927
  0.9418897757481061  0.5829771946370750  0.5819483477013863
  0.4085750055371311  0.3432624094964409  0.5763423027831930
  0.6870470737480501  0.0496700964821791  0.5473554758120899
  0.9827340035120430  0.3623616433940349  0.6135410091056140
  0.6694467716352739  0.6745658902163302  0.6085347837671637
  0.3894888182342962  0.0432969017657412  0.5858415406226505
  0.9941280088718643  0.0851500131390620  0.4580370738214292
  0.0954238442980386  0.7982351906746222  0.5438251155149226
  0.1876758433089012  0.2792352707303969  0.5283080273727704
  0.7362450299892213  0.9037137534717500  0.4540539752695663
  0.1051158311937147  0.2866574968746688  0.5332860112115906
  0.7421484857204238  0.8135484933521969  0.4619911126412500
  0.1764498509745249  0.9711754042437478  0.5384580230497047
  0.0495246607247205  0.0755771426959393  0.4122602170043583
  0.0066269345928157  0.8002161649878733  0.5396154291177205
  0.1877862906437265  0.1898767338864890  0.5280160362323211
  0.8168478083713769  0.0021470654488187  0.4401772865013971
  0.1492717258489998  0.3855695143610350  0.5309983124204050
  0.6441283799827497  0.7479796884568830  0.4643655200492679
  0.1819894453371500  0.8865778017631323  0.5437708909920006
  0.9987227181500882  0.9873884553172074  0.3896545442940804
  0.9435350047053388  0.7134041173963412  0.5722644213444263
  0.2725267654286485  0.2170859853855734  0.5648505262767467
  0.8072667656725001  0.0573195832099874  0.4937457283238531
  0.1274023140591925  0.4182089429912776  0.5859686687173110
  0.6144970612720488  0.7321500598361507  0.5331994087390863
  0.2579734523637529  0.9100129704461810  0.5899798817668683
  0.0219687519516793  0.0984501577853533  0.5269400095847420
  0.1188325043026312  0.7755610046326611  0.4698067131577412
  0.2316726695855092  0.3209518887042139  0.4608316987492751
  0.6705436857905132  0.8988154979320037  0.4000880625487935
  0.0457210269053047  0.2661848219221600  0.4693790095484197
  0.8033359934360425  0.7835161288515642  0.4262899727482393
  0.2020564668525347  0.0049237742517216  0.4548821547989715
  0.1053649347786205  0.1133509947162038  0.5513724165230712
  0.0384464664947795  0.7567254772196604  0.4292306455546232
  0.2440083214567336  0.2689939026160983  0.4180663112653552
  0.7071494255969750  0.9717642526819077  0.3543434547313837
  0.0729979792314584  0.3433626424033576  0.4306213777705118
  0.6430447209103990  0.6461236123423304  0.3841245825863523
  0.2279761925629153  0.9422264812459900  0.4282957946546992
  0.1383543684619664  0.0940680765345861  0.4206110203933351
  0.9759002594866204  0.7820845922558296  0.4588149053808500
  0.2139931967805652  0.1796021881282478  0.4470022444634896
  0.7910306744551292  0.0343565340399660  0.3774300497746573
  0.1381379696304769  0.4155977670462104  0.4686568529341304
  0.5941823444575718  0.6698170243710917  0.4265069020982982
  0.2084924737780338  0.8647441159877296  0.4710282290626385
  0.0799997072962784  0.0325314351500279  0.5843162610779278
  0.9909909271953476  0.6708696384385270  0.4093863902457555
  0.3382618886836365  0.3194283947886012  0.4010595613695212
  0.6506363885200701  0.0099360848547925  0.3549646126782873
  0.9998451720583222  0.3567614296192992  0.4234387333674951
  0.6352492823178556  0.5758511628879793  0.4230018832189431
  0.3172227790744490  0.9898953451728459  0.4122935113420981
  0.0933687991744665  0.9597948821559037  0.5650666650635977
  0.8986394727072183  0.6258298854555613  0.4226498851189125
  0.3791715597983921  0.2752896079411179  0.4186106770152082
  0.7000512136673315  0.0959904897368363  0.3799616845828358
  0.0240759994895444  0.4380451996174734  0.4563119110253661
  0.5493059778537687  0.5243439626242095  0.4741340750425199
  0.3638252791632117  0.9546306404929128  0.4435730839950205
  0.1310767827993775  0.0114514362536029  0.4225023210218250
  0.8807593088619674  0.6900221258897233  0.4619597940395087
  0.3053038658951088  0.1872892131729591  0.4518975236549496
  0.7841742513670782  0.1098439010974756  0.3957507320464326
  0.1192082058076791  0.4878607901991280  0.4767050055790981
  0.5365016816202327  0.6024439379902176  0.4764035193156127
  0.3019127054948847  0.8750160030670314  0.4806269751597094
  0.0421200301082287  0.9400856135135122  0.4042154063533777
  0.8770747231820281  0.6522426563946847  0.5330095783980431
  0.3359717186770887  0.2038922185392639  0.5281697029051006
  0.7976766436761776  0.1244725902205621  0.4666515073224342
  0.1117993337718312  0.4895674848225717  0.5652142616638189
  0.5472307144408036  0.6394684302028704  0.5401739709263124
  0.3257500387312444  0.8951688966861938  0.5584002052568471
  0.9735195117473149  0.8541973182905522  0.4214663884256959
  0.8618467176623468  0.5597777177444579  0.5399458387988330
  0.4305090934852557  0.2851995945467846  0.5321690466374636
  0.7282019629925590  0.1337037004303625  0.5036197529439703
  0.0137446399788038  0.4422223722086661  0.5754209020155591
  0.5865957042179638  0.6038242407865679  0.5845323497105054
  0.4089113754751120  0.9854840891871820  0.5529174004057882
  0.0141531823842768  0.8814023604211383  0.5677504708282277
  0.8812064668853542  0.5456676980982949  0.4635695346905309
  0.4618950477762390  0.3400874422569928  0.4638241621050508
  0.6566507676314558  0.1067972236531132  0.4442817132820123
  0.9698177147813484  0.4181620880678941  0.5128905268654824
  0.5977995344485866  0.5439697775346296  0.5428706778332838
  0.4332911863730792  0.0162488611836810  0.4827214977922317
 
  0.00000000E+00  0.00000000E+00  0.00000000E+00
  0.00000000E+00  0.00000000E+00  0.00000000E+00
  0.00000000E+00  0.00000000E+00  0.00000000E+00
  0.00000000E+00  0.00000000E+00  0.00000000E+00
  0.00000000E+00  0.00000000E+00  0.00000000E+00
  0.00000000E+00  0.00000000E+00  0.00000000E+00
  0.00000000E+00  0.00000000E+00  0.00000000E+00
  0.00000000E+00  0.00000000E+00  0.00000000E+00
  0.00000000E+00  0.00000000E+00  0.00000000E+00
  0.00000000E+00  0.00000000E+00  0.00000000E+00
  0.00000000E+00  0.00000000E+00  0.00000000E+00
  0.00000000E+00  0.00000000E+00  0.00000000E+00
  0.00000000E+00  0.00000000E+00  0.00000000E+00
  0.00000000E+00  0.00000000E+00  0.00000000E+00
  0.00000000E+00  0.00000000E+00  0.00000000E+00
  0.00000000E+00  0.00000000E+00  0.00000000E+00
  0.00000000E+00  0.00000000E+00  0.00000000E+00
  0.00000000E+00  0.00000000E+00  0.00000000E+00
  0.00000000E+00  0.00000000E+00  0.00000000E+00
  0.00000000E+00  0.00000000E+00  0.00000000E+00
  0.00000000E+00  0.00000000E+00  0.00000000E+00
  0.00000000E+00  0.00000000E+00  0.00000000E+00
  0.00000000E+00  0.00000000E+00  0.00000000E+00
  0.00000000E+00  0.00000000E+00  0.00000000E+00
  0.00000000E+00  0.00000000E+00  0.00000000E+00
  0.00000000E+00  0.00000000E+00  0.00000000E+00
  0.00000000E+00  0.00000000E+00  0.00000000E+00
  0.00000000E+00  0.00000000E+00  0.00000000E+00
  0.00000000E+00  0.00000000E+00  0.00000000E+00
  0.00000000E+00  0.00000000E+00  0.00000000E+00
  0.00000000E+00  0.00000000E+00  0.00000000E+00
  0.00000000E+00  0.00000000E+00  0.00000000E+00
  0.00000000E+00  0.00000000E+00  0.00000000E+00
  0.00000000E+00  0.00000000E+00  0.00000000E+00
  0.00000000E+00  0.00000000E+00  0.00000000E+00
  0.00000000E+00  0.00000000E+00  0.00000000E+00
  0.00000000E+00  0.00000000E+00  0.00000000E+00
  0.00000000E+00  0.00000000E+00  0.00000000E+00
  0.00000000E+00  0.00000000E+00  0.00000000E+00
  0.00000000E+00  0.00000000E+00  0.00000000E+00
  0.00000000E+00  0.00000000E+00  0.00000000E+00
  0.00000000E+00  0.00000000E+00  0.00000000E+00
  0.00000000E+00  0.00000000E+00  0.00000000E+00
  0.00000000E+00  0.00000000E+00  0.00000000E+00
  0.00000000E+00  0.00000000E+00  0.00000000E+00
  0.00000000E+00  0.00000000E+00  0.00000000E+00
  0.00000000E+00  0.00000000E+00  0.00000000E+00
  0.00000000E+00  0.00000000E+00  0.00000000E+00
  0.00000000E+00  0.00000000E+00  0.00000000E+00
  0.00000000E+00  0.00000000E+00  0.00000000E+00
  0.00000000E+00  0.00000000E+00  0.00000000E+00
  0.00000000E+00  0.00000000E+00  0.00000000E+00
  0.00000000E+00  0.00000000E+00  0.00000000E+00
  0.00000000E+00  0.00000000E+00  0.00000000E+00
  0.00000000E+00  0.00000000E+00  0.00000000E+00
  0.00000000E+00  0.00000000E+00  0.00000000E+00
  0.00000000E+00  0.00000000E+00  0.00000000E+00
  0.00000000E+00  0.00000000E+00  0.00000000E+00
  0.00000000E+00  0.00000000E+00  0.00000000E+00
  0.00000000E+00  0.00000000E+00  0.00000000E+00
  0.00000000E+00  0.00000000E+00  0.00000000E+00
  0.00000000E+00  0.00000000E+00  0.00000000E+00
  0.00000000E+00  0.00000000E+00  0.00000000E+00
  0.00000000E+00  0.00000000E+00  0.00000000E+00
  0.00000000E+00  0.00000000E+00  0.00000000E+00
  0.00000000E+00  0.00000000E+00  0.00000000E+00
  0.00000000E+00  0.00000000E+00  0.00000000E+00
  0.00000000E+00  0.00000000E+00  0.00000000E+00
  0.00000000E+00  0.00000000E+00  0.00000000E+00
  0.00000000E+00  0.00000000E+00  0.00000000E+00
  0.00000000E+00  0.00000000E+00  0.00000000E+00
  0.00000000E+00  0.00000000E+00  0.00000000E+00
  0.00000000E+00  0.00000000E+00  0.00000000E+00
  0.00000000E+00  0.00000000E+00  0.00000000E+00
  0.00000000E+00  0.00000000E+00  0.00000000E+00
  0.00000000E+00  0.00000000E+00  0.00000000E+00
  0.00000000E+00  0.00000000E+00  0.00000000E+00
  0.00000000E+00  0.00000000E+00  0.00000000E+00
  0.00000000E+00  0.00000000E+00  0.00000000E+00
  0.00000000E+00  0.00000000E+00  0.00000000E+00
  0.00000000E+00  0.00000000E+00  0.00000000E+00
  0.00000000E+00  0.00000000E+00  0.00000000E+00
  0.00000000E+00  0.00000000E+00  0.00000000E+00
  0.00000000E+00  0.00000000E+00  0.00000000E+00
  0.00000000E+00  0.00000000E+00  0.00000000E+00
  0.00000000E+00  0.00000000E+00  0.00000000E+00
  0.00000000E+00  0.00000000E+00  0.00000000E+00
  0.00000000E+00  0.00000000E+00  0.00000000E+00
  0.00000000E+00  0.00000000E+00  0.00000000E+00
  0.00000000E+00  0.00000000E+00  0.00000000E+00
  0.00000000E+00  0.00000000E+00  0.00000000E+00
  0.00000000E+00  0.00000000E+00  0.00000000E+00
  0.00000000E+00  0.00000000E+00  0.00000000E+00
  0.00000000E+00  0.00000000E+00  0.00000000E+00
  0.00000000E+00  0.00000000E+00  0.00000000E+00
  0.00000000E+00  0.00000000E+00  0.00000000E+00
  0.00000000E+00  0.00000000E+00  0.00000000E+00
  0.00000000E+00  0.00000000E+00  0.00000000E+00
  0.00000000E+00  0.00000000E+00  0.00000000E+00
  0.00000000E+00  0.00000000E+00  0.00000000E+00
  0.00000000E+00  0.00000000E+00  0.00000000E+00
  0.00000000E+00  0.00000000E+00  0.00000000E+00
  0.00000000E+00  0.00000000E+00  0.00000000E+00
  0.00000000E+00  0.00000000E+00  0.00000000E+00
  0.00000000E+00  0.00000000E+00  0.00000000E+00
  0.00000000E+00  0.00000000E+00  0.00000000E+00
  0.00000000E+00  0.00000000E+00  0.00000000E+00
  0.00000000E+00  0.00000000E+00  0.00000000E+00
  0.00000000E+00  0.00000000E+00  0.00000000E+00
  0.00000000E+00  0.00000000E+00  0.00000000E+00
  0.00000000E+00  0.00000000E+00  0.00000000E+00
  0.00000000E+00  0.00000000E+00  0.00000000E+00
  0.00000000E+00  0.00000000E+00  0.00000000E+00
  0.00000000E+00  0.00000000E+00  0.00000000E+00
  0.00000000E+00  0.00000000E+00  0.00000000E+00
  0.00000000E+00  0.00000000E+00  0.00000000E+00
  0.00000000E+00  0.00000000E+00  0.00000000E+00
  0.00000000E+00  0.00000000E+00  0.00000000E+00
  0.00000000E+00  0.00000000E+00  0.00000000E+00
  0.00000000E+00  0.00000000E+00  0.00000000E+00
  0.00000000E+00  0.00000000E+00  0.00000000E+00
  0.00000000E+00  0.00000000E+00  0.00000000E+00
  0.00000000E+00  0.00000000E+00  0.00000000E+00
  0.00000000E+00  0.00000000E+00  0.00000000E+00
  0.00000000E+00  0.00000000E+00  0.00000000E+00
  0.00000000E+00  0.00000000E+00  0.00000000E+00
  0.00000000E+00  0.00000000E+00  0.00000000E+00
  0.00000000E+00  0.00000000E+00  0.00000000E+00
  0.00000000E+00  0.00000000E+00  0.00000000E+00
  0.00000000E+00  0.00000000E+00  0.00000000E+00
  0.00000000E+00  0.00000000E+00  0.00000000E+00
  0.00000000E+00  0.00000000E+00  0.00000000E+00
  0.00000000E+00  0.00000000E+00  0.00000000E+00
  0.00000000E+00  0.00000000E+00  0.00000000E+00
  0.00000000E+00  0.00000000E+00  0.00000000E+00
  0.00000000E+00  0.00000000E+00  0.00000000E+00
  0.00000000E+00  0.00000000E+00  0.00000000E+00
  0.00000000E+00  0.00000000E+00  0.00000000E+00
  0.00000000E+00  0.00000000E+00  0.00000000E+00
  0.00000000E+00  0.00000000E+00  0.00000000E+00
  0.00000000E+00  0.00000000E+00  0.00000000E+00
  0.00000000E+00  0.00000000E+00  0.00000000E+00
  0.00000000E+00  0.00000000E+00  0.00000000E+00
  0.00000000E+00  0.00000000E+00  0.00000000E+00
  0.00000000E+00  0.00000000E+00  0.00000000E+00
  0.00000000E+00  0.00000000E+00  0.00000000E+00
  0.00000000E+00  0.00000000E+00  0.00000000E+00
  0.00000000E+00  0.00000000E+00  0.00000000E+00
  0.00000000E+00  0.00000000E+00  0.00000000E+00
  0.00000000E+00  0.00000000E+00  0.00000000E+00
  0.00000000E+00  0.00000000E+00  0.00000000E+00
  0.00000000E+00  0.00000000E+00  0.00000000E+00
  0.00000000E+00  0.00000000E+00  0.00000000E+00
  0.00000000E+00  0.00000000E+00  0.00000000E+00
  0.00000000E+00  0.00000000E+00  0.00000000E+00
  0.00000000E+00  0.00000000E+00  0.00000000E+00
  0.00000000E+00  0.00000000E+00  0.00000000E+00
  0.00000000E+00  0.00000000E+00  0.00000000E+00
  0.00000000E+00  0.00000000E+00  0.00000000E+00
  0.00000000E+00  0.00000000E+00  0.00000000E+00
  0.00000000E+00  0.00000000E+00  0.00000000E+00
  0.00000000E+00  0.00000000E+00  0.00000000E+00
  0.00000000E+00  0.00000000E+00  0.00000000E+00
  0.00000000E+00  0.00000000E+00  0.00000000E+00
  0.00000000E+00  0.00000000E+00  0.00000000E+00
  0.00000000E+00  0.00000000E+00  0.00000000E+00
  0.00000000E+00  0.00000000E+00  0.00000000E+00
  0.00000000E+00  0.00000000E+00  0.00000000E+00
  0.00000000E+00  0.00000000E+00  0.00000000E+00
  0.00000000E+00  0.00000000E+00  0.00000000E+00
  0.00000000E+00  0.00000000E+00  0.00000000E+00
  0.00000000E+00  0.00000000E+00  0.00000000E+00
  0.00000000E+00  0.00000000E+00  0.00000000E+00
  0.00000000E+00  0.00000000E+00  0.00000000E+00
  0.00000000E+00  0.00000000E+00  0.00000000E+00
  0.00000000E+00  0.00000000E+00  0.00000000E+00
  0.00000000E+00  0.00000000E+00  0.00000000E+00
  0.00000000E+00  0.00000000E+00  0.00000000E+00
  0.00000000E+00  0.00000000E+00  0.00000000E+00
  0.00000000E+00  0.00000000E+00  0.00000000E+00
  0.00000000E+00  0.00000000E+00  0.00000000E+00
  0.00000000E+00  0.00000000E+00  0.00000000E+00
  0.00000000E+00  0.00000000E+00  0.00000000E+00
  0.00000000E+00  0.00000000E+00  0.00000000E+00
  0.00000000E+00  0.00000000E+00  0.00000000E+00
  0.00000000E+00  0.00000000E+00  0.00000000E+00
  0.00000000E+00  0.00000000E+00  0.00000000E+00
  0.00000000E+00  0.00000000E+00  0.00000000E+00
