C 
 1.0000000000000000
    10.2254404485277384    0.0000000000000000    0.0000000000000000
    -5.1127202242638754    8.8554911933099660    0.0000000000000000
     0.0000000000000000    0.0000000000000000   16.0000000000000000
 C  
  84
Direct
 -0.2520050181229458 -0.0517660066886286  0.4772060601518079
 -0.1963662736482239 -0.0730673052219814  0.3991734278362099
 -0.2586947730196280 -0.1570757450046947  0.5384791796480964
 -0.1370753370130523 -0.1762634944985868  0.4170492745514971
 -0.1749170414647810 -0.2274113866622446  0.5020927414676528
 -0.1773333486226392 -0.0797143897029525  0.6121445596935038
 -0.0667043279771346 -0.1213678259012790  0.6330576819215045
 -0.0578532730188144 -0.2057911628061824  0.5599362761952273
 -0.0912447674037514  0.0828946250276276  0.5899477819997800
 -0.1369452984344417  0.0999591760250233  0.5074139056012364
 -0.0257308513658905  0.1715932002000062  0.4425291269534605
  0.0657512077813347  0.1375035282201357  0.6076727844973060
  0.1769364439583284  0.2091494319263748  0.5428266096333239
  0.1312398936239741  0.2261950521541502  0.4602750076432221
  0.0798397586346964  0.0096826087721455  0.6413244902363792
  0.0569359357291687  0.0460912037995383  0.3547493567914333
 -0.0701385771639386  0.0654601021272554  0.3708639141272344
  0.1870653660774503  0.1548941132117468  0.4000615520300723
  0.2489410334906249  0.0819172001339503  0.4493239388524475
  0.2616931616677939  0.1269977145699900  0.5350403388969862
  0.1866871421287523 -0.0021019001614479  0.5886694622587224
  0.0178511758198392 -0.1033805769242326  0.3898568926893819
  0.1349792779115821 -0.0815873336530756  0.4476944381194249
  0.0970884904316969 -0.1328108289426368  0.5327392108565356
  0.4066386841560806  0.7773146657030813  0.3977748297958038
  0.5589386560312510  0.8325077226717339  0.4288049886020066
  0.4087732265411327  0.8941096299946005  0.3470234604172050
  0.5624011520671457  1.0208800326052649  0.3469873751473453
  0.6606630819289490  0.9829112270642316  0.3949934951837427
  0.3061495021115959  0.9400570986528142  0.3826509034052364
  0.4046756268662572  1.0962416487548567  0.4093643113500087
  0.5598603637199815  1.1462406321567005  0.3856393086246568
  0.2532062831153827  0.8548159849575105  0.4602247706324438
  0.2983302642008023  0.9543994016657068  0.5325852395635008
  0.4000083044253114  1.1047842160758614  0.4987638293633376
  0.3025798834349657  0.7441779000697640  0.4677417027744503
  0.3990881980271006  0.7910566443832829  0.5419351966648188
  0.3965615269803011  0.9164174180958100  0.5806050937951341
  0.5542376437637766  0.8410240476793027  0.5182036554036212
  0.6527643151149681  0.9971984263473820  0.5449226702310922
  0.5501765862476271  1.0431863181408809  0.5805510619402322
  0.5523067145596752  1.1599827312976667  0.5297930453221803
  0.6563894106193220  1.1931239575774433  0.4598257384415317
  0.7057681038554061  1.0824806237001021  0.4673604600401189
  0.0507071293019785  0.4820467688148893  0.6414627734128092
  0.0557196282879477  0.6216903001405094  0.6178282447603221
  0.1597141916257958  0.4683980058434555  0.5913606827937395
  0.2314775392757759  0.5996857915011700  0.5370117439606491
  0.1728914024643614  0.7012474013444675  0.5547825281146300
  0.0830719324946347  0.3304520981769025  0.5413022672769011
  0.1023698092547987  0.3836305909916057  0.4548813393081805
  0.1959315904117448  0.5471182767858478  0.4523721387576029
 -0.0768277875488561  0.2700400664472853  0.5585926417100043
 -0.1593505146917767  0.2652133116746467  0.4833965016258221
 -0.0421799293744328  0.3447285887950768  0.4203592111016348
 -0.0997019609264020  0.3533628196786877  0.6253389597695052
 -0.1823994823869697  0.4192988260661524  0.5858106012865887
 -0.2179705601844970  0.3667403968705394  0.5011667270859007
 -0.0888441060138276  0.5827593578881195  0.5833174226378315
 -0.0695574422568379  0.6359394240071580  0.4969005586911983
 -0.1461820531860891  0.4980208425838017  0.4468229604951680
 -0.0371651259869190  0.4843691653398469  0.3967216792400020
  0.1132524234706250  0.6130780963289892  0.4128459132051313
  0.0903496425802735  0.6964016997276791  0.4795900537178945
  0.2911199460716360  0.4084589708983659  0.4379746228897846
  0.3015744203981257  0.4061160793189399  0.5284771562022356
  0.3508364867008458  0.3187776779993933  0.4045317439914214
  0.3979152623839763  0.2615285709994452  0.4745630486341634
  0.3623701439868241  0.3093369166557680  0.5534122214475110
  0.4804534721786958  0.4130217514590623  0.3510655800850003
  0.6093550605660423  0.4190590032763812  0.3943450630352713
  0.5582346517570982  0.3237029434936610  0.4682417050242771
  0.5026057036089139  0.5645563477112258  0.3599440306107772
  0.6491378451023470  0.6676853860081646  0.3965656501896506
  0.7099281134010386  0.5709062090569978  0.4214732636011029
  0.3802711284073941  0.5633818266466559  0.4071504169881001
  0.4532779554431767  0.6533282012587686  0.4817108351472254
  0.6136087888143947  0.7155279010751664  0.4754038440066525
  0.4021377756702835  0.5579743465670470  0.5555894734796050
  0.5310350056580324  0.5640211521601889  0.5988727035139099
  0.6606742592842934  0.6582531007666390  0.5454217168863762
  0.7203876232866210  0.5685621089032510  0.5119737729966648
  0.6312287120609092  0.4136300864727239  0.5428109485112004
  0.5089045766317405  0.4124838980128282  0.5900272171255213
