C 
 1.0000000000000000
    12.4845367671926599    0.0000000000000000    0.0000000000000000
     0.0000000000000000   12.4845367671926599    0.0000000000000000
     0.0000000000000000    0.0000000000000000   16.0000000000000000
 C  
 128
Direct
  0.5053687296365816  0.0598495038278342  0.6415490471342392
  0.4612923838963438 -0.0461435524189448  0.6415558672089765
  0.6132926572871373  0.0591247591821840  0.6111732561217282
  0.5375856704938308 -0.1132175622480117  0.5933786696921458
  0.6303043006362440 -0.0489670299540666  0.5747292586364323
  0.6253938560181207  0.1330762187270811  0.5434598371670522
  0.6692518390967225  0.0807542804309893  0.4714252382971529
  0.6646461427227159 -0.0357059316509087  0.4894349146652668
  0.5154494856540338  0.1663878835284828  0.5196544975306943
  0.4420539415544367  0.1215951029321238  0.5796626622297016
  0.3547022294249133  0.0550687819144053  0.5520302693014766
  0.5015295007953136  0.1447093480797760  0.4319422986241665
  0.4141987465880006  0.0782369399440450  0.4043109291979238
  0.3408012384279367  0.0334159873912624  0.4643225950883982
  0.6027339865044760  0.0976630720031060  0.3997154539606751
  0.3657752539422442 -0.1293804443498280  0.5325700552543999
  0.3622964869187325 -0.0491055847697580  0.5964668720881094
  0.3396290069729952 -0.0844955878941043  0.4527016582849100
  0.4216621928875710 -0.1076950599920528  0.3928256897964431
  0.4596521783921757 -0.0111847750601708  0.3546241198327412
  0.5737009736359286 -0.0024292922850892  0.3623854609247177
  0.4791473754839986 -0.1641454265631610  0.5267289533783429
  0.5133845608578751 -0.1508212530801409  0.4414168353388463
  0.6061472621716719 -0.0865903776950496  0.4227870918512766
  0.0481817387870410  0.4909965629703603  0.5659374361854888
  0.1368991697273985  0.5392361404503754  0.6085284323563523
 -0.0327626762732950  0.5689614946585095  0.5479223331541259
  0.1203362406329984  0.6566658872934232  0.6021066388323832
  0.0168613613867782  0.6748470422104965  0.5650245376966472
 -0.0582602781064567  0.5687810420693797  0.4606980886629630
 -0.0474823382925967  0.6741069542876845  0.4260294336369478
  0.0076907913233238  0.7390821510182016  0.4906144447810742
  0.0250790088488293  0.5024245281480347  0.4195601881306957
  0.0901674451426349  0.4548520641634560  0.4839424452527242
  0.2044258042757270  0.4708266515726203  0.4838544930622063
  0.0742136646941592  0.5659997105689342  0.3550091543206577
  0.1884278102864961  0.5819483166546497  0.3549002985747073
  0.2535305686538893  0.5343916632973266  0.4192974129344940
  0.0220788735752515  0.6729737380331168  0.3548715859221085
  0.2910890922953364  0.6144211235485850  0.5474187825681012
  0.2352662734393656  0.5170426178559308  0.5659370002834981
  0.3156069034030273  0.6212289044665232  0.4600827676414694
  0.2764017033168830  0.7194875359431936  0.4255003400665063
  0.2091219185535035  0.6989477766358373  0.3548169650188430
  0.1067264225332101  0.7492723077837203  0.3648498880968951
  0.2146636098528202  0.7026481066227249  0.5647443332132003
  0.2055555699081483  0.7667956301715874  0.4902857044361456
  0.1020472580743752  0.7850011572835107  0.4532312152644017
  0.8138695895272228  0.7199400225968583  0.6209373369182825
  0.7678570630621108  0.8212611675617052  0.5943248944250455
  0.8783125729645612  0.6801225337967701  0.5534577020912013
  0.8717461407459898  0.7570555223847482  0.4854922357771995
  0.8065076170528477  0.8488670140158721  0.5107395774682794
  0.8367041145490353  0.5762944342438606  0.5262284293650517
  0.7980320662087289  0.5951671976154392  0.4412039008729101
  0.8219713301444400  0.7043680752980355  0.4158730163042833
  0.7398821223408893  0.5607353220613229  0.5755440384010658
  0.6451537004273886  0.5547371457842697  0.5226535733480494
  0.6838188709379130  0.5823128847253223  0.4390774083927620
  0.7286575001343002  0.6430831759631513  0.6393993360101800
  0.6296972452274952  0.6992048707127574  0.6175264891082056
  0.5798988846907975  0.6465277404469336  0.5479080662923003
  0.6536464015610355  0.8083894410411608  0.5922124000076372
  0.6149671929179990  0.8272661943749922  0.5071938026180574
  0.5733559347892008  0.7234519437634404  0.4799425831619216
  0.6378075948579566  0.6836307185278044  0.4124618181972717
  0.7230192629599788  0.7605054154964622  0.3939978478231543
  0.7117716951954988  0.8428583016383483  0.4578567865569257
  0.4855488992443737  0.3855496124952125  0.6392564134738437
  0.5023832187161534  0.2822123670985762  0.5995893451633851
  0.3790099431473660  0.4201290829113794  0.6190443558265409
  0.3305903434595707  0.3379699330716083  0.5669681155602589
  0.4046998757819331  0.2481648911769766  0.5566401031491099
  0.3841799813495329  0.5215142626629833  0.5733885694337251
  0.3438638687575516  0.4958835479029233  0.4899200459902920
  0.3087817597476512  0.3849510862345238  0.4868934005082728
  0.4982166200222776  0.5406969517586030  0.5613315548125188
  0.5262902198193656  0.5422873267469488  0.4730062880927561
  0.4286021870632596  0.5082706577424499  0.4300702560633183
  0.5628341562875749  0.4635103600421194  0.6073027658616507
  0.6222068895049376  0.4055328045965781  0.5427603119686700
  0.6004172951176061  0.4525036665181679  0.4626746848095643
  0.5871305500430327  0.2946179668147110  0.5397508188590463
  0.5468249597974736  0.2689837198099240  0.4562833340042879
  0.5519794623383262  0.3703533405669444  0.4106099730587057
  0.4454328187740495  0.4049364721852626  0.3904013023362445
  0.3681469269175399  0.3269577517694631  0.4223539125916329
  0.4327851494476254  0.2497663689968027  0.4683164796731643
 -0.0298475014130371  0.9920234975300780  0.6231186879754153
  0.0671774967495686  0.9320912711820527  0.6412614508013049
 -0.0718021383620507  0.9530091600991477  0.5453444600200266
 -0.0004443885642677  0.8691852088749440  0.5158331524169641
  0.0851705567395349  0.8511427443859561  0.5766598296039005
 -0.0754606204679704  1.0406947435857699  0.4847672766106271
  0.0018269731011988  1.0101701070928952  0.4203278801659539
  0.0452086949794479  0.9046265797887149  0.4382981571599774
 -0.0256005460759150  1.1306911073197563  0.5276880157900363
  0.0714697776248192  1.1655483868280672  0.4851901515891559
  0.0894326997358916  1.0846176945348798  0.4205841639487725
 -0.0051186604609495  1.1061003708440507  0.6152053743465712
  0.1114081688675242  1.1120861651783085  0.6235450538792119
  0.1570849347349776  1.1475339440958674  0.5460161109109098
  0.1547668224023082  1.0065565905914302  0.6415231446525090
  0.2320595516381387  0.9760358882646193  0.5770908618719719
  0.2284194455168758  1.0637028587684216  0.5165000153045374
  0.1864564770647614  1.0246857289407398  0.4387228541441333
  0.1617373068065613  0.9105951036361069  0.4466412578840423
  0.1822386405229242  0.8860156071245441  0.5341650994666055
  0.8793394176705401  0.3873018972513751  0.5609655871619789
  0.9167367914116427  0.4406238199580830  0.4856993080484872
  0.9232486139962623  0.2810513185893315  0.5611808666864346
  0.9875284228116481  0.2692823773619860  0.4860203633577842
  0.9886169423139718  0.3698871756842966  0.4391393083472542
  0.8359495035964503  0.2028966750227531  0.5610447214247466
  0.8454195623054329  0.1483788007939096  0.4804694998007447
  0.9392710735955205  0.1869960710947856  0.4359699927594247
  0.7390470129852194  0.2671618492956714  0.5536016010198601
  0.6813927881660047  0.2431152210033882  0.4767453551202396
  0.7532621410596767  0.1723635916239375  0.4302089778604455
  0.7623387051998713  0.3810879488430250  0.5606947073182275
  0.7307225732528505  0.4259902704250632  0.4799334113266800
  0.6824539392036619  0.3437182340599035  0.4298688425458804
  0.8245660282596899  0.4646096915107136  0.4354553809138357
  0.8340314231733177  0.4101019119241656  0.3548792643741509
  0.7467456973820894  0.3319367257570736  0.3547224682112747
  0.7906593514849455  0.2256801631783134  0.3549424075128010
  0.9076715141823378  0.2319037059400328  0.3552054055207838
  0.9309481861088832  0.3458431652842580  0.3622883530115291
