C 
 1.0000000000000000
     9.3602482645884511    0.0000000000000000    0.0000000000000000
     0.0000000000000000    9.0559582345248284    0.0000000000000000
     0.0000000000000000    0.0000000000000000   16.0000000000000000
 C  
  64
Direct
  0.5374536241792640 -0.0658447540546779  0.6426735848432815
  0.4583743159500532  0.0696552664727230  0.6417375760160594
  0.4569129818447277 -0.1825252546661345  0.6048174172435601
  0.3343290575996897  0.0436528939324970  0.5858692085797756
  0.3334968096416142 -0.1101966605324189  0.5632340262054183
  0.5374699483544325 -0.2511417399986297  0.5394365372823756
  0.4584553862626030 -0.2514012085133324  0.4626894524817463
  0.3343551899359926 -0.1524912716264552  0.4764761493387015
  0.6631416170287722 -0.1546600637406954  0.5247871926968332
  0.6631118453986499 -0.0413408498543933  0.5879425717706603
  0.6646555961006935  0.1120077309001172  0.5640756893562580
  0.6647571339546793 -0.1147102145128915  0.4376932200338661
  0.6663420901184600  0.0385709849487266  0.4138279383334409
  0.6662831005876323  0.1519151337544896  0.4769858615467122
  0.5401202390101792 -0.1859334006709407  0.3966989190152302
  0.4613378563691108  0.2520210937751757  0.5368857535318307
  0.5399620990377891  0.1853030790965503  0.6037582421284999
  0.5426464768194996  0.2505025500502026  0.4610013254005104
  0.4629961915481832  0.1831792684337967  0.3947686540054525
  0.5427526320138908  0.0651380801715596  0.3577792405625080
  0.4615111076130897 -0.0690373900928137  0.3577883690779132
  0.3361346602407085  0.1552260547162602  0.5217484490635458
  0.3371455157096981  0.1129972664116618  0.4349826870162431
  0.3362545246805896 -0.0408865944003822  0.4123632073452679
  0.1672590687615514 -0.1587145951679820  0.5127979223616180
  0.2205138466645545 -0.0106104845723555  0.4969839971201577
  0.0798563543805497 -0.2003859467581613  0.4429661898185340
  0.0795444996901320 -0.0777660492121354  0.3843798697858607
  0.1720328836526538  0.0406584947723714  0.4150476689889233
 -0.0655681687151481 -0.2300184909107998  0.4719460474569556
 -0.1523989902745482 -0.1145205158347094  0.4331806548352687
 -0.0644922823251258 -0.0245250133865387  0.3783025838904735
 -0.0633561741492401 -0.1921068951638254  0.5604045072387823
 -0.1605070216988590 -0.0708320940785527  0.5788688364673061
 -0.2090021316219865 -0.0196089243154745  0.4969375048485947
  0.0810375771411507 -0.1601509090129813  0.5890421463668287
  0.0759972313664468 -0.0056865082200153  0.6156213558400202
 -0.0680372808399547  0.0475841752647069  0.6095550131257299
  0.1639096756461012  0.0842734424866336  0.5607526344300318
  0.0770864655728301  0.1997768616824816  0.5219940801861723
 -0.0683491047575897  0.1701751985224613  0.5509579398500051
 -0.1557534882873323  0.1284936101410599  0.4811216149905532
 -0.0695168913757870  0.1299469525121541  0.4048721939062317
  0.0748772541693519  0.1619254006080378  0.4335235278024237
 -0.2804934978252662  0.4901366690345371  0.6010117824566990
 -0.1264281948608683  0.4829672341461780  0.5906385046705451
 -0.3414995134392829  0.3690643912897269  0.5554309948423523
 -0.2247808102601852  0.2877466070624231  0.5171129022609845
 -0.0878782532319098  0.3531599052113800  0.5411058408397337
 -0.4373268858299589  0.4263221880449412  0.4908868581567453
 -0.3690949707297463  0.3852970562941415  0.4119942094591802
 -0.2419012547060102  0.2977969328488623  0.4281594575153113
 -0.4210934661603090  0.5860642290019175  0.4955995255545352
 -0.3637001005332793  0.6462262971295279  0.4181664592162862
 -0.3251967987247371  0.5164211787296767  0.3686382326061012
 -0.3350166653710925  0.6293349495898118  0.5673442374893283
 -0.2097204476765154  0.7015975772656459  0.5311121883635381
 -0.2268165475954486  0.7116716534758853  0.4421543205512135
 -0.0825565649562611  0.6141073084211307  0.5472903925890465
 -0.0143179255254546  0.5730943369318787  0.4684013825210604
 -0.1101205382511433  0.6303303896789485  0.4038416917199050
 -0.1711351939579995  0.5092485702640248  0.3582618519268582
 -0.1165896552706565  0.3700428651267048  0.3919324054112045
 -0.0304960586502640  0.4133410721810938  0.4636738531313673
