C 
 1.0000000000000000
     9.3911497366573045    0.0000000000000000    0.0000000000000000
    -4.6955748683286567    8.1329742426887659    0.0000000000000000
     0.0000000000000000    0.0000000000000000   16.0000000000000000
 C  
  68
Direct
  0.5120654009237067  0.6297111459729027  0.5920432242655590
  0.4790710198902238  0.5222828091872571  0.5220929105736276
  0.5968399316129309  0.7981995662383107  0.5659766061352638
  0.5155949621813986  0.6265478459991835  0.4465203332491818
  0.5872765113567953  0.7949276124703665  0.4732751534300928
  0.5111456989523985  0.8799656954523192  0.5934873825245234
  0.4772441090221877  0.9559794472891923  0.5245487389662935
  0.5144871756958046  0.8915199205047479  0.4480069028143520
  0.3487813234082726  0.7490346566301553  0.6241101282609322
  0.3493802618471952  0.5959844552542022  0.6232259252992782
  0.2245497935921371  0.4571222484388326  0.5777923521983713
  0.2232919278718372  0.7633327021517616  0.5795699849359901
  0.0984778897838085  0.6245225491185975  0.5341725545989018
  0.0990837591427447  0.4714559654213727  0.5332696514946883
  0.3056473669697309  0.9036628781741348  0.5205549845995447
  0.2427303552100439  0.4048746002414206  0.4371312728006055
  0.3078336350892343  0.4021866079842140  0.5176957669441150
  0.1022958727751228  0.4258929583262277  0.4447736733800166
  0.1230470959687909  0.5625732306093928  0.3957546916633184
  0.1013750403441090  0.6761743583309090  0.4462825255096375
  0.2407863082199264  0.8385722147245359  0.4396109637518572
  0.3710371341380297  0.5547009997902619  0.3945481919483662
  0.2980943455331330  0.6511794642070630  0.3693333075169811
  0.3698550804704360  0.8196040674826381  0.3960748994605307
  0.5967227702849996  0.2946065922756004  0.6262521310599751
  0.5347414087908161  0.3887359915361542  0.5857923769007639
  0.5373999184149253  0.1388884127620667  0.5858672393236429
  0.4597414480254999  0.3017420035878080  0.5063774114113555
  0.4615272700559894  0.1493518877358546  0.5063464887096469
  0.6713781017497144  0.1154299965788657  0.5624657241042639
  0.6643098468660487  0.0783200392646591  0.4751411566669778
  0.5388818559316633  0.1120867616758900  0.4387646325683363
  0.8229130061170922  0.2769621823811403  0.5740703205571551
  0.7772182589174704  0.3865272187174285  0.6130906172246426
  0.8198376507517645  0.5411343813760385  0.5741906730105628
  0.9113270807429783  0.3219504445861681  0.4961116473571096
  0.9539781129681733  0.4765117109083624  0.4572333194156930
  0.9082546955592534  0.5860863724433970  0.4962442535513685
  0.8162496777044936  0.1888983920597801  0.4347338715687333
  0.6585036207022336  0.5770423020414014  0.4753976551145906
  0.6663405278155012  0.5477967343602698  0.5626834431821672
  0.8112633714816155  0.6212748495038576  0.4349462130520454
  0.7855237394609146  0.5165670998043377  0.3647097067889583
  0.8859865268501520  0.4420766445891460  0.3712066464765680
  0.7882106138556358  0.2666743537486503  0.3647316052210983
  0.5354259137303377  0.4169442887137955  0.4388588051468794
  0.6129488304943405  0.3798236587201316  0.3713057873707828
  0.6146567987219875  0.2273683302277123  0.3712755515015128
  0.0060719192264447  0.2020496316337724  0.4681905838281740
  0.1672938982535873  0.2183772395841618  0.4785840465624328
 -0.0797982170833306  0.1455267869292160  0.5461548285125433
  0.0288319587313897  0.1271866112731992  0.6043055741959922
  0.1876786740293451  0.1788394874695824  0.5646111373395554
 -0.2294699903670261 -0.0129397204095739  0.5334526051199924
 -0.2025019752036082 -0.1298137505308599  0.5815606100800716
 -0.0472699496952889 -0.0435639492046425  0.6262714590551144
 -0.2212899983978570 -0.0541527114263266  0.4464889747335261
 -0.2130463398006930 -0.2044682505556056  0.4395329853770935
 -0.1927095463771910 -0.2440085718152180  0.5255565038255117
 -0.0854486537051238  0.0818921266547612  0.4027145731170577
  0.0218541527702265  0.0179219145391648  0.3778674728266337
 -0.0542259952610070 -0.1528395029297067  0.3998224961206198
  0.1770612809601685  0.1041858751149345  0.4225683463118407
  0.2040379698508991 -0.0126840790289257  0.4706688264031993
  0.0543848550020082 -0.1711666428169670  0.4579836687757997
 -0.0314933142161964 -0.2276864073930033  0.5359525600473718
  0.0600540458965015 -0.1075160892824122  0.6014321027235154
  0.1959094027231665  0.0285171584780980  0.5576443085360934
