C 
 1.0000000000000000
    11.2716863727713772    0.0000000000000000    0.0000000000000000
     0.0000000000000000    9.0560891951845601    0.0000000000000000
     0.0000000000000000    0.0000000000000000   16.0000000000000000
 C  
  68
Direct
  0.3151505254992727  0.2091460520911005  0.5887727951730592
  0.2377462159490652  0.0899635643029419  0.6111064832293400
  0.4338953109943794  0.1803354992972666  0.6161724782850980
  0.3160434067091385 -0.0322373440838991  0.6389912105358133
  0.4357821135441765  0.0228089226519397  0.6419898987299734
  0.5153260312314236  0.1919415803119618  0.5478360814589167
  0.5847019230282557  0.0599934485215605  0.5400519249931713
  0.5280188292576754 -0.0505683040202671  0.5955886649970273
  0.4417302038341545  0.2001203664933927  0.4710745810091699
  0.3193001055304019  0.2106525050012561  0.4961305812912212
  0.2341349700724747  0.1048119045421857  0.4658755923636498
  0.4790946686745373  0.0837349402963817  0.4157106155919646
  0.3939668883370314 -0.0220440147100674  0.3854443052264085
  0.2715228611459740 -0.0115395468092635  0.4105128052379247
  0.5767392566346949  0.0013389136944366  0.4571264286253127
  0.1927749096698390 -0.1198884910934368  0.5302411867025277
  0.1755461282962090  0.0359843025080161  0.5393319206493759
  0.2369741437386183 -0.1546147552257544  0.4485961420623716
  0.3435323187548945 -0.2401672588870310  0.4540695799304649
  0.4371695045750177 -0.1717137376919541  0.4076332763860632
  0.5397537558049125 -0.1498571185360816  0.4591154269957956
  0.2885096013312150 -0.1605996754909017  0.5895371269835701
  0.3806839841516319 -0.2339291888485237  0.5430537395093413
  0.5004433334503287 -0.1788825959876615  0.5460923412549371
 -0.0852243953640315  0.3596225019916800  0.4777188283116319
 -0.0716404441172754  0.4765788096025645  0.4181442745277942
  0.0086995489246711  0.2540139638723587  0.4697599244648420
  0.0490591787292282  0.4589703486241007  0.3824437766297260
  0.0981860548038036  0.3232506580429402  0.4140103125114125
  0.0669154492271509  0.2324079531097826  0.5483244305632842
  0.1921586406586794  0.2562500736697620  0.5405797886561500
  0.2102400895515582  0.3243635894926687  0.4572346087417006
  0.0226296787427612  0.3508056099542439  0.6043393041665500
 -0.0704293382064957  0.4285915095963330  0.5611414994513713
 -0.0626174271375165  0.5860339806349601  0.5496381143756677
  0.1235831645306210  0.4304271783657928  0.6360969419146199
  0.1313861900681833  0.5878112446324961  0.6246236592597191
  0.0383320678770009  0.6656150814615368  0.5814062878488371
  0.2324024486930247  0.3626473098141319  0.6004117751604540
  0.0311849222554233  0.7003114616257551  0.4373146841071772
 -0.0726350297663679  0.6173899427130376  0.4587960436049731
  0.0928635702012762  0.7476353647520857  0.5109101597648261
  0.2145806847647938  0.7025930155573885  0.5081839333674120
  0.2449591125656042  0.6203635761311250  0.5815649643336605
  0.2950087832778734  0.4800186387409244  0.5598181558717219
  0.1119365270487263  0.5958373723483315  0.3941565254521063
  0.2239316664342961  0.5970405204881064  0.4374520813069843
  0.2730668886500445  0.4612715465053946  0.4689871224652859
  0.7854584056367420 -0.4229605475840707  0.5420715485445066
  0.7729729172137941 -0.3469744704556394  0.4625700109503384
  0.7929926576627464 -0.5782544156137179  0.5249498893416846
  0.7850870502299344 -0.5973926575810794  0.4349457474667489
  0.7775365186444543 -0.4533840906809219  0.3938515905804070
  0.6945847843708429 -0.6545105290478296  0.5660586592792929
  0.6224500947556423 -0.7119218074456604  0.4973693470019292
  0.6793318107356020 -0.6803023209903556  0.4178404064773795
  0.6231640531807479 -0.5366423908285106  0.6021793358678171
  0.5046097175747858 -0.5330829163827017  0.5660791809160012
  0.5091785580023372 -0.6395143548172485  0.4973852473045475
  0.6819828996887680 -0.3940810438928745  0.5947692042314400
  0.6028108583806323 -0.3061851552702266  0.5421132802001855
  0.4970385772640717 -0.3890690703128869  0.5250011145119919
  0.6597034247580804 -0.2745650806812127  0.4626054356046528
  0.5875668916653054 -0.3319612524635172  0.3939172588899624
  0.4891510245389624 -0.4082309907267474  0.4350034010002629
  0.4966911475450339 -0.5635352782644839  0.4178836721763079
  0.6001730388376321 -0.5924038781368719  0.3651741983629282
  0.6589745790985596 -0.4498177171510421  0.3577622422270559
