Generated by VASPKIT code               
   1.00000000000000     
    14.5899043332056682    0.3119680691673333    0.0000000000000000
    -7.0199527489653057   12.3509649727689776    0.0000000000000000
     0.0000000000000013    0.0000000000000021   19.7128406468359216
  C             
   104
Direct
  0.0961922933542900  0.9220552558319726  0.5410807026491654
  0.0035137647401435  0.8213946864602153  0.5140220215479908
  0.1404965161470010  0.0029812332662505  0.4913704796720993
  0.9770772144284047  0.8733920747110157  0.4517122966841288
  0.0638183536626431  0.9757136970960254  0.4359491251862959
  0.1677333852011491  0.1067101934296696  0.5174669762343010
  0.1202810427408634  0.1515402136579139  0.4753759144351611
  0.0502601962819095  0.0670441836472762  0.4244009957593186
  0.1119288286921302  0.0848215939874195  0.5841069796124736
  0.0665882663792234  0.9688012033847335  0.5959890820730108
  0.9584791659180064  0.9026252096008106  0.6091568332692883
  0.0463470360216255  0.1318068537399735  0.5824772676934289
  0.9340322609023785  0.0630924563882874  0.5920540366888147
  0.8907423623816101  0.9515208101372349  0.6071195050137298
  0.0589019914596239  0.1839203126240756  0.5143087734927271
  0.8332170987443726  0.8162957924211987  0.5275432759240155
  0.9168562267239238  0.8128348757634999  0.5618121243056730
  0.8090813536634829  0.8918040410946062  0.5587308110745752
  0.7977571797302506  0.9681306197316537  0.5085797016419700
  0.8787856721801571  0.0760590888860659  0.5351218434360381
  0.9562998748714279  0.1329763123431617  0.4862325659246777
  0.8766509156458072  0.8642882198930628  0.4581810744521203
  0.8618696025657834  0.9550427281558028  0.4487318232060047
  0.9492127120617049  0.0565388380247557  0.4327503082988448
  0.5801425159792857  0.4048312976570317  0.5328938149220702
  0.3542730930017599  0.4333291756755649  0.6031729455174317
  0.5596175446746170  0.8903918543233420  0.5820140758789791
  0.0950847069474845  0.6593597542075361  0.5883009451508966
  0.5521145749608085  0.3689320900853069  0.4556481446535486
  0.4364901948052554  0.5420167603491777  0.6008177105172406
  0.4590875663475833  0.8828677406680938  0.5804483844131740
  0.1094608933361220  0.5658466406859686  0.5921508191254518
  0.6981981179407161  0.4817186109828070  0.5283974120706513
  0.3801611908462237  0.3652520029447043  0.5636176680218756
  0.6399209635448749  0.9890696848310205  0.5541180858320744
  0.0026269498700400  0.6448982630451513  0.5595522521832492
  0.7371512015062057  0.4932038166676778  0.4597077070483709
  0.4903797697166671  0.4317254166338239  0.5355771463915281
  0.5853805660250521  0.0521779418017723  0.5301739771625722
  0.9508741533233858  0.5278650666162213  0.5339300517203737
  0.6552595747917913  0.4216186719069463  0.4186249885776488
  0.5065310827458394  0.5442112026772873  0.5502941924547448
  0.4716441391766396  0.9714714326648558  0.5413848062160432
  0.0344515259601973  0.4963734343518715  0.5472669482104630
  0.7503274077527142  0.4416396535551267  0.5688751835589207
  0.3085583414911764  0.3330169645497299  0.5082054262884359
  0.6877672195092452  0.9529248704962145  0.4952506237072208
  0.0332298375480227  0.7311114118786836  0.5033857871272557
  0.8377183781119236  0.4376918333336533  0.5311673588629496
  0.3567928024941497  0.3496876460963126  0.4450280781330752
  0.6572386754399863  0.9943046335468236  0.4317581967673121
  0.0033791778845503  0.6625676795020951  0.4390192956778724
  0.8292957498588679  0.4674805917488659  0.4546686388690628
  0.4741192715530149  0.4134553445931608  0.4566131218200750
  0.6029509527315815  0.0587747460168970  0.4493012398874267
  0.9489175617474520  0.5430972796282476  0.4539597289516370
  0.6792647603619903  0.3369614528059294  0.5933843942564692
  0.2409229828867875  0.3869080859061376  0.5127333623859239
  0.6098869020948319  0.8315568564460426  0.4896528573446970
  0.1574961021236176  0.7809689215275706  0.5011519135319280
  0.7094564606623969  0.2611881950847572  0.5677070090400220
  0.2427897784604233  0.4300633246928293  0.4450079832874959
  0.5677395985901992  0.8021693636589947  0.4220563444266029
  0.1914881372681312  0.7712994183209525  0.4348355813424701
  0.7971407878358093  0.3144090537329762  0.5260813250613264
  0.3211467410245630  0.4158277923340797  0.4097979322839441
  0.5846924429677891  0.9018375689031389  0.3938727055318954
  0.0982862070920286  0.6887255288684705  0.4038041146839307
  0.5773148315778523  0.3096158609468768  0.5689151185565544
  0.2634757174401314  0.4395008206804673  0.5783811126201804
  0.5521582539564776  0.7967614236256260  0.5505510022779779
  0.1913580361580136  0.7469144529511385  0.5620840020675937
  0.5411465329809149  0.2195534547966209  0.5270424538882650
  0.2834871911268468  0.5493165182111641  0.5916320080921108
  0.4395586864243792  0.7072877386002145  0.5488542844924595
  0.2702763050404596  0.7178869744124582  0.5707443484600998
  0.6183756217097598  0.1729780766863679  0.5302284261518245
  0.2625183248797730  0.5451100934731420  0.4368789258220367
  0.4534625618042311  0.7199362983924148  0.4183329119515989
  0.2829116959451405  0.7466770608964994  0.4276275119898255
  0.5304862603424487  0.2511417210754862  0.4590084475104569
  0.3911582629315509  0.6129141414994749  0.5968078510283025
  0.3797099713027755  0.7758617567585845  0.5476801816717187
  0.2194767042165755  0.5976063603099543  0.5684330542481517
  0.6018075054154882  0.2389950019912253  0.4175001598268577
  0.4468568860146560  0.6542109075467791  0.4833132082442631
  0.3674597560014173  0.8150527932255700  0.4777356206855488
  0.1963131565387616  0.5609161470779239  0.4907125302636378
  0.6539462553346079  0.1829381650210080  0.4533464682652474
  0.3793644969299351  0.6008138198496741  0.4225353891838938
  0.4021601652226890  0.7921620730090385  0.4104963266780915
  0.2164904100899241  0.6224034476576650  0.4238498982383556
  0.7685880427584895  0.2753708701722851  0.4574053159988873
  0.4060455326076949  0.5179559064372278  0.3982025549817244
  0.4862135888740351  0.8992544882041810  0.3854144998801892
  0.1128118851641852  0.5973852257142678  0.3952813892921319
  0.7787223758248235  0.3614113065887354  0.4171720547142648
  0.4933714681991595  0.5246256362178223  0.4331976387226125
  0.4900730057025446  0.9845872725412297  0.4241448992383221
  0.0320752765791070  0.5111545953356315  0.4305714059149440
  0.6785605833585983  0.3410885620435567  0.3927066111494132
  0.5112155396664083  0.5967266264981210  0.4887492429120648
  0.4197775662912619  0.9372751643416092  0.4793517965979677
  0.0790316280991872  0.4870496669294111  0.4860122508323924
 
  0.00000000E+00  0.00000000E+00  0.00000000E+00
  0.00000000E+00  0.00000000E+00  0.00000000E+00
  0.00000000E+00  0.00000000E+00  0.00000000E+00
  0.00000000E+00  0.00000000E+00  0.00000000E+00
  0.00000000E+00  0.00000000E+00  0.00000000E+00
  0.00000000E+00  0.00000000E+00  0.00000000E+00
  0.00000000E+00  0.00000000E+00  0.00000000E+00
  0.00000000E+00  0.00000000E+00  0.00000000E+00
  0.00000000E+00  0.00000000E+00  0.00000000E+00
  0.00000000E+00  0.00000000E+00  0.00000000E+00
  0.00000000E+00  0.00000000E+00  0.00000000E+00
  0.00000000E+00  0.00000000E+00  0.00000000E+00
  0.00000000E+00  0.00000000E+00  0.00000000E+00
  0.00000000E+00  0.00000000E+00  0.00000000E+00
  0.00000000E+00  0.00000000E+00  0.00000000E+00
  0.00000000E+00  0.00000000E+00  0.00000000E+00
  0.00000000E+00  0.00000000E+00  0.00000000E+00
  0.00000000E+00  0.00000000E+00  0.00000000E+00
  0.00000000E+00  0.00000000E+00  0.00000000E+00
  0.00000000E+00  0.00000000E+00  0.00000000E+00
  0.00000000E+00  0.00000000E+00  0.00000000E+00
  0.00000000E+00  0.00000000E+00  0.00000000E+00
  0.00000000E+00  0.00000000E+00  0.00000000E+00
  0.00000000E+00  0.00000000E+00  0.00000000E+00
  0.00000000E+00  0.00000000E+00  0.00000000E+00
  0.00000000E+00  0.00000000E+00  0.00000000E+00
  0.00000000E+00  0.00000000E+00  0.00000000E+00
  0.00000000E+00  0.00000000E+00  0.00000000E+00
  0.00000000E+00  0.00000000E+00  0.00000000E+00
  0.00000000E+00  0.00000000E+00  0.00000000E+00
  0.00000000E+00  0.00000000E+00  0.00000000E+00
  0.00000000E+00  0.00000000E+00  0.00000000E+00
  0.00000000E+00  0.00000000E+00  0.00000000E+00
  0.00000000E+00  0.00000000E+00  0.00000000E+00
  0.00000000E+00  0.00000000E+00  0.00000000E+00
  0.00000000E+00  0.00000000E+00  0.00000000E+00
  0.00000000E+00  0.00000000E+00  0.00000000E+00
  0.00000000E+00  0.00000000E+00  0.00000000E+00
  0.00000000E+00  0.00000000E+00  0.00000000E+00
  0.00000000E+00  0.00000000E+00  0.00000000E+00
  0.00000000E+00  0.00000000E+00  0.00000000E+00
  0.00000000E+00  0.00000000E+00  0.00000000E+00
  0.00000000E+00  0.00000000E+00  0.00000000E+00
  0.00000000E+00  0.00000000E+00  0.00000000E+00
  0.00000000E+00  0.00000000E+00  0.00000000E+00
  0.00000000E+00  0.00000000E+00  0.00000000E+00
  0.00000000E+00  0.00000000E+00  0.00000000E+00
  0.00000000E+00  0.00000000E+00  0.00000000E+00
  0.00000000E+00  0.00000000E+00  0.00000000E+00
  0.00000000E+00  0.00000000E+00  0.00000000E+00
  0.00000000E+00  0.00000000E+00  0.00000000E+00
  0.00000000E+00  0.00000000E+00  0.00000000E+00
  0.00000000E+00  0.00000000E+00  0.00000000E+00
  0.00000000E+00  0.00000000E+00  0.00000000E+00
  0.00000000E+00  0.00000000E+00  0.00000000E+00
  0.00000000E+00  0.00000000E+00  0.00000000E+00
  0.00000000E+00  0.00000000E+00  0.00000000E+00
  0.00000000E+00  0.00000000E+00  0.00000000E+00
  0.00000000E+00  0.00000000E+00  0.00000000E+00
  0.00000000E+00  0.00000000E+00  0.00000000E+00
  0.00000000E+00  0.00000000E+00  0.00000000E+00
  0.00000000E+00  0.00000000E+00  0.00000000E+00
  0.00000000E+00  0.00000000E+00  0.00000000E+00
  0.00000000E+00  0.00000000E+00  0.00000000E+00
  0.00000000E+00  0.00000000E+00  0.00000000E+00
  0.00000000E+00  0.00000000E+00  0.00000000E+00
  0.00000000E+00  0.00000000E+00  0.00000000E+00
  0.00000000E+00  0.00000000E+00  0.00000000E+00
  0.00000000E+00  0.00000000E+00  0.00000000E+00
  0.00000000E+00  0.00000000E+00  0.00000000E+00
  0.00000000E+00  0.00000000E+00  0.00000000E+00
  0.00000000E+00  0.00000000E+00  0.00000000E+00
  0.00000000E+00  0.00000000E+00  0.00000000E+00
  0.00000000E+00  0.00000000E+00  0.00000000E+00
  0.00000000E+00  0.00000000E+00  0.00000000E+00
  0.00000000E+00  0.00000000E+00  0.00000000E+00
  0.00000000E+00  0.00000000E+00  0.00000000E+00
  0.00000000E+00  0.00000000E+00  0.00000000E+00
  0.00000000E+00  0.00000000E+00  0.00000000E+00
  0.00000000E+00  0.00000000E+00  0.00000000E+00
  0.00000000E+00  0.00000000E+00  0.00000000E+00
  0.00000000E+00  0.00000000E+00  0.00000000E+00
  0.00000000E+00  0.00000000E+00  0.00000000E+00
  0.00000000E+00  0.00000000E+00  0.00000000E+00
  0.00000000E+00  0.00000000E+00  0.00000000E+00
  0.00000000E+00  0.00000000E+00  0.00000000E+00
  0.00000000E+00  0.00000000E+00  0.00000000E+00
  0.00000000E+00  0.00000000E+00  0.00000000E+00
  0.00000000E+00  0.00000000E+00  0.00000000E+00
  0.00000000E+00  0.00000000E+00  0.00000000E+00
  0.00000000E+00  0.00000000E+00  0.00000000E+00
  0.00000000E+00  0.00000000E+00  0.00000000E+00
  0.00000000E+00  0.00000000E+00  0.00000000E+00
  0.00000000E+00  0.00000000E+00  0.00000000E+00
  0.00000000E+00  0.00000000E+00  0.00000000E+00
  0.00000000E+00  0.00000000E+00  0.00000000E+00
  0.00000000E+00  0.00000000E+00  0.00000000E+00
  0.00000000E+00  0.00000000E+00  0.00000000E+00
  0.00000000E+00  0.00000000E+00  0.00000000E+00
  0.00000000E+00  0.00000000E+00  0.00000000E+00
  0.00000000E+00  0.00000000E+00  0.00000000E+00
  0.00000000E+00  0.00000000E+00  0.00000000E+00
  0.00000000E+00  0.00000000E+00  0.00000000E+00
  0.00000000E+00  0.00000000E+00  0.00000000E+00
