Generated by VASPKIT code               
   1.00000000000000     
    14.4351179954649620   -0.0230122193526512    0.0000000000000000
    -7.2225281428541983   12.7615866195464687    0.0000000000000000
     0.0000000000000012    0.0000000000000022   19.7138345158754476
  C             
   108
Direct
  0.6871675148588383  0.4287151060218016  0.5605702104261906
  0.1487218095004875  0.1849931684665676  0.5327215431588860
  0.6477905126682472  0.3191467488011481  0.5769958389137907
  0.1438289304628239  0.1300427579969376  0.5993982460741341
  0.8001543724852104  0.4821705723641062  0.5396610802698183
  0.1559278193893077  0.1120415663449105  0.4818760923982778
  0.7346025161847725  0.3002450290264316  0.5530551221381230
  0.1424569748907641  0.0323654310278756  0.5861895625935679
  0.8309533648414510  0.3945980675933051  0.5282253187993465
  0.1516411658618438  0.0216632991150266  0.5146405741501757
  0.8062393422932423  0.5341118574238932  0.4704594882033374
  0.0781369206702831  0.0775417242959449  0.4305496992944258
  0.8560803249966155  0.4950856655556706  0.4163235406634589
  0.0363940731834167  0.9665789087453176  0.4223197976427467
  0.8663570039544234  0.4025069900487181  0.4499948405519600
  0.0767591120659391  0.9310291127327267  0.4770158650264731
  0.6902909389357035  0.4830035268888514  0.4476496892782706
  0.9895292029104779  0.0893290801406177  0.4601125779393179
  0.6272356075717206  0.4238118225668276  0.5047182788711966
  0.0273705377582848  0.1491299066856189  0.5225408136702715
  0.5202287200409091  0.3204580375719083  0.5020857023375198
  0.9698559688518399  0.1057792159926052  0.5825709878806612
  0.6765879560538259  0.4348863799896235  0.3836795479175484
  0.8944440029343177  0.9915168290024373  0.4590168263005701
  0.5927047313195215  0.3243989582819640  0.3752398433834552
  0.8155567065138792  0.9430498635434774  0.5189816517456614
  0.5253661487528638  0.2725600982579246  0.4344691420646559
  0.8712200365737222  0.0070887654707866  0.5842582665775377
  0.7771438762866869  0.4454200532049677  0.3593671913109308
  0.9244144394912550  0.9164086448971690  0.4358409836224694
  0.5619879538746470  0.1679969296051293  0.5132932863871290
  0.9963773116893000  0.9953658978173114  0.6580399261620197
  0.5448017273485960  0.2480499088571359  0.5556690560659533
  0.0458782266078256  0.0995788075427112  0.6317004601406465
  0.5379189563582992  0.1889688943024024  0.4450874539339143
  0.8905038918424495  0.9428228850211336  0.6302242314944462
  0.6052859389399526  0.1683213926989421  0.3977700317354077
  0.8722774587772930  0.8486363884807230  0.5959108695891265
  0.6353196063797975  0.2638208090408695  0.3471851706396909
  0.8308660271603638  0.8459680298559015  0.5309772111803633
  0.7508176215629099  0.3397508785794646  0.3506515567730337
  0.8875733148789535  0.8282040143776718  0.4798424487637093
  0.6842668016371729  0.2226500984029389  0.5065796579943751
  0.0520578279672345  0.9470603193003232  0.6226735653189239
  0.7117286776263492  0.2245021931503803  0.4372085248424508
  0.9769481006355839  0.8591639751465177  0.5861088793407336
  0.7967676430779306  0.3102257520198299  0.4065003823804549
  0.9890427566215675  0.8314090290551973  0.5115334974793659
  0.1994366911904278  0.7794805890081292  0.5086070946815495
  0.2134355677746709  0.4677641303338959  0.5315899268439119
  0.5316855607425119  0.7494585322933757  0.4643596588461374
  0.1663595469016204  0.7627219229885177  0.5764037761804781
  0.2901501373586826  0.4616504128032083  0.5840850745913134
  0.5236570880522646  0.7875667474735475  0.5342675738058852
  0.1070263716732240  0.7531707595824650  0.4665766465980222
  0.1974706507714854  0.3724399230053409  0.4873509397124544
  0.6388207133882130  0.8480522923891362  0.4436388566553417
  0.0124995202435872  0.7406722881139410  0.5097626868127705
  0.2344488797363413  0.2992341415843878  0.5204219658834007
  0.7027375319007726  0.9212896963139425  0.5045237384730578
  0.0553836733514411  0.7304579059654741  0.5797228998682541
  0.3039896908888283  0.3727061773717589  0.5754080445791254
  0.6157546205403686  0.8749451356233890  0.5592737061392884
  0.0828551345983614  0.6662020379406560  0.4264162594484223
  0.2494197056620799  0.4052483641053668  0.4247432302647291
  0.6132207538437765  0.9083286138147413  0.4005518356158743
  0.9713074919935105  0.5799274276266527  0.4393797485840368
  0.3272613521321580  0.3703287634344867  0.4158391222528143
  0.6519774741043921  0.0150438128661335  0.4235835623850635
  0.9270185575498927  0.6242193615380045  0.4941370612067350
  0.3267475282769881  0.3118778732974467  0.4719708171739999
  0.6945177134781748  0.0211302485858151  0.4886216108658447
  0.1557401156055674  0.6289546874112016  0.4467439544517838
  0.3097783959075647  0.5189200732217865  0.4213933766925799
  0.4996429113174911  0.8628012051853248  0.3909606260040005
  0.1005637232224699  0.5289036055643265  0.4733928042282304
  0.4194267828205080  0.5553075616273431  0.4088223843712416
  0.4685449477573919  0.9407107801882459  0.4065825626779258
  0.9843670936093435  0.4895393503499185  0.4716162114589883
  0.4306623129495663  0.4646259407506962  0.4074878382378203
  0.5672570561795766  0.0481332460310856  0.4205574535141512
  0.2476067489359543  0.7086213025476958  0.4911504319020151
  0.2964070781885409  0.5545355294290982  0.4860033762326064
  0.4458045889365881  0.7703897126732929  0.4286005867836165
  0.2160874594903686  0.6386466445659496  0.5554832665531673
  0.3936991280388682  0.6015582561081997  0.5177888628388737
  0.3677571738817036  0.7803086097617556  0.4769213293497048
  0.1414606142335627  0.5179625944270626  0.5430988059392002
  0.4855002979589950  0.6282275794547383  0.4679044871757805
  0.3969229408473010  0.8968911050620358  0.4624908775815841
  0.1794195938552899  0.6759778935495383  0.6062377562329698
  0.3949445821289594  0.5518560060176887  0.5793146597179104
  0.4322991245729563  0.7985668080337661  0.5424040723958943
  0.0712414271185923  0.5911847848893974  0.6228613512524318
  0.4718273370217763  0.5178856922633763  0.5686876194606220
  0.4671382754929164  0.8996060683643096  0.5705590277750350
  0.0447410542025435  0.4976589077165729  0.5892537255749311
  0.5203595783732244  0.5547867050245145  0.5029774669382903
  0.4468953065108582  0.9578332833420772  0.5204302084334733
  0.9487186610829133  0.4758119150466549  0.5469160815855948
  0.4969700707295586  0.4674118523976377  0.4626496499780815
  0.5461595196203969  0.0578157070895906  0.5057652814645498
  0.9159526204715880  0.5612534138248579  0.5603625575731659
  0.4396036799033619  0.3617852231932131  0.5041932528598397
  0.6294693570296273  0.0350530702040198  0.5368382568707618
  0.9979972401926529  0.6315365684786096  0.6092550022118416
  0.4144130924571875  0.4049717681882727  0.5679604058201819
  0.5818656779115827  0.9478679986465353  0.5810756239419582
 
  0.00000000E+00  0.00000000E+00  0.00000000E+00
  0.00000000E+00  0.00000000E+00  0.00000000E+00
  0.00000000E+00  0.00000000E+00  0.00000000E+00
  0.00000000E+00  0.00000000E+00  0.00000000E+00
  0.00000000E+00  0.00000000E+00  0.00000000E+00
  0.00000000E+00  0.00000000E+00  0.00000000E+00
  0.00000000E+00  0.00000000E+00  0.00000000E+00
  0.00000000E+00  0.00000000E+00  0.00000000E+00
  0.00000000E+00  0.00000000E+00  0.00000000E+00
  0.00000000E+00  0.00000000E+00  0.00000000E+00
  0.00000000E+00  0.00000000E+00  0.00000000E+00
  0.00000000E+00  0.00000000E+00  0.00000000E+00
  0.00000000E+00  0.00000000E+00  0.00000000E+00
  0.00000000E+00  0.00000000E+00  0.00000000E+00
  0.00000000E+00  0.00000000E+00  0.00000000E+00
  0.00000000E+00  0.00000000E+00  0.00000000E+00
  0.00000000E+00  0.00000000E+00  0.00000000E+00
  0.00000000E+00  0.00000000E+00  0.00000000E+00
  0.00000000E+00  0.00000000E+00  0.00000000E+00
  0.00000000E+00  0.00000000E+00  0.00000000E+00
  0.00000000E+00  0.00000000E+00  0.00000000E+00
  0.00000000E+00  0.00000000E+00  0.00000000E+00
  0.00000000E+00  0.00000000E+00  0.00000000E+00
  0.00000000E+00  0.00000000E+00  0.00000000E+00
  0.00000000E+00  0.00000000E+00  0.00000000E+00
  0.00000000E+00  0.00000000E+00  0.00000000E+00
  0.00000000E+00  0.00000000E+00  0.00000000E+00
  0.00000000E+00  0.00000000E+00  0.00000000E+00
  0.00000000E+00  0.00000000E+00  0.00000000E+00
  0.00000000E+00  0.00000000E+00  0.00000000E+00
  0.00000000E+00  0.00000000E+00  0.00000000E+00
  0.00000000E+00  0.00000000E+00  0.00000000E+00
  0.00000000E+00  0.00000000E+00  0.00000000E+00
  0.00000000E+00  0.00000000E+00  0.00000000E+00
  0.00000000E+00  0.00000000E+00  0.00000000E+00
  0.00000000E+00  0.00000000E+00  0.00000000E+00
  0.00000000E+00  0.00000000E+00  0.00000000E+00
  0.00000000E+00  0.00000000E+00  0.00000000E+00
  0.00000000E+00  0.00000000E+00  0.00000000E+00
  0.00000000E+00  0.00000000E+00  0.00000000E+00
  0.00000000E+00  0.00000000E+00  0.00000000E+00
  0.00000000E+00  0.00000000E+00  0.00000000E+00
  0.00000000E+00  0.00000000E+00  0.00000000E+00
  0.00000000E+00  0.00000000E+00  0.00000000E+00
  0.00000000E+00  0.00000000E+00  0.00000000E+00
  0.00000000E+00  0.00000000E+00  0.00000000E+00
  0.00000000E+00  0.00000000E+00  0.00000000E+00
  0.00000000E+00  0.00000000E+00  0.00000000E+00
  0.00000000E+00  0.00000000E+00  0.00000000E+00
  0.00000000E+00  0.00000000E+00  0.00000000E+00
  0.00000000E+00  0.00000000E+00  0.00000000E+00
  0.00000000E+00  0.00000000E+00  0.00000000E+00
  0.00000000E+00  0.00000000E+00  0.00000000E+00
  0.00000000E+00  0.00000000E+00  0.00000000E+00
  0.00000000E+00  0.00000000E+00  0.00000000E+00
  0.00000000E+00  0.00000000E+00  0.00000000E+00
  0.00000000E+00  0.00000000E+00  0.00000000E+00
  0.00000000E+00  0.00000000E+00  0.00000000E+00
  0.00000000E+00  0.00000000E+00  0.00000000E+00
  0.00000000E+00  0.00000000E+00  0.00000000E+00
  0.00000000E+00  0.00000000E+00  0.00000000E+00
  0.00000000E+00  0.00000000E+00  0.00000000E+00
  0.00000000E+00  0.00000000E+00  0.00000000E+00
  0.00000000E+00  0.00000000E+00  0.00000000E+00
  0.00000000E+00  0.00000000E+00  0.00000000E+00
  0.00000000E+00  0.00000000E+00  0.00000000E+00
  0.00000000E+00  0.00000000E+00  0.00000000E+00
  0.00000000E+00  0.00000000E+00  0.00000000E+00
  0.00000000E+00  0.00000000E+00  0.00000000E+00
  0.00000000E+00  0.00000000E+00  0.00000000E+00
  0.00000000E+00  0.00000000E+00  0.00000000E+00
  0.00000000E+00  0.00000000E+00  0.00000000E+00
  0.00000000E+00  0.00000000E+00  0.00000000E+00
  0.00000000E+00  0.00000000E+00  0.00000000E+00
  0.00000000E+00  0.00000000E+00  0.00000000E+00
  0.00000000E+00  0.00000000E+00  0.00000000E+00
  0.00000000E+00  0.00000000E+00  0.00000000E+00
  0.00000000E+00  0.00000000E+00  0.00000000E+00
  0.00000000E+00  0.00000000E+00  0.00000000E+00
  0.00000000E+00  0.00000000E+00  0.00000000E+00
  0.00000000E+00  0.00000000E+00  0.00000000E+00
  0.00000000E+00  0.00000000E+00  0.00000000E+00
  0.00000000E+00  0.00000000E+00  0.00000000E+00
  0.00000000E+00  0.00000000E+00  0.00000000E+00
  0.00000000E+00  0.00000000E+00  0.00000000E+00
  0.00000000E+00  0.00000000E+00  0.00000000E+00
  0.00000000E+00  0.00000000E+00  0.00000000E+00
  0.00000000E+00  0.00000000E+00  0.00000000E+00
  0.00000000E+00  0.00000000E+00  0.00000000E+00
  0.00000000E+00  0.00000000E+00  0.00000000E+00
  0.00000000E+00  0.00000000E+00  0.00000000E+00
  0.00000000E+00  0.00000000E+00  0.00000000E+00
  0.00000000E+00  0.00000000E+00  0.00000000E+00
  0.00000000E+00  0.00000000E+00  0.00000000E+00
  0.00000000E+00  0.00000000E+00  0.00000000E+00
  0.00000000E+00  0.00000000E+00  0.00000000E+00
  0.00000000E+00  0.00000000E+00  0.00000000E+00
  0.00000000E+00  0.00000000E+00  0.00000000E+00
  0.00000000E+00  0.00000000E+00  0.00000000E+00
  0.00000000E+00  0.00000000E+00  0.00000000E+00
  0.00000000E+00  0.00000000E+00  0.00000000E+00
  0.00000000E+00  0.00000000E+00  0.00000000E+00
  0.00000000E+00  0.00000000E+00  0.00000000E+00
  0.00000000E+00  0.00000000E+00  0.00000000E+00
  0.00000000E+00  0.00000000E+00  0.00000000E+00
  0.00000000E+00  0.00000000E+00  0.00000000E+00
  0.00000000E+00  0.00000000E+00  0.00000000E+00
  0.00000000E+00  0.00000000E+00  0.00000000E+00
