C 
 1.0000000000000000
    13.2899337029772990    0.0000000000000000    0.0000000000000000
    -9.6013772025146409    8.3482444124608364    0.0000000000000000
     0.0000000000000000    0.0000000000000000   16.0000000000000000
 C  
 104
Direct
  0.3500063913049588 -0.2039129626093016  0.6043751678449749
  0.4189762618990424 -0.0591487445157838  0.6423551667263411
  0.2479014151688103 -0.2539305454369735  0.5385655622405012
  0.3819099829119598  0.0016464479530672  0.5869247421882947
  0.2776613151047795 -0.1170962418005661  0.5235090442289749
  0.2869225453980245 -0.2757019991625980  0.4623634580549782
  0.3098413733240941 -0.1833849649693150  0.3961472999530562
  0.3152294812603209 -0.0742414323150407  0.4365024829198095
  0.4383385449373270 -0.2063119976891538  0.4769677606524228
  0.4768913216694072 -0.1624230868970576  0.5638332369345608
  0.6190239313730966 -0.0005650447029471  0.5869336077974716
  0.5419346340738679 -0.0883586925663689  0.4131179529106628
  0.6840329602065598  0.0734258090427704  0.4362004141024408
  0.7225888876610186  0.1173425788509290  0.5230752550881790
  0.4564958996806441 -0.0826316655623392  0.3576449147479600
  0.6509344509607500  0.2049982380852609  0.6037664642200746
  0.5826343236681117  0.0610137870859444  0.6423573196182241
  0.7522333954010785  0.2540854197583237  0.5376195093651328
  0.7129505856934699  0.2755348651031204  0.4613670890063101
  0.6891285757788504  0.1821976591530958  0.3956013073359373
  0.5418841885484406  0.0807828081837474  0.3575152880705937
  0.5237971515543881  0.1632291375324272  0.5633405169583661
  0.5615002352187566  0.2061121228640706  0.4763456091051415
  0.4571821472022442  0.0873385046146858  0.4129338111546103
  0.3208205411688472  0.3705051710956121  0.5605189271804155
  0.1716875520364463  0.2078929048697283  0.5794291994327133
  0.3421556493870840  0.3817339759804692  0.4716803921503872
  0.2060825954749194  0.2259571273658060  0.4361725789927235
  0.0941474791863097  0.1161564450240932  0.5020895136921960
  0.4773559896704387  0.4243175893293485  0.4532308963258866
  0.4167015647146272  0.2839688092945774  0.4102322398434789
  0.2523126004594594  0.1653329009327848  0.3980559585103989
  0.5272489232110664  0.4244485283782325  0.5343238478960193
  0.5190754118803338  0.3038041692724674  0.5383093780124250
  0.4415801314762073  0.2121180824590808  0.4609645686127873
  0.4415580522971095  0.4054980593758704  0.6022097934641284
  0.3609559101245012  0.2546707948446200  0.6423390077355572
  0.4071735755205426  0.1940203039640215  0.6042359861387803
  0.1965962404087908  0.1360766618270501  0.6301680113165654
  0.1359393636125127 -0.0042746663549467  0.5871779606913102
  0.2711110795297270  0.0382690187522915  0.5687154591698281
  0.2924502788819053  0.0495065128881788  0.4798712885284943
  0.1716871456717700  0.0144935072636062  0.4381821511506840
  0.0859924746842538 -0.0044744292394483  0.5060826741834915
  0.8206105644575442  0.7901535916342893  0.5495769160569079
  0.8914317464896113  0.8756093218103873  0.4708203488848190
  0.6730567253849827  0.6296720851499406  0.5309651341065547
  0.6534794719422201  0.6168432186147708  0.4407932119475473
  0.7917045473329871  0.7676830859785601  0.4010892873548145
  0.5537403433270489  0.5984677329298256  0.5713723130826340
  0.4676563718147864  0.5770943727327273  0.5021684053914207
  0.5260880406152348  0.5842179079251643  0.4229334988334706
  0.6358328277977717  0.7511697501851338  0.6086446340863619
  0.5875962918299282  0.8129171245284872  0.5726270623812046
  0.4878494454960619  0.7049655048154853  0.5029202728612361
  0.8012045374076847  0.8675810844649922  0.6025817981878479
  0.8531905937871048  0.9963625703612788  0.5508055677153268
  0.7258168798991432  0.9637717619724375  0.5329392841209377
  0.9116270546121377  1.0034808341359418  0.4715917557375331
  0.8255569579565947  0.9821236357151780  0.4023891290458629
  0.7062243892431487  0.9509100157184439  0.4427735556521905
  0.5586629483678464  0.7904150660076593  0.4241636017004160
  0.5780827881525039  0.7129959148523508  0.3711470054207794
  0.7434710421995990  0.8294407783065811  0.3650825896553064
  1.2014752994196152  0.5616151094500985  0.5566531583066732
  1.1239079946865285  0.4179361691159843  0.6030509664087773
  1.0863173055406179  0.5310063933851419  0.5140005389322294
  0.9381905351616571  0.3685330048167035  0.5342587993725186
  0.9577864540375977  0.2968811690910825  0.5929934833055110
  1.1130854948292110  0.5466488285670252  0.4238488921141440
  0.9805278117299737  0.3850823366462692  0.3910288265866397
  0.8725737352460108  0.2780391875370716  0.4579964341068424
  1.2407237105057158  0.5743246221455175  0.4146757545398568
  1.1961771289575704  0.4462169992671960  0.3675067817422082
  1.0300802795849417  0.3252070658461058  0.3574362561510002
  1.3062001797008971  0.5979934903765526  0.4953956706308670
  1.2814135469670735  0.4650965078899070  0.5024872711826635
  1.2158022033605727  0.3745821881021691  0.4262271938506709
  1.1734913106969516  0.3580962558460092  0.5694534233811852
  1.0409440999043735  0.1965312046118675  0.5366371194538861
  1.0676704735550706  0.2121292275084586  0.4464845185007376
  0.9525090739943985  0.1815267905736598  0.4038307324341692
  0.8477718350949905  0.1451315595572362  0.4650992052327629
  0.9132609045497857  0.1687885041320781  0.5458192498754442
 -0.1123546413504514  0.4574393011816078  0.4337434582027382
 -0.2410194175108110  0.4231454602464355  0.4118106744965263
 -0.0995396255531198  0.4671984619332043  0.5231771544374172
 -0.2203517327323687  0.4389210584062065  0.5560277733849638
 -0.3151790233316869  0.4040969385624341  0.4876027373729640
  0.0506153756703668  0.6268659659919582  0.5473216069287077
  0.0165443450876309  0.6982021610488977  0.5910805160173496
 -0.1483644245915103  0.5821715202038239  0.5981474539546013
  0.1206788685657887  0.7150509783638332  0.4689502620834069
  0.1498184006796274  0.8507060133927781  0.4679571526857420
  0.0756970088624623  0.8316659748227709  0.5437552049607925
  0.0290973821477523  0.6104557240921892  0.3973433298869192
 -0.0169544972713591  0.6726503157635821  0.3574174778782768
  0.0550275979473506  0.8159150553160578  0.3995236955320893
 -0.1818401616573246  0.5566153743567664  0.3644794656920773
 -0.2159124372233448  0.6279518074836589  0.4082297327181350
 -0.0657811596770925  0.7876215156596618  0.4323868225365262
 -0.0529645332977041  0.7973758356855839  0.5218261075147153
 -0.1944413396630310  0.6443437429159933  0.5582237638945330
 -0.2860202801007644  0.5397655992484517  0.4866025820170156
