C 
 1.0000000000000000
    10.4756781796740608    0.0000000000000000    0.0000000000000000
    -2.6906692735361992   13.1266326104113578    0.0000000000000000
     0.0000000000000000    0.0000000000000000   16.0000000000000000
 C  
 108
Direct
  0.5685819253519071  0.0030901602804233  0.6423227167836525
  0.4303940222520564 -0.0031703515986851  0.6421575513379525
  0.6009931725109130 -0.0854417634695326  0.6044390881704600
  0.3755352413036769 -0.0900342266395645  0.5867381136638976
  0.4796466287663203 -0.1401892599357362  0.5636156556915864
  0.6934980524731842 -0.0570280846114347  0.5384976783751976
  0.6468591859750582 -0.1073022814187618  0.4620904222136888
  0.5077674324901590 -0.1536667002826127  0.4767226099212040
  0.7002490235530127  0.0532207016961255  0.5236207554857641
  0.6238448279569215  0.0899739017781390  0.5871358066667736
  0.5198346361689692  0.1401998516635823  0.5637535406941636
  0.6727205543389446  0.0666940058789272  0.4366512967108014
  0.5687801852494282  0.1169242605859982  0.4132702400479307
  0.4923421087103519  0.1536670718753430  0.4767880397261501
  0.6485641947642120 -0.0350304860967860  0.3959632661094769
  0.3062827400879429  0.0569146638814082  0.5378804877760385
  0.3982293772517408  0.0853364090028693  0.6042011356717236
  0.3533210282810845  0.1073525611143275  0.4616472518675382
  0.3521927425760387  0.0351382983785755  0.3955423006659751
  0.4783353834614147  0.0472693176228462  0.3578365762510108
  0.5228019435818640 -0.0471600049019192  0.3577636997987678
  0.2995988175477166 -0.0532782478396315  0.5229690280560494
  0.3277628893276970 -0.0666383725484245  0.4360676567848466
  0.4318638860193891 -0.1168414244154767  0.4129610420150996
  0.5943015553810891  0.4132975998550611  0.5377593713979191
  0.5761746425646331  0.4648668198022390  0.4615295810018640
  0.5193470855586096  0.4446760613457060  0.6040746283035827
  0.4647749697304604  0.5156500063414378  0.4766873603458617
  0.4299503028257962  0.5032361635970184  0.5636499132936615
  0.4374694670882502  0.3582176527839390  0.6421045088832218
  0.3041865707171671  0.3693078551255154  0.6423229212131629
  0.2985933673595482  0.4572815148151639  0.5871401773920970
  0.4425402562913866  0.2702946988565671  0.5866894877105038
  0.5384781202281915  0.3040023976388532  0.5228769638176947
  0.5030004583131262  0.2917940742608959  0.4359569515315066
  0.3110249381683060  0.2243137180676096  0.5636263922767772
  0.2755584151882199  0.2120791269581238  0.4767442822256295
  0.3714939027956314  0.2458071862427699  0.4129178300738798
  0.2219300203345873  0.2828560388459236  0.6044566350272246
  0.4183702324415063  0.4098929786859585  0.3577661657347397
  0.5364553248631787  0.3934058947143408  0.3954064400811990
  0.3208939549081236  0.3180121995369883  0.3577632876108110
  0.2032512062468380  0.3344559054620230  0.3959945200801891
  0.1641037143246145  0.2628815621704040  0.4621461688977336
  0.1463273597021927  0.3142489485242081  0.5385598525407896
  0.3682704176006872  0.4820361874357926  0.4132040981187300
  0.2369344993999353  0.4359796041609181  0.4366561765369862
  0.2021209031005780  0.4236115435657737  0.5236385693222962
 -0.2374398740020034  0.2578228285059397  0.5971197780141823
 -0.3119142336473562  0.3314136993598243  0.5677118661474965
 -0.1263668613792549  0.3128195219310641  0.6416444190800937
 -0.1327907104501878  0.4201196151057033  0.6394874214171991
 -0.2514034468971660  0.4336079338653691  0.5964761383740651
 -0.0070814553127568  0.2970649433022043  0.6007603719647119
  0.0539556600174957  0.3976082708167767  0.5688087327180240
 -0.0209552172224824  0.4727056515352516  0.5943266545837633
 -0.0521630022532645  0.2376857282986858  0.5263805256115508
 -0.0058406460363624  0.2930192656267842  0.4503547450525714
  0.0546911626886299  0.3951902795161071  0.4791285368664199
 -0.1933693618097535  0.2048336146896959  0.5261127562245692
 -0.2362649387118521  0.2539009268152480  0.4525078470880709
 -0.1244426803993231  0.3064908162457146  0.4073295767461702
 -0.3111757961726469  0.3289729111903198  0.4780329179491580
 -0.2501490796610112  0.4295116318436288  0.4460762393019986
 -0.1308555046897999  0.4137868852907971  0.4051901713675372
 -0.0197768568851672  0.4687830922961694  0.4497212335829278
 -0.0638622489356101  0.5217822704919310  0.5207291458183541
 -0.2050795969569445  0.4889286109313915  0.5204440693646109
  0.1900156432641950  0.1254395373473426  0.5411704926957390
  0.0877703375384979  0.1843797937970789  0.5395341374620654
  0.1892655775651136  0.0753708181395325  0.4618165666318199
  0.0865172304216479  0.1036267169836933  0.4115747008074251
  0.0246977844374564  0.1755707230656263  0.4575424955653508
  0.1632386901051181 -0.0349721098563453  0.4745273694553104
  0.0366019552736665 -0.0716026588118552  0.4349996803538141
 -0.0081520218129034  0.0124794898014455  0.3949347441851830
  0.1377785672559336 -0.0481851510262700  0.5637505380481883
  0.0057346088014054 -0.1038347693917724  0.5797097387041997
 -0.0573054888172632 -0.1126604920770006  0.4977189293276828
  0.1645194944812552  0.0490154140803557  0.6075945211986924
  0.0386081877478086  0.0592356110504206  0.6423205308225058
 -0.0560837823456159 -0.0319087145030282  0.6256932802214894
 -0.0061143892821308  0.1433151437783122  0.6022632128547734
 -0.1327524944998624  0.1066890177460842  0.5627432842961108
 -0.1588092139576354 -0.0036540763273146  0.5754391613149308
 -0.1595517916437829 -0.0537242276599175  0.4960799648043560
 -0.1340643859827918  0.0227136069019757  0.4296532962622386
 -0.1073408624064884  0.1199142636277061  0.4735120792275454
  0.5813454355817179  0.7476468817579970  0.4445339213992084
  0.5506950863068957  0.6369824749064465  0.4461217918645741
  0.6934241716604033  0.7782962452503955  0.3919979924872911
  0.7314513866872582  0.6863871076823244  0.3614204455461477
  0.6400984583320924  0.5963505956060805  0.3915706574125332
  0.7994264124204207  0.8387907458268269  0.4408614929798736
  0.8994620875054066  0.7768087268374450  0.4434986155718811
  0.8592335250180982  0.6854687349105525  0.3933499586331896
  0.7490307526256513  0.8353279081173840  0.5258810575054559
  0.8257270199596505  0.7858328684840041  0.5825120327185715
  0.9151378383550088  0.7452346884823705  0.5279600489863474
  0.6114497468388762  0.7873911761316459  0.5289450260788124
  0.6066040692485670  0.6967456123850641  0.5807367539734496
  0.7343792289588936  0.6958104663945175  0.6126807818702072
  0.5663639998872896  0.6054290925962035  0.5305890635960556
  0.6663895561426190  0.5434434315850908  0.5332317545120810
  0.7724113910669225  0.6039171065474275  0.5820885781380897
  0.8844937483275331  0.6345722781424069  0.5295470847078413
  0.8543801933714089  0.5948123069106437  0.4451314077473661
  0.7167919738202092  0.5468644767184667  0.4482114438733126
