C 
 1.0000000000000000
     9.1464302001222713    0.0000000000000000    0.0000000000000000
    -0.5246778514198155    9.9203215699721508    0.0000000000000000
     0.0000000000000000    0.0000000000000000   16.0000000000000000
 C  
  88
Direct
 -0.1660195960776944  0.0868424403655380  0.5988781385956019
 -0.0280358668900323  0.0765157647869733  0.6401878840849723
 -0.1534251047376037  0.1808026231728201  0.5310276989638851
  0.0824721767927619  0.1468620835819765  0.5854421752207309
  0.0060112771366975  0.2103790454532324  0.5187531835417072
 -0.2055888304775251  0.1192714783546867  0.4550309029540149
 -0.0965113088742406  0.1325671997791303  0.3908045723643463
  0.0406592489177980  0.1811189058268003  0.4330800733124827
 -0.2252663877166238 -0.0272083118581378  0.4726933184860124
 -0.2010679732286782 -0.0470146004811655  0.5606807240472595
 -0.0928251286398955 -0.1373225935844956  0.5883313703136789
 -0.1412492029422871 -0.0977419939115299  0.4122718977867809
 -0.0330770904225738 -0.1880455598325298  0.4399029502114860
 -0.0088448940066513 -0.2078416299763792  0.5279002337976141
 -0.0680557001949976  0.0038031768488265  0.3559244003230402
  0.1534790653208805 -0.0753118098897257  0.6091311767790093
  0.0111487721939047 -0.0609473150198039  0.6443077178595643
  0.1486661448324796 -0.1764468198014935  0.5451823144052463
  0.2103244891399517 -0.1236414068949231  0.4689276920905623
  0.1089826249561933 -0.1440407262044312  0.4013266096042054
  0.0849722283827567 -0.0193539175248360  0.3597060215564630
  0.1935099965746327  0.0539942459916545  0.5664652922519584
  0.2280962246141610  0.0245872788581760  0.4808059733072436
  0.1516448353465838  0.0881724419596365  0.4141194803296930
  0.0549486066015076  0.4704118886040797  0.6505315186431968
  0.1673421888932685  0.5585719811229461  0.6148928879613318
 -0.0839419907179686  0.5304336034109518  0.6474822997599069
  0.0904396577131681  0.6673415229859303  0.5725012864110526
 -0.0629476019805415  0.6501102853087917  0.5922843946045057
 -0.1905966690704087  0.4424298940189287  0.6068253985762684
 -0.2582391284637833  0.5100249858136142  0.5390106268172628
 -0.1695692444817948  0.6377038941203004  0.5261365391489613
 -0.1081507743542798  0.3337077747626482  0.5682545381326491
  0.0420283354750702  0.3508404897662583  0.5950013351686553
  0.1577650499304422  0.3635123798168333  0.5340129096919847
 -0.1427173624018387  0.3291933756934812  0.4804760216127777
 -0.0270354883789072  0.3418197586654546  0.4195063195974413
  0.1231653832356376  0.3589826490430958  0.4462490345102720
 -0.2474803639684640  0.4350009993105668  0.4630346381348847
  0.2437866177268369  0.5662702850724414  0.4743918265703972
  0.2446343235976582  0.4911981976157248  0.5508009487269024
  0.1877299231934808  0.4837348714948692  0.4069951916357635
  0.0695368530347707  0.5457576290094157  0.3659204720717259
 -0.0578559358760630  0.4556629469896293  0.3633194933819160
 -0.1818290390714747  0.5176327248797494  0.3984659138325990
  0.1372314392867632  0.6720608193594371  0.4865668340665778
  0.0306727295960247  0.6595179589536713  0.4203942579187016
 -0.1227364889473112  0.6423394052029717  0.4402004672385135
  0.3759171031371225  0.0901816929098549  0.5313806832690006
  0.5195612328828463  0.1181372129920170  0.5681787070576978
  0.3960185592649333  0.0704878124371422  0.4433418375703873
  0.5520011217410676  0.0864211177496135  0.4262090855116975
  0.6329371885009689  0.1107534862519078  0.5040922153081542
  0.3178126007863656  0.1714333225694604  0.3971240449114413
  0.4331295164810366  0.2547269060713891  0.3559347900336374
  0.5750167849214426  0.2006682030636682  0.3719950251046678
  0.2611528313478610  0.2583912482004633  0.4614526656374176
  0.3227143748305529  0.3960433293394979  0.4538705717036440
  0.4360462098232890  0.3886495490979921  0.3897737232211341
  0.2841073894528519  0.2044229949372490  0.5447679806673663
  0.3805933598400335  0.3061287673589536  0.5859575248049991
  0.4036223461947837  0.4203978782018615  0.5317564675248938
  0.5224439525371199  0.2520558448635702  0.6020201308716384
  0.6377598226567860  0.3353526491419587  0.5608393378779077
  0.5595924258772246  0.4363082222522476  0.5146119128592560
  0.5796899284478452  0.4166066660938893  0.4265676884101492
  0.6715210931085321  0.3023601781981766  0.4131861430121843
  0.6944801703949961  0.2484136954511942  0.4965142461307295
  0.6142905197282991  0.8789823477654527  0.5672798420339038
  0.4914318246298388  0.8040810254833783  0.6059744946991810
  0.5581417920732846  0.9538040304144122  0.4987135147664072
  0.4008675589692579  0.9246961093344718  0.4953961806028646
  0.3549569213342202  0.8353249675582460  0.5642933168076204
  0.6260930901100800  0.9113795512187856  0.4209434956481022
  0.5055968453412890  0.8472502557063356  0.3728169197991535
  0.3682763061410710  0.8586301868723362  0.4173166660343418
  0.7151416225791117  0.8006665249843484  0.4454562300641904
  0.6655926065308190  0.6751008151250294  0.4050134431066724
  0.5291556681070588  0.7063683868248063  0.3633216300960329
  0.7202471819999169  0.7859330559457328  0.5359429736225685
  0.6523095971235585  0.6518097636786987  0.5519768577120028
  0.6197126205836699  0.5857132758194090  0.4739035724070790
  0.5150243615063641  0.6632068300348234  0.5964790085739469
  0.3945327789483440  0.5990690300950984  0.5483587267629345
  0.4624436723840095  0.5566357572733305  0.4705814120456680
  0.4062959339234721  0.6314685601752374  0.4020122501779032
  0.3003201103507994  0.7245146577913415  0.4333578577203315
  0.3054284210992003  0.7097525246647060  0.5238498033412832
