C 
 1.0000000000000000
    14.7405565305503394    0.0000000000000000    0.0000000000000000
     0.0000000000000000    9.5837580576353414    0.0000000000000000
     0.0000000000000000    0.0000000000000000   16.0000000000000000
 C  
  84
Direct
  0.0709386834187681  0.6432657172829781  0.6243726386859890
 -0.0102991712942756  0.5657069840905571  0.6405947980775435
  0.1332765683584345  0.5627150833096675  0.5755023644311045
 -0.0062127119085209  0.4414294759354439  0.5853815172963517
  0.0813547403591055  0.4396555662745763  0.5455602856501828
  0.1596655587289019  0.6376898016642218  0.5020444976529667
  0.1433957007504366  0.5560872205835529  0.4284709980999925
  0.0876833360146923  0.4355292206410903  0.4557820203925368
  0.0976410780971000  0.7592749394338165  0.4963217170345427
  0.0433843435081653  0.7626667851153551  0.5711522966702985
 -0.0541281370104838  0.7624225967234450  0.5653962478312169
  0.0544171175692644  0.7556758962211703  0.4156549435974290
 -0.0430547264128580  0.7554721783957160  0.4098919016414743
 -0.0973257235821706  0.7588355953414607  0.4847284140306514
  0.0889856387046249  0.6317945475956736  0.3698098297620454
 -0.1431124333991896  0.5620547527313975  0.5588970909351572
 -0.0887249558519054  0.6428565409085401  0.6151151424426867
 -0.1594039976617193  0.6369934530502013  0.4828598975179407
 -0.1330121386195750  0.5555406018701786  0.4118779933772997
 -0.0706337750118788  0.6315062503699996  0.3605368679002656
  0.0105722401553931  0.5525220949832166  0.3467230359221294
 -0.0874627959638638  0.4391893343496951  0.5354262031835302
 -0.0811764542204497  0.4352112025319455  0.4456447808157644
  0.0064154485516924  0.4333809515337116  0.4058361303171016
 -0.0515236187187092  0.2784644870982104  0.5380175576186768
 -0.0753237147496510  0.2484358439320644  0.4517430256621929
  0.0456433045148456  0.2786778986819887  0.5438208720834500
  0.0813645340004869  0.2487356780661014  0.4610899180063834
  0.0069103929288769  0.2351261756329633  0.4011789010070604
  0.0745957404433379  0.1709250135282970  0.6028276617442807
  0.1239145730275688  0.0697696320801558  0.5516333033728805
  0.1299145344503918  0.1191882912798700  0.4659353371482329
 -0.0088213706383232  0.0994048751456063  0.6261885113560914
 -0.0069556842663939 -0.0466708886530035  0.6012079576387719
  0.0752848837434086 -0.0599696365485665  0.5506700535071174
 -0.0883518355475731  0.1706051248135316  0.5930900609851159
 -0.1299541754334032  0.0692673472608680  0.5364767901733072
 -0.0814184198754657 -0.0603006347187320  0.5413133385448831
 -0.1239598234017096  0.1187033868009466  0.4507980200863945
 -0.0746503529424412  0.0175465722600382  0.3996026843209947
 -0.0456840127756159 -0.0902211057009404  0.4585904844674399
  0.0514888521650660 -0.0900007402869598  0.4643966797897942
  0.0883141775772752  0.0178637464383671  0.4093107051702402
  0.0087686322684509  0.0890441836469223  0.3762083341895422
  0.3554435412843071  0.0050485188901228  0.6413290349624373
  0.2886597707558304 -0.1064128797684038  0.6391729939143126
  0.3206440225597563  0.1186690927024537  0.5924657215488930
  0.2325399074173466  0.0767774248131374  0.5603554854894880
  0.2089445844763246 -0.0619918307393929  0.5916485741130729
  0.3826791222099917  0.1473680904843398  0.5232043847712278
  0.3308024029937813  0.1121594364335831  0.4481869791415820
  0.2388347729017877  0.0727555833470236  0.4708794963062315
  0.4514120068591932  0.0386208947247632  0.5290625014637144
  0.4515882506265815 -0.0499462026670173  0.4551140625937838
  0.3718933793038279 -0.0054912805430472  0.4075915871347267
  0.4410257985096759 -0.0431582505656977  0.6051666020077240
  0.4217195916461676 -0.1846665117878304  0.5758802008739833
  0.4280154277274346 -0.1887214454802263  0.4864011456713764
  0.3297695370303608 -0.2240526258508513  0.5985840537072180
  0.2778960126404827 -0.2592732480859642  0.5235706520153350
  0.3399098598018931 -0.2305812892599611  0.4542951002448024
  0.3051094360890573 -0.1169483679415107  0.4054322534947258
  0.2195147562034494 -0.0687533576625765  0.4415988573839473
  0.2091344206496111 -0.1505621164894181  0.5177006518530930
 -0.3720093943162715  0.0036204277804120  0.5978571010297959
 -0.3052989218167260 -0.1075789031451574  0.6036785560220316
 -0.3308375746655149  0.1173901438775796  0.5535337665495953
 -0.2389001688427690  0.0758519224902791  0.5321826500448703
 -0.2196613352476503 -0.0628332436660201  0.5660354693834907
 -0.3826879755382416  0.1458655686104581  0.4774667345683872
 -0.3206687085782383  0.1108805081935021  0.4092556507555029
 -0.2325889439480540  0.0718301131399590  0.4427076384852755
 -0.4514863980914869  0.0368483798004574  0.4751061038920992
 -0.4411454471643556 -0.0516987628599346  0.4017650987906890
 -0.3555283338800004 -0.0069193103588191  0.3641215190256619
 -0.4517237132704852 -0.0449108418036715  0.5518166931748395
 -0.4282388200349311 -0.1863350981553368  0.5250874497421336
 -0.4219280729789938 -0.1903900025754193  0.4356092856059780
 -0.3401781023971221 -0.2253678260803317  0.5585485846146695
 -0.2781625451492726 -0.2603648682362115  0.4903410921305307
 -0.3299898667751481 -0.2318963954298640  0.4142624943811544
 -0.2888172355669558 -0.1181143284567594  0.3699397291436518
 -0.2090911635205256 -0.0695947705892036  0.4159857526543651
 -0.2093339299542278 -0.1513836279603963  0.4926933591471632
