Generated by VASPKIT code               
   1.00000000000000     
    20.1623646845630269    1.0333519325864184    0.0000000000000000
    -9.2212004098796125   14.5947336034030659    0.0000000000000000
     0.0000000000000015    0.0000000000000021   19.7144307193548727
  C             
   108
Direct
  0.2583292742197680  0.6656366258262524  0.4011342280469840
  0.7416694526142358  0.3343643014406802  0.4011335759203600
  0.1925720314096279  0.6020162314971518  0.4440570880006841
  0.8074274073480954  0.3979841450003770  0.4440566001765210
  0.3075195595216658  0.6273581262436109  0.3865584880089319
  0.6924793376692411  0.3726421111644252  0.3865583131227738
  0.2226183057614970  0.5424169210490273  0.4709166589868743
  0.7773812980911746  0.4575830474895317  0.4709165733883366
  0.2819268361010991  0.5479505729704863  0.4313083306755719
  0.7180724639532906  0.4520489332238102  0.4313084617917815
  0.3846303933682733  0.6869370362156133  0.3909790651465435
  0.6153690759461955  0.3130618710936326  0.3909795901890158
  0.4186028381627750  0.6413527628420143  0.4330846641681273
  0.5813972374198856  0.3586458145274232  0.4330852885853137
  0.3492106225959902  0.5588443696154765  0.4685336054765947
  0.6507889619968950  0.4411547912548155  0.4685342088383677
  0.3886826597263944  0.7690128416792164  0.4293442455591199
  0.6113176885939898  0.2309871834240704  0.4293451842085333
  0.3053810651889683  0.7403068358126593  0.4396165964821859
  0.6946192268105867  0.2596943112285476  0.4396167520948221
  0.2729474185196969  0.7384553527980859  0.5056476940239775
  0.7270531938320319  0.2615454848971296  0.5056478049145937
  0.4277322158647981  0.7648462735935246  0.4984231010382793
  0.5722679130304144  0.2351534386974556  0.4984239819650153
  0.3934982294024368  0.7705606370642739  0.5697740619404378
  0.6065021566802127  0.2294397555533373  0.5697750383545964
  0.3101339380948113  0.7422533176312579  0.5662213395536669
  0.6898668317539746  0.2577480391714599  0.5662221939540668
  0.4483579885607095  0.6955564683523160  0.4970398898205619
  0.5516422018811434  0.3044430123045662  0.4970409984868732
  0.1945008114378335  0.6035885466618014  0.5727750812051841
  0.8054996132641543  0.3964123820579850  0.5727751881425628
  0.1977211686192972  0.6572810653234769  0.5082342139209156
  0.8022792755923340  0.3427199624421506  0.5082339376031864
  0.2654554557747266  0.6694772211632323  0.6117072763065458
  0.7345451856812489  0.3305237705300461  0.6117076818983052
  0.3152434169767744  0.6349102744683460  0.6246235379401336
  0.6847581109328864  0.3650914439060524  0.6246257205214100
  0.3939580279936094  0.6920216120235141  0.6099504760125329
  0.6060429145964056  0.3079791664133167  0.6099517208390999
  0.4224007060231819  0.6394929683003333  0.5622840812243357
  0.5775991156679671  0.3605065223136468  0.5622848453033711
  0.2204176970152433  0.5412720604100685  0.5444667103952294
  0.7795819356545985  0.4587281675375356  0.5444664926907032
  0.2849471766526089  0.5536309276830772  0.5817055056638673
  0.7150529492048636  0.4463692052289216  0.5817062504091709
  0.3454479119771028  0.5740155235569498  0.5407826770135367
  0.6545519490289751  0.4259840485561109  0.5407834300234100
  0.3961164845762353  0.9192210850594021  0.5330503545966115
  0.0726065199357840  0.4629688631178437  0.5443213149891000
  0.5385541428837061  0.6247363151091323  0.5197643448075312
  0.4248120851433448  0.0106228564088028  0.5556799987940997
  0.9953878561397258  0.4035255192887186  0.5670585795474660
  0.5836866514420141  0.5843313443483388  0.5420473393356240
  0.3962917393295496  0.9196395876063496  0.4629743116696898
  0.0718108716724235  0.4627342688818956  0.4743995518107285
  0.5382818693056949  0.6231258443796120  0.4497398633350552
  0.4252352310591970  0.0110008817808368  0.4401459272010739
  0.9951683341444434  0.4033199851845835  0.4512173986624317
  0.5840342195261410  0.5847182356280839  0.4257005109128901
  0.4382351389047002  0.0667345926372819  0.4978439283315156
  0.9489374285914833  0.3616038662489218  0.5091204406197237
  0.6157529097654121  0.5673916120902400  0.4838345520335912
  0.4408250653521013  0.8779777734504000  0.4338366845184680
  0.1030907493478614  0.5549489843097610  0.4456419336262901
  0.4601213264373321  0.5779402163535023  0.4217365157080921
  0.5069673178349857  0.9629922486286034  0.4016929767980275
  0.0301704400657865  0.5452790744134309  0.4130912672763434
  0.4624390730875313  0.4947503686466568  0.3873783156365320
  0.4930340390773071  0.0370078128924137  0.4016930174142364
  0.9698299250329769  0.4547215411768968  0.4130913984114981
  0.5375586948382040  0.5052463577115799  0.3873790057634528
  0.4799334661132335  0.8650242488055984  0.4976407065970639
  0.1126046844835252  0.6158540044938189  0.5089371656278608
  0.4055973983586196  0.5260094838698746  0.4810229255728116
  0.5617656524928230  0.9332653218658973  0.4978440081045906
  0.0510626574944817  0.6383966244834972  0.5091201623291598
  0.3842457780357192  0.4326069311116712  0.4838361169615913
  0.5747656232637424  0.9889994673959519  0.4401466635697960
  0.0048318277387249  0.5966809434886856  0.4512170490393495
  0.4159634285295322  0.4152788026188947  0.4257018061456974
  0.4421950483003633  0.8787673554888374  0.5621248056767379
  0.1038564993648607  0.5561430015066317  0.5726922267410444
  0.4595250917564940  0.5770147347820597  0.5493285697594816
  0.5074309465788091  0.9633440601135588  0.5938638791365988
  0.0302366107614823  0.5455033891344854  0.6048772999609369
  0.4621131937910169  0.4944922418642798  0.5797712926074214
  0.5751882902236432  0.9893765030992842  0.5556805321494669
  0.0046127000417785  0.5964759436225109  0.5670585886648156
  0.4163134632657192  0.4156684176490681  0.5420485176337272
  0.4925691488704760  0.0366551213556475  0.5938640187467754
  0.9697640833172535  0.4544984070609941  0.6048772461079126
  0.5378873393633826  0.5055091037976802  0.5797712504328543
  0.5578059846954130  0.1212324201383495  0.5621248915823867
  0.8961439771842035  0.4438582496609784  0.5726923367833280
  0.5404750217255564  0.4229853194996130  0.5493292162283162
  0.6038838352110656  0.0807786380471478  0.5330514472211959
  0.9273939184414948  0.5370325304915687  0.5443213246878489
  0.4614458260502068  0.3752638900699411  0.5197657228179084
  0.6037086139575960  0.0803602963432625  0.4629747192488799
  0.9281892821080311  0.5372666560369230  0.4743994979756062
  0.4617158390752882  0.3768715866787730  0.4497411571139223
  0.5591753637135409  0.1220225371668296  0.4338370788562192
  0.8969093596755550  0.4450517980590373  0.4456419183334767
  0.5398767970907666  0.4220564909221512  0.4217370666837743
  0.5200668949912977  0.1349752388974052  0.4976416142450548
  0.8873955675662637  0.3841468951720812  0.5089373812923398
  0.5944014266603972  0.4739886276149301  0.4810232330671972
 
  0.00000000E+00  0.00000000E+00  0.00000000E+00
  0.00000000E+00  0.00000000E+00  0.00000000E+00
  0.00000000E+00  0.00000000E+00  0.00000000E+00
  0.00000000E+00  0.00000000E+00  0.00000000E+00
  0.00000000E+00  0.00000000E+00  0.00000000E+00
  0.00000000E+00  0.00000000E+00  0.00000000E+00
  0.00000000E+00  0.00000000E+00  0.00000000E+00
  0.00000000E+00  0.00000000E+00  0.00000000E+00
  0.00000000E+00  0.00000000E+00  0.00000000E+00
  0.00000000E+00  0.00000000E+00  0.00000000E+00
  0.00000000E+00  0.00000000E+00  0.00000000E+00
  0.00000000E+00  0.00000000E+00  0.00000000E+00
  0.00000000E+00  0.00000000E+00  0.00000000E+00
  0.00000000E+00  0.00000000E+00  0.00000000E+00
  0.00000000E+00  0.00000000E+00  0.00000000E+00
  0.00000000E+00  0.00000000E+00  0.00000000E+00
  0.00000000E+00  0.00000000E+00  0.00000000E+00
  0.00000000E+00  0.00000000E+00  0.00000000E+00
  0.00000000E+00  0.00000000E+00  0.00000000E+00
  0.00000000E+00  0.00000000E+00  0.00000000E+00
  0.00000000E+00  0.00000000E+00  0.00000000E+00
  0.00000000E+00  0.00000000E+00  0.00000000E+00
  0.00000000E+00  0.00000000E+00  0.00000000E+00
  0.00000000E+00  0.00000000E+00  0.00000000E+00
  0.00000000E+00  0.00000000E+00  0.00000000E+00
  0.00000000E+00  0.00000000E+00  0.00000000E+00
  0.00000000E+00  0.00000000E+00  0.00000000E+00
  0.00000000E+00  0.00000000E+00  0.00000000E+00
  0.00000000E+00  0.00000000E+00  0.00000000E+00
  0.00000000E+00  0.00000000E+00  0.00000000E+00
  0.00000000E+00  0.00000000E+00  0.00000000E+00
  0.00000000E+00  0.00000000E+00  0.00000000E+00
  0.00000000E+00  0.00000000E+00  0.00000000E+00
  0.00000000E+00  0.00000000E+00  0.00000000E+00
  0.00000000E+00  0.00000000E+00  0.00000000E+00
  0.00000000E+00  0.00000000E+00  0.00000000E+00
  0.00000000E+00  0.00000000E+00  0.00000000E+00
  0.00000000E+00  0.00000000E+00  0.00000000E+00
  0.00000000E+00  0.00000000E+00  0.00000000E+00
  0.00000000E+00  0.00000000E+00  0.00000000E+00
  0.00000000E+00  0.00000000E+00  0.00000000E+00
  0.00000000E+00  0.00000000E+00  0.00000000E+00
  0.00000000E+00  0.00000000E+00  0.00000000E+00
  0.00000000E+00  0.00000000E+00  0.00000000E+00
  0.00000000E+00  0.00000000E+00  0.00000000E+00
  0.00000000E+00  0.00000000E+00  0.00000000E+00
  0.00000000E+00  0.00000000E+00  0.00000000E+00
  0.00000000E+00  0.00000000E+00  0.00000000E+00
  0.00000000E+00  0.00000000E+00  0.00000000E+00
  0.00000000E+00  0.00000000E+00  0.00000000E+00
  0.00000000E+00  0.00000000E+00  0.00000000E+00
  0.00000000E+00  0.00000000E+00  0.00000000E+00
  0.00000000E+00  0.00000000E+00  0.00000000E+00
  0.00000000E+00  0.00000000E+00  0.00000000E+00
  0.00000000E+00  0.00000000E+00  0.00000000E+00
  0.00000000E+00  0.00000000E+00  0.00000000E+00
  0.00000000E+00  0.00000000E+00  0.00000000E+00
  0.00000000E+00  0.00000000E+00  0.00000000E+00
  0.00000000E+00  0.00000000E+00  0.00000000E+00
  0.00000000E+00  0.00000000E+00  0.00000000E+00
  0.00000000E+00  0.00000000E+00  0.00000000E+00
  0.00000000E+00  0.00000000E+00  0.00000000E+00
  0.00000000E+00  0.00000000E+00  0.00000000E+00
  0.00000000E+00  0.00000000E+00  0.00000000E+00
  0.00000000E+00  0.00000000E+00  0.00000000E+00
  0.00000000E+00  0.00000000E+00  0.00000000E+00
  0.00000000E+00  0.00000000E+00  0.00000000E+00
  0.00000000E+00  0.00000000E+00  0.00000000E+00
  0.00000000E+00  0.00000000E+00  0.00000000E+00
  0.00000000E+00  0.00000000E+00  0.00000000E+00
  0.00000000E+00  0.00000000E+00  0.00000000E+00
  0.00000000E+00  0.00000000E+00  0.00000000E+00
  0.00000000E+00  0.00000000E+00  0.00000000E+00
  0.00000000E+00  0.00000000E+00  0.00000000E+00
  0.00000000E+00  0.00000000E+00  0.00000000E+00
  0.00000000E+00  0.00000000E+00  0.00000000E+00
  0.00000000E+00  0.00000000E+00  0.00000000E+00
  0.00000000E+00  0.00000000E+00  0.00000000E+00
  0.00000000E+00  0.00000000E+00  0.00000000E+00
  0.00000000E+00  0.00000000E+00  0.00000000E+00
  0.00000000E+00  0.00000000E+00  0.00000000E+00
  0.00000000E+00  0.00000000E+00  0.00000000E+00
  0.00000000E+00  0.00000000E+00  0.00000000E+00
  0.00000000E+00  0.00000000E+00  0.00000000E+00
  0.00000000E+00  0.00000000E+00  0.00000000E+00
  0.00000000E+00  0.00000000E+00  0.00000000E+00
  0.00000000E+00  0.00000000E+00  0.00000000E+00
  0.00000000E+00  0.00000000E+00  0.00000000E+00
  0.00000000E+00  0.00000000E+00  0.00000000E+00
  0.00000000E+00  0.00000000E+00  0.00000000E+00
  0.00000000E+00  0.00000000E+00  0.00000000E+00
  0.00000000E+00  0.00000000E+00  0.00000000E+00
  0.00000000E+00  0.00000000E+00  0.00000000E+00
  0.00000000E+00  0.00000000E+00  0.00000000E+00
  0.00000000E+00  0.00000000E+00  0.00000000E+00
  0.00000000E+00  0.00000000E+00  0.00000000E+00
  0.00000000E+00  0.00000000E+00  0.00000000E+00
  0.00000000E+00  0.00000000E+00  0.00000000E+00
  0.00000000E+00  0.00000000E+00  0.00000000E+00
  0.00000000E+00  0.00000000E+00  0.00000000E+00
  0.00000000E+00  0.00000000E+00  0.00000000E+00
  0.00000000E+00  0.00000000E+00  0.00000000E+00
  0.00000000E+00  0.00000000E+00  0.00000000E+00
  0.00000000E+00  0.00000000E+00  0.00000000E+00
  0.00000000E+00  0.00000000E+00  0.00000000E+00
  0.00000000E+00  0.00000000E+00  0.00000000E+00
  0.00000000E+00  0.00000000E+00  0.00000000E+00
  0.00000000E+00  0.00000000E+00  0.00000000E+00
