C 
 1.0000000000000000
    10.2953225980455034    0.0000000000000000    0.0000000000000000
     0.0000000000000000   10.2953225980455034    0.0000000000000000
     0.0000000000000000    0.0000000000000000   16.0000000000000000
 C  
  88
Direct
  0.3815429616972440 -0.0017621123740631  0.6281515222838434
  0.5145161668829157  0.0255993042607092  0.6479489632308396
  0.3274720676435105  0.0988299250914785  0.5770194244703017
  0.5531547969065997  0.1351443074707527  0.5930179826755830
  0.4390675189132713  0.1797616008463472  0.5496366370933861
  0.2727448617309888  0.0453875621132976  0.5023112215973067
  0.3260559942511210  0.1072354264761946  0.4297414173396411
  0.4380278504810631  0.1850380587158477  0.4597018548199141
  0.3167794769220338 -0.0917476117652549  0.4987623952485339
  0.3833138103633214 -0.1205637662590741  0.5757407001399435
  0.5144843585896234 -0.1691398138630030  0.5740069153040616
  0.3813665223962548 -0.1115252267643125  0.4199688153825399
  0.5124699351576095 -0.1601164031722283  0.4182262425605911
  0.5790322151091868 -0.1889147812582568  0.4952111518087292
  0.3783833322235709  0.0130505401100165  0.3731399688296942
  0.6992707775677665 -0.0388863743901677  0.5718150340107666
  0.5963088504171670 -0.0812879695295448  0.6254798053051112
  0.7019370956006080 -0.1136529540451557  0.4962878580565155
  0.6978421877657648 -0.0305892765754281  0.4245496978965387
  0.5930517358393642 -0.0665589401716357  0.3704505968287281
  0.5107994003115499  0.0426678356705477  0.3535574274163678
  0.6661808672885244  0.0956999308731452  0.5464663695258616
  0.6651499113223320  0.1008259383951916  0.4565297027710580
  0.5510473046186085  0.1455048001445943  0.4131600975917021
  0.1612342640638253  0.5546219533462824  0.6197307957700100
  0.0299282741867817  0.5409549753761926  0.6481385338366155
  0.2051447897779976  0.4377851899050416  0.5801799875217084
 -0.0193379661540595  0.4192145416514030  0.6098924185040401
  0.0875234377223430  0.3562994157742193  0.5683195052251091
  0.2531803968508451  0.4647194593339520  0.4980326234023219
  0.1891726711901923  0.3851934251160621  0.4371062813777349
  0.0779386592564837  0.3240342518901230  0.4809629209733913
  0.2144125893354834  0.6003717681486431  0.4790421242369623
  0.1581857306975034  0.6553399335223219  0.5534891218654703
  0.0292404341409164  0.7094916634910863  0.5511419570098813
  0.1417344264971616  0.5995455357829350  0.4021639360348128
  0.0128556163001939  0.6537058167216035  0.3998034433396001
 -0.0433990396778978  0.7086600636055918  0.4742603246616389
  0.1342733303158035  0.4632679136469568  0.3720020452103653
 -0.1603789125675369  0.5912177877999256  0.5732396127317272
 -0.0498692006742022  0.6433272646375890  0.6160521541899731
 -0.1687673481712843  0.6418963370154404  0.4899973614710348
 -0.1763327301550622  0.5387353506194041  0.4301640506031247
 -0.0767316767686370  0.5520445684655175  0.3682914554957062
 -0.0011258479551301  0.4355208234236483  0.3621475448430514
 -0.1357583082196823  0.4499653189512677  0.5640965171072185
 -0.1453459305896062  0.4178474431531804  0.4767194033974528
 -0.0384703723072718  0.3548747054650413  0.4351651290272018
  0.1382439762685531  0.1409220640323005  0.5445114051937743
  0.1537130727781521  0.0050077705526936  0.5668748875709644
  0.0155482712246437  0.1836944910045981  0.5770190027753099
 -0.0441615946992592  0.0739474441743359  0.6192813385976230
  0.0430028816488475 -0.0382269404285256  0.6169880612050475
 -0.0670215903971675  0.2271202720117378  0.5080597586943869
 -0.1744311981223500  0.1341628146877411  0.5065930312000728
 -0.1619870072426820  0.0432377009238287  0.5756132784329903
  0.0076988769499929  0.1979989998715613  0.4330647235071398
 -0.0588223309320552  0.1038709356823638  0.3803183641666938
 -0.1695354632086417  0.0606780100198070  0.4304252744362969
  0.1387538738877883  0.1554001880835958  0.4535650946026695
  0.1461610142356462  0.0224420665473514  0.4216822797795723
  0.0283444767163949 -0.0082932791442755  0.3780042650229336
  0.1586202220747677 -0.0684522194608326  0.4906984370432250
  0.0512218126231557 -0.1614149495135876  0.4892281522872880
 -0.0313724245327740 -0.1180156454702448  0.4202770900738846
 -0.1540725599174429 -0.0752343185628487  0.4527885205562217
 -0.1545768048481977 -0.0897292302977816  0.5437430819500544
 -0.0235114467502502 -0.1323470347420547  0.5642309858929612
  0.5199677141661022  0.3176055651057071  0.5315933511278391
  0.5798774836812564  0.3162452180356856  0.4493694337029753
  0.5972910248978396  0.3996768527633603  0.5843467345742140
  0.7045616057617574  0.4486235278797008  0.5344184097535875
  0.6992171987759155  0.3933660326912338  0.4502471448657253
  0.5178550473663239  0.5077301916927544  0.6145505644874700
  0.5758196954493261  0.6230843496704930  0.5763927851323406
  0.6912569552360162  0.5871728915095440  0.5294929707382175
  0.3938474228027115  0.4921591672867464  0.5718937975176124
  0.3658732237508533  0.6024160059861173  0.5178063597671625
  0.4851947574920477  0.6795352334165407  0.5187091272363593
  0.3882054312257607  0.3700689769487157  0.5260894405408646
  0.3738115394045499  0.4086147782371922  0.4385818279560977
  0.3604961861295599  0.5471672088063610  0.4336376331541855
  0.4892302218296620  0.3726863811599122  0.3916975662956101
  0.5471873219300186  0.4880336745476589  0.3535340435245539
  0.4677778184157518  0.5961090144358859  0.3837272619701327
  0.5451058364903140  0.6781802164531993  0.4364874597800237
  0.6768819564781462  0.6257099118790862  0.4419814180766997
  0.6712235733607343  0.5036217163605068  0.3961616878067405
