Generated by VASPKIT code               
   1.00000000000000     
    11.7566207170254593   -0.0007619657378708    0.0000000000000000
     0.0000380885726566   12.0173485175191583    0.0000000000000000
     0.0000000000000013    0.0000000000000013   19.7173876362010603
  C             
    88
Direct
  0.5238791918223736  0.8978392828427216  0.6032769281894829
  0.1698438157020162  0.4800337166459000  0.5838741261098652
  0.5712449248808387  0.0050428589989661  0.6205984042691051
  0.0712337567036749  0.4949535964374600  0.6206149055707150
  0.4037486354040165  0.9126115375879480  0.5881018263746423
  0.1494708135528691  0.3839905571654795  0.5423030159449792
  0.4867569923181937  0.0910150018377954  0.5993883101340619
  0.9867337482370316  0.4089393714104769  0.5993906580598358
  0.3869066533257514  0.0348876284032898  0.5800601275670580
  0.0419230263843747  0.3390762219703496  0.5491738023105306
  0.3733522047183719  0.8565008084592672  0.5305762886627383
  0.1836680900027595  0.4066930616159110  0.4713941446543240
  0.3057505020228412  0.9346715275017856  0.4839686027621017
  0.0906020927090027  0.3531503712306551  0.4282001447825661
  0.3413848835094420  0.0511264193962500  0.5138303938097880
  0.9970378306229540  0.3067020730815930  0.4780882375213880
  0.4851507333700287  0.8077661222070858  0.4979627062110892
  0.1463766223416097  0.5264128592185109  0.4689503579672982
  0.5811118255262113  0.8467580277106713  0.5501788523148819
  0.1869690606840509  0.5790882741632207  0.5328957812154620
  0.6869654615780958  0.9209539842054768  0.5329047177424412
  0.0810928617795695  0.6533000458234433  0.5501967910469804
  0.4803298013391595  0.8764055108809607  0.4334048512879957
  0.0745581616345943  0.5507833629052324  0.4176580068082454
  0.5746230973695492  0.9491887099432612  0.4176110844570485
  0.9802842982609946  0.6235687843760667  0.4334441948077360
  0.6463915040954769  0.9735605770647763  0.4689262477875722
  0.9851353604794397  0.6922528373127830  0.4979946775146410
  0.3824283615351549  0.9376322287013903  0.4228553186524743
  0.0332927339533500  0.4411215927859979  0.3953268311538723
  0.6495354993307072  0.1160602369712987  0.5423342934726695
  0.9037390492742905  0.5873904926937711  0.5881433765827394
  0.6699133789422954  0.0199884199766736  0.5838949627123502
  0.0238726610299780  0.6021704533701256  0.6032935994012941
  0.6836061436982988  0.0933122012355474  0.4714014575993828
  0.8733435644895657  0.6435204256759748  0.5306185255188925
  0.5905727276245782  0.1467929223434246  0.4282183811021866
  0.8057555377486985  0.5653148105327876  0.4840001342391645
  0.5333108069701095  0.0588367930164087  0.3953445828415065
  0.8824074656647966  0.5623394558923738  0.4228875158167736
  0.4124805939651774  0.0523437825889647  0.4036659176359380
  0.9124718169858136  0.4476259650177811  0.4037081897851031
  0.5419713285988567  0.1609430240004439  0.5492029472580914
  0.8868976535156307  0.4651041624851246  0.5801050151225223
  0.4970064702228661  0.1932503870157591  0.4780747127121334
  0.8413825409736571  0.4488481230459380  0.5138712862348734
  0.3937354332076304  0.1168397066234437  0.4642897778832045
  0.8937156423786253  0.3831152302014275  0.4643183911145666
  0.9919586332027777  0.8151631008514609  0.4850119714564023
  0.4718218089510979  0.3838799206216219  0.4049733598761565
  0.8823313986163271  0.8693174526805320  0.4581238582391364
  0.5699567944046429  0.4531459834506433  0.3925713051702364
  0.0084163048175037  0.8861073655885215  0.5469839740268572
  0.4869087647495954  0.3171191542068149  0.4708908954921597
  0.9098959130699281  0.9493700878839729  0.5619299557010049
  0.5953669586631277  0.3750751108897467  0.4964868789896721
  0.8147245333815805  0.9303205099629848  0.5120380152822240
  0.6469303495928471  0.4433386959239808  0.4475519290167486
  0.1078242024793642  0.9520311165622717  0.5450248613885365
  0.3971409349423244  0.3741961556033849  0.5141395597331112
  0.0725455617520985  0.0639085945711975  0.5564363031133992
  0.4476761995282764  0.4374766755309900  0.5647771891071440
  0.9476539496701927  0.0625429772571677  0.5647957176429860
  0.5725930854945003  0.4360968801117873  0.5564162362490188
  0.1756389682405163  0.9406139225333602  0.4783162565905295
  0.3100476980288148  0.4346567149091226  0.4729938699854306
  0.1468965207342363  0.0566926772178719  0.4475753175353406
  0.3147475958679216  0.5696780578308936  0.5120445762138828
  0.0953321542624421  0.1249331907548571  0.4965175905764777
  0.4099338990050330  0.5506587437681616  0.5618993519228901
  0.0875626799141066  0.8673978366008928  0.4400749418404695
  0.3767219829257331  0.4531882127102433  0.4097141645772104
  0.0338938533218033  0.9307957155247857  0.3904272932972310
  0.4106005249937820  0.5676046183941209  0.4019066694634785
  0.0699340559632115  0.0468550701846378  0.3926000883725173
  0.3823616827475787  0.6306470900583665  0.4581255503525712
  0.9105745438364083  0.9323825088096100  0.4019133542996931
  0.5339152340720100  0.5692173331178517  0.3904165954270301
  0.8766898684796500  0.0468025084284017  0.4097298066045071
  0.5876285362872576  0.6326315767126673  0.4400485651492165
  0.9717989757561561  0.1161161286211290  0.4049818355319449
  0.4920203452803912  0.6848509243243422  0.4849862655320549
  0.9868913577526084  0.1828613124047409  0.4709211172813097
  0.5084544939087317  0.6139213106308418  0.5469635542857632
  0.8971040048590625  0.1258234045151982  0.5141612413877524
  0.6078495369265506  0.5479827577105336  0.5450093788260730
  0.8100061736544449  0.0653608723528960  0.4730015454148677
  0.6756845593799702  0.5594141856153847  0.4782965521330542
 
  0.00000000E+00  0.00000000E+00  0.00000000E+00
  0.00000000E+00  0.00000000E+00  0.00000000E+00
  0.00000000E+00  0.00000000E+00  0.00000000E+00
  0.00000000E+00  0.00000000E+00  0.00000000E+00
  0.00000000E+00  0.00000000E+00  0.00000000E+00
  0.00000000E+00  0.00000000E+00  0.00000000E+00
  0.00000000E+00  0.00000000E+00  0.00000000E+00
  0.00000000E+00  0.00000000E+00  0.00000000E+00
  0.00000000E+00  0.00000000E+00  0.00000000E+00
  0.00000000E+00  0.00000000E+00  0.00000000E+00
  0.00000000E+00  0.00000000E+00  0.00000000E+00
  0.00000000E+00  0.00000000E+00  0.00000000E+00
  0.00000000E+00  0.00000000E+00  0.00000000E+00
  0.00000000E+00  0.00000000E+00  0.00000000E+00
  0.00000000E+00  0.00000000E+00  0.00000000E+00
  0.00000000E+00  0.00000000E+00  0.00000000E+00
  0.00000000E+00  0.00000000E+00  0.00000000E+00
  0.00000000E+00  0.00000000E+00  0.00000000E+00
  0.00000000E+00  0.00000000E+00  0.00000000E+00
  0.00000000E+00  0.00000000E+00  0.00000000E+00
  0.00000000E+00  0.00000000E+00  0.00000000E+00
  0.00000000E+00  0.00000000E+00  0.00000000E+00
  0.00000000E+00  0.00000000E+00  0.00000000E+00
  0.00000000E+00  0.00000000E+00  0.00000000E+00
  0.00000000E+00  0.00000000E+00  0.00000000E+00
  0.00000000E+00  0.00000000E+00  0.00000000E+00
  0.00000000E+00  0.00000000E+00  0.00000000E+00
  0.00000000E+00  0.00000000E+00  0.00000000E+00
  0.00000000E+00  0.00000000E+00  0.00000000E+00
  0.00000000E+00  0.00000000E+00  0.00000000E+00
  0.00000000E+00  0.00000000E+00  0.00000000E+00
  0.00000000E+00  0.00000000E+00  0.00000000E+00
  0.00000000E+00  0.00000000E+00  0.00000000E+00
  0.00000000E+00  0.00000000E+00  0.00000000E+00
  0.00000000E+00  0.00000000E+00  0.00000000E+00
  0.00000000E+00  0.00000000E+00  0.00000000E+00
  0.00000000E+00  0.00000000E+00  0.00000000E+00
  0.00000000E+00  0.00000000E+00  0.00000000E+00
  0.00000000E+00  0.00000000E+00  0.00000000E+00
  0.00000000E+00  0.00000000E+00  0.00000000E+00
  0.00000000E+00  0.00000000E+00  0.00000000E+00
  0.00000000E+00  0.00000000E+00  0.00000000E+00
  0.00000000E+00  0.00000000E+00  0.00000000E+00
  0.00000000E+00  0.00000000E+00  0.00000000E+00
  0.00000000E+00  0.00000000E+00  0.00000000E+00
  0.00000000E+00  0.00000000E+00  0.00000000E+00
  0.00000000E+00  0.00000000E+00  0.00000000E+00
  0.00000000E+00  0.00000000E+00  0.00000000E+00
  0.00000000E+00  0.00000000E+00  0.00000000E+00
  0.00000000E+00  0.00000000E+00  0.00000000E+00
  0.00000000E+00  0.00000000E+00  0.00000000E+00
  0.00000000E+00  0.00000000E+00  0.00000000E+00
  0.00000000E+00  0.00000000E+00  0.00000000E+00
  0.00000000E+00  0.00000000E+00  0.00000000E+00
  0.00000000E+00  0.00000000E+00  0.00000000E+00
  0.00000000E+00  0.00000000E+00  0.00000000E+00
  0.00000000E+00  0.00000000E+00  0.00000000E+00
  0.00000000E+00  0.00000000E+00  0.00000000E+00
  0.00000000E+00  0.00000000E+00  0.00000000E+00
  0.00000000E+00  0.00000000E+00  0.00000000E+00
  0.00000000E+00  0.00000000E+00  0.00000000E+00
  0.00000000E+00  0.00000000E+00  0.00000000E+00
  0.00000000E+00  0.00000000E+00  0.00000000E+00
  0.00000000E+00  0.00000000E+00  0.00000000E+00
  0.00000000E+00  0.00000000E+00  0.00000000E+00
  0.00000000E+00  0.00000000E+00  0.00000000E+00
  0.00000000E+00  0.00000000E+00  0.00000000E+00
  0.00000000E+00  0.00000000E+00  0.00000000E+00
  0.00000000E+00  0.00000000E+00  0.00000000E+00
  0.00000000E+00  0.00000000E+00  0.00000000E+00
  0.00000000E+00  0.00000000E+00  0.00000000E+00
  0.00000000E+00  0.00000000E+00  0.00000000E+00
  0.00000000E+00  0.00000000E+00  0.00000000E+00
  0.00000000E+00  0.00000000E+00  0.00000000E+00
  0.00000000E+00  0.00000000E+00  0.00000000E+00
  0.00000000E+00  0.00000000E+00  0.00000000E+00
  0.00000000E+00  0.00000000E+00  0.00000000E+00
  0.00000000E+00  0.00000000E+00  0.00000000E+00
  0.00000000E+00  0.00000000E+00  0.00000000E+00
  0.00000000E+00  0.00000000E+00  0.00000000E+00
  0.00000000E+00  0.00000000E+00  0.00000000E+00
  0.00000000E+00  0.00000000E+00  0.00000000E+00
  0.00000000E+00  0.00000000E+00  0.00000000E+00
  0.00000000E+00  0.00000000E+00  0.00000000E+00
  0.00000000E+00  0.00000000E+00  0.00000000E+00
  0.00000000E+00  0.00000000E+00  0.00000000E+00
  0.00000000E+00  0.00000000E+00  0.00000000E+00
  0.00000000E+00  0.00000000E+00  0.00000000E+00
