Generated by VASPKIT code               
   1.00000000000000     
    17.9587352044579696   -0.0422767841990179    0.0000000000000000
    -9.0264813370895425   15.3302662043942224    0.0000000000000000
     0.0000000000000012    0.0000000000000021   19.7199363655860118
  C             
   188
Direct
  0.4670691508373740  0.6788246329097475  0.5303039850654183
  0.5832839951230692  0.3439570291839865  0.6123261171485047
  0.4834531760343980  0.7748526900113863  0.5167934202019681
  0.6352624740541787  0.3114450556864075  0.6429750343570744
  0.3835538192952619  0.6398227987063700  0.5716208272550017
  0.6382873169068207  0.4368609273632159  0.5949448758276025
  0.4002503644755023  0.7693335043740662  0.5337969028534126
  0.7257380188417468  0.3766906536892035  0.6217234947689988
  0.3465219290658016  0.6980386429455516  0.5730582808374066
  0.7283240090992482  0.4486944071867825  0.5926820513891289
  0.3179139416327096  0.5623892857773883  0.5445370084158019
  0.6244706396763687  0.4464414561968231  0.5206706182528119
  0.2403493727669899  0.5676240151440896  0.5395685237072670
  0.7064266588444380  0.4874592124286242  0.4796831663423119
  0.2560002065696721  0.6500527636134329  0.5547116502192122
  0.7777162390023989  0.4873732759749285  0.5268323006695161
  0.3377794878138116  0.5412461548349938  0.4733413937823477
  0.5502211850830713  0.3551513845484490  0.4956589871197286
  0.4234536818693596  0.6288424307028724  0.4628864962201354
  0.5415174600568031  0.2965393637795761  0.5566403628168475
  0.4405080973182797  0.6854765595478445  0.4110548181206766
  0.5454559286587806  0.2120325037411208  0.5560474031371920
  0.2674136754539395  0.5451049834075778  0.4326274840406074
  0.6025952047928465  0.3414941641282332  0.4404875431561705
  0.2821211219503009  0.6014719052577248  0.3801309221007525
  0.6208920108113450  0.2702977521350297  0.4411153463722227
  0.3700146263325491  0.6736918302384768  0.3659386916023180
  0.6015250859192349  0.2157453063398109  0.4953171653913926
  0.1907569763590357  0.5283145895688445  0.4764318551447926
  0.6835428922534516  0.4148959182780237  0.4306177999371271
  0.4257089312038277  0.8060530244659565  0.4192196922641064
  0.6911536299958519  0.2435300931607866  0.5819792364092292
  0.4919362256300015  0.7792087754789141  0.4387708520749237
  0.6131893243702390  0.2321327441569256  0.6138788206871583
  0.3654326779543833  0.7504329533325321  0.3683033706122654
  0.6766057506620220  0.2011381272735270  0.5143496749377692
  0.2765481579381668  0.7247438596660929  0.3892573417126865
  0.7581869611879868  0.2739828283056281  0.4689123699718234
  0.2207858330794890  0.6330247358603243  0.3863326764624248
  0.7131516908596385  0.3053584939108120  0.4242051085111477
  0.1655216400308802  0.5968323119541215  0.4499194022491503
  0.7510085049218658  0.3945116877282491  0.4248465318918974
  0.3721193249370465  0.7967394510311250  0.4756855078816261
  0.7587853991709864  0.3292743089875547  0.5844245564093391
  0.2823498156064458  0.7522984409430078  0.4575317462941180
  0.8110629664255014  0.3547022195388169  0.5203537752919581
  0.2149271451487533  0.6787519233370917  0.5014716547313077
  0.8156020856742126  0.4374658537525030  0.4819516461565359
  0.0571792543897297  0.9941230800207427  0.6096148368312966
  0.9485898904743866  0.7278208257507508  0.5424887467726677
  0.2445344342002355  0.2004233943736774  0.4536339256077315
  0.7934873470655237  0.0359670671062623  0.4697174136079594
  0.7214956405244904  0.5725609935484386  0.4578226783048526
  0.4141842690711044  0.1102600961159124  0.4811843649148763
  0.8527520445563582  0.2831661308658930  0.4494186336023908
  0.9964231918146372  0.9141292715045066  0.5817725768499958
  0.9757272220183253  0.6931946464677883  0.5917694244692140
  0.2264268923307144  0.2246231340401152  0.5229799218389064
  0.7947819545385864  0.0163240625201492  0.5447691791080386
  0.6127893643261343  0.5033343059056277  0.5673576433115094
  0.4542225408655602  0.1315992054818859  0.5536178135773796
  0.8922839742569558  0.3481731495830921  0.5129689243627310
  0.0117581377877850  0.0414202575182691  0.6207647655299794
  0.8777558803205158  0.6574400077853343  0.4975151058745171
  0.3312439252100029  0.2015007958153631  0.4466241911491893
  0.7872280274465491  0.1162777728049272  0.4571719378393564
  0.7931038102406117  0.6552537576513844  0.4887488051401043
  0.3306387376573499  0.1175129687697393  0.4733260856852243
  0.8679900697467633  0.2033193703260980  0.4581709740732648
  0.9194057392377448  0.9854769239091778  0.6041531555023374
  0.8683079853198330  0.5696466391563274  0.5268085270421413
  0.3803951987556441  0.2695870127144754  0.5019422678149634
  0.7421378789090292  0.1113172910917761  0.5223421109107840
  0.7543803449163592  0.6596673076153614  0.5576627813710295
  0.3117663216522972  0.1162232553999190  0.5494219159309661
  0.9137054195625983  0.2244031972453307  0.5255625598032062
  0.9134483028484782  0.9098567595851327  0.5779441896224652
  0.9341134537754952  0.5987496814367996  0.5823576335090546
  0.3273074118232197  0.2815030958920420  0.5452516759380136
  0.7473411176671346  0.0623583245954376  0.5730659538419127
  0.6779598938285036  0.5941745939351619  0.5867193458599798
  0.3772510142177124  0.1257246215342326  0.5914013478495526
  0.9261483438572135  0.3001122617640310  0.5543245180433588
  0.0493715863109268  0.1178306434360742  0.5845923065071099
  0.9319442612319284  0.6727385687328018  0.4354498826297594
  0.3664438292315726  0.2644488280745428  0.3849265352501923
  0.7125333212244837  0.0799251086116400  0.4065227771046896
  0.7818161089517806  0.7275563714254691  0.4550113192783045
  0.2621656169875640  0.0207729917981566  0.4574505900405242
  0.9415257895576249  0.2131583172398422  0.4123226803372963
  0.9810649209386700  0.1226909834476253  0.5424277688745951
  0.9474402882761790  0.6009664562052193  0.4213220739735731
  0.4357643952862708  0.3459175086379971  0.4061365883749091
  0.6399467470574097  0.0711376470180510  0.4389837774277477
  0.7868384743767014  0.7995730716631413  0.5009111749384075
  0.1917429219693096  0.9797409989558068  0.5097525470134782
  0.0136147802302807  0.2048263107479520  0.4475292835289935
  0.8878895409746077  0.0289262210439582  0.5542939529281833
  0.9056832856343177  0.5286856726016197  0.4741527544819183
  0.4639832411373097  0.3512175249095532  0.4797149541467823
  0.6580363587362761  0.1081713792606733  0.5105133344836461
  0.7616695404135462  0.7438828529772223  0.5651194908535359
  0.2233237180231513  0.0460065516753358  0.5732541179393285
  0.9909434179204346  0.2124842346539805  0.5256921948871421
  0.1337792579439192  0.1335810953231263  0.5454943546212986
  0.0086058135533637  0.7536182717022951  0.4373990662561186
  0.2994430064844801  0.2785232212354311  0.3569958407825043
  0.6898261460685954  0.9904250779914029  0.3886311842959032
  0.7016935783011495  0.6836195419711822  0.4241310008857840
  0.3018515369834370  0.9711015129573002  0.4536595790026219
  0.9698021786523565  0.2866280906104011  0.3746256927835807
  0.0884955860729424  0.1046171656385174  0.4767123351110188
  0.0746384271745679  0.7308560783268807  0.4254438779972745
  0.3281453684194269  0.3705533105482141  0.3621648155149183
  0.6036632258556180  0.9320959804402050  0.4050850816708852
  0.6471243882589204  0.7170123753628411  0.4395186479837799
  0.2653594504196170  0.8988275287923211  0.4999382869220600
  0.0638946042883751  0.3401740941146106  0.3843179066056776
  0.0102344426571418  0.1154078838539254  0.4658440264261360
  0.0365429709310342  0.6366635929382866  0.4143624997021065
  0.4154055897357140  0.4122705653048840  0.3922046011398546
  0.5708254834221200  0.9804915506707665  0.4388393471985844
  0.6933108039880771  0.7967940412147372  0.4831007137912463
  0.1902575012491811  0.8953657178768369  0.5398376557656832
  0.1018019398961540  0.2953104156267942  0.4294125001593664
  0.1369381638688325  0.0467519528269133  0.5664292930286829
  0.0234557821933293  0.8053913711087380  0.5055181499710210
  0.2244866898358037  0.2372958578036704  0.4000009908111854
  0.7407714352741556  0.9656237743608956  0.4287729662795889
  0.6573851258736181  0.5896055373208732  0.4375320872160640
  0.3943563458560118  0.0258107179247299  0.4670718354078242
  0.9241083484249537  0.3336773172223514  0.3962656488986981
  0.1087224128427614  0.9826032750223190  0.5020685997769435
  0.1071431321484979  0.8063065833574344  0.5339134630570216
  0.1934135193123467  0.3016996519498849  0.4247447733788902
  0.6893661951234411  0.8790256859668627  0.4688118383349908
  0.5758482902025438  0.5668329795031938  0.4703499789394872
  0.4137987454660626  0.9838435202272598  0.5234043271610460
  0.9896478605696039  0.4118773014003427  0.4218590999118272
  0.0799153222705613  0.0277410776140904  0.4532857660770783
  0.1251434524785514  0.7544528980984316  0.4821063579134448
  0.2747611756066115  0.3894311210508976  0.4007119508193879
  0.5901263565289520  0.8576612344458788  0.4484073191890439
  0.5739570322237082  0.6454689093267764  0.4710640097263765
  0.3318913930258390  0.9095968853952895  0.5450342818324987
  0.0702861039484599  0.4127133063912382  0.4154124854952098
  0.0214405400593358  0.8909763601304362  0.5134706721675208
  0.0689871454914908  0.7335320911394184  0.5887712292142310
  0.2223583120822608  0.3049890532645986  0.4983582130021030
  0.7108951954400690  0.9235534641863153  0.5391534254652802
  0.5352078372516529  0.5124547542731592  0.5382575941421602
  0.4398687409130370  0.0424656388011583  0.5780083717240008
  0.9780572684009355  0.4371158936270721  0.4948390290294367
  0.9533986008359816  0.8942618523639357  0.4680158995809574
  0.0811887648848935  0.6634134009888266  0.5742988166995806
  0.2965290479484577  0.3838254757063285  0.5152078295845433
  0.6381477029780640  0.9161910757461622  0.5683133351475989
  0.5486203729010176  0.5946468254396348  0.5782048863603775
  0.3811747302000764  0.0049805385080296  0.6347010588735954
  0.0487075208759760  0.4296737859615876  0.5306061977944228
  0.9913062068909507  0.9718463282187924  0.4333671851573518
  0.1314911085783229  0.6793486464429818  0.5113819270292508
  0.3318388925504265  0.4520400357280748  0.4594909089539409
  0.5613717786773622  0.8715540163146469  0.5210865852311110
  0.5469286086104099  0.6683028018772439  0.5376975004206241
  0.3121387774343413  0.9175575419176035  0.6148578330807708
  0.1170655757692379  0.4368844823284080  0.4818000761630054
  0.9476007796612284  0.0224217449806155  0.4435121599063354
  0.0754717236251032  0.5989197277558941  0.4625003733488877
  0.4179566914340098  0.4553141218758816  0.4507079027988807
  0.5509778814021303  0.9526308236840213  0.5073821890657803
  0.6384059994921925  0.7498510242783926  0.5480947726213100
  0.2346888134139281  0.9241035513946457  0.6092126093093698
  0.1141153677929433  0.3492044503334195  0.4942850485304671
  0.8877876583606503  0.9774608764282676  0.4917803068640157
  0.9879806605563680  0.5282407471236698  0.5036866724192222
  0.4504715479816070  0.4297988168975242  0.5130556749229239
  0.6002065349982597  0.0232281121388798  0.5527866936372601
  0.6817930362133929  0.7272141207599008  0.5931806281914248
  0.2485556488210431  0.0051170390230453  0.6298633933829259
  0.0596232808197856  0.3043595591196556  0.5464199165502813
  0.8745956461061063  0.8860749486491852  0.5068758546494679
  0.9995575658546177  0.5803443284459620  0.5700341656169657
  0.3613230119508573  0.3744523897491526  0.5491098512527437
  0.6556103392736529  0.0012333125512811  0.5886487295017563
  0.6291204857715741  0.6336907595839177  0.6089618530288075
  0.3409978462777067  0.0568777638349338  0.6413016049536672
  0.0177105766076500  0.3542691140759667  0.5666458651789927
 
  0.00000000E+00  0.00000000E+00  0.00000000E+00
  0.00000000E+00  0.00000000E+00  0.00000000E+00
  0.00000000E+00  0.00000000E+00  0.00000000E+00
  0.00000000E+00  0.00000000E+00  0.00000000E+00
  0.00000000E+00  0.00000000E+00  0.00000000E+00
  0.00000000E+00  0.00000000E+00  0.00000000E+00
  0.00000000E+00  0.00000000E+00  0.00000000E+00
  0.00000000E+00  0.00000000E+00  0.00000000E+00
  0.00000000E+00  0.00000000E+00  0.00000000E+00
  0.00000000E+00  0.00000000E+00  0.00000000E+00
  0.00000000E+00  0.00000000E+00  0.00000000E+00
  0.00000000E+00  0.00000000E+00  0.00000000E+00
  0.00000000E+00  0.00000000E+00  0.00000000E+00
  0.00000000E+00  0.00000000E+00  0.00000000E+00
  0.00000000E+00  0.00000000E+00  0.00000000E+00
  0.00000000E+00  0.00000000E+00  0.00000000E+00
  0.00000000E+00  0.00000000E+00  0.00000000E+00
  0.00000000E+00  0.00000000E+00  0.00000000E+00
  0.00000000E+00  0.00000000E+00  0.00000000E+00
  0.00000000E+00  0.00000000E+00  0.00000000E+00
  0.00000000E+00  0.00000000E+00  0.00000000E+00
  0.00000000E+00  0.00000000E+00  0.00000000E+00
  0.00000000E+00  0.00000000E+00  0.00000000E+00
  0.00000000E+00  0.00000000E+00  0.00000000E+00
  0.00000000E+00  0.00000000E+00  0.00000000E+00
  0.00000000E+00  0.00000000E+00  0.00000000E+00
  0.00000000E+00  0.00000000E+00  0.00000000E+00
  0.00000000E+00  0.00000000E+00  0.00000000E+00
  0.00000000E+00  0.00000000E+00  0.00000000E+00
  0.00000000E+00  0.00000000E+00  0.00000000E+00
  0.00000000E+00  0.00000000E+00  0.00000000E+00
  0.00000000E+00  0.00000000E+00  0.00000000E+00
  0.00000000E+00  0.00000000E+00  0.00000000E+00
  0.00000000E+00  0.00000000E+00  0.00000000E+00
  0.00000000E+00  0.00000000E+00  0.00000000E+00
  0.00000000E+00  0.00000000E+00  0.00000000E+00
  0.00000000E+00  0.00000000E+00  0.00000000E+00
  0.00000000E+00  0.00000000E+00  0.00000000E+00
  0.00000000E+00  0.00000000E+00  0.00000000E+00
  0.00000000E+00  0.00000000E+00  0.00000000E+00
  0.00000000E+00  0.00000000E+00  0.00000000E+00
  0.00000000E+00  0.00000000E+00  0.00000000E+00
  0.00000000E+00  0.00000000E+00  0.00000000E+00
  0.00000000E+00  0.00000000E+00  0.00000000E+00
  0.00000000E+00  0.00000000E+00  0.00000000E+00
  0.00000000E+00  0.00000000E+00  0.00000000E+00
  0.00000000E+00  0.00000000E+00  0.00000000E+00
  0.00000000E+00  0.00000000E+00  0.00000000E+00
  0.00000000E+00  0.00000000E+00  0.00000000E+00
  0.00000000E+00  0.00000000E+00  0.00000000E+00
  0.00000000E+00  0.00000000E+00  0.00000000E+00
  0.00000000E+00  0.00000000E+00  0.00000000E+00
  0.00000000E+00  0.00000000E+00  0.00000000E+00
  0.00000000E+00  0.00000000E+00  0.00000000E+00
  0.00000000E+00  0.00000000E+00  0.00000000E+00
  0.00000000E+00  0.00000000E+00  0.00000000E+00
  0.00000000E+00  0.00000000E+00  0.00000000E+00
  0.00000000E+00  0.00000000E+00  0.00000000E+00
  0.00000000E+00  0.00000000E+00  0.00000000E+00
  0.00000000E+00  0.00000000E+00  0.00000000E+00
  0.00000000E+00  0.00000000E+00  0.00000000E+00
  0.00000000E+00  0.00000000E+00  0.00000000E+00
  0.00000000E+00  0.00000000E+00  0.00000000E+00
  0.00000000E+00  0.00000000E+00  0.00000000E+00
  0.00000000E+00  0.00000000E+00  0.00000000E+00
  0.00000000E+00  0.00000000E+00  0.00000000E+00
  0.00000000E+00  0.00000000E+00  0.00000000E+00
  0.00000000E+00  0.00000000E+00  0.00000000E+00
  0.00000000E+00  0.00000000E+00  0.00000000E+00
  0.00000000E+00  0.00000000E+00  0.00000000E+00
  0.00000000E+00  0.00000000E+00  0.00000000E+00
  0.00000000E+00  0.00000000E+00  0.00000000E+00
  0.00000000E+00  0.00000000E+00  0.00000000E+00
  0.00000000E+00  0.00000000E+00  0.00000000E+00
  0.00000000E+00  0.00000000E+00  0.00000000E+00
  0.00000000E+00  0.00000000E+00  0.00000000E+00
  0.00000000E+00  0.00000000E+00  0.00000000E+00
  0.00000000E+00  0.00000000E+00  0.00000000E+00
  0.00000000E+00  0.00000000E+00  0.00000000E+00
  0.00000000E+00  0.00000000E+00  0.00000000E+00
  0.00000000E+00  0.00000000E+00  0.00000000E+00
  0.00000000E+00  0.00000000E+00  0.00000000E+00
  0.00000000E+00  0.00000000E+00  0.00000000E+00
  0.00000000E+00  0.00000000E+00  0.00000000E+00
  0.00000000E+00  0.00000000E+00  0.00000000E+00
  0.00000000E+00  0.00000000E+00  0.00000000E+00
  0.00000000E+00  0.00000000E+00  0.00000000E+00
  0.00000000E+00  0.00000000E+00  0.00000000E+00
  0.00000000E+00  0.00000000E+00  0.00000000E+00
  0.00000000E+00  0.00000000E+00  0.00000000E+00
  0.00000000E+00  0.00000000E+00  0.00000000E+00
  0.00000000E+00  0.00000000E+00  0.00000000E+00
  0.00000000E+00  0.00000000E+00  0.00000000E+00
  0.00000000E+00  0.00000000E+00  0.00000000E+00
  0.00000000E+00  0.00000000E+00  0.00000000E+00
  0.00000000E+00  0.00000000E+00  0.00000000E+00
  0.00000000E+00  0.00000000E+00  0.00000000E+00
  0.00000000E+00  0.00000000E+00  0.00000000E+00
  0.00000000E+00  0.00000000E+00  0.00000000E+00
  0.00000000E+00  0.00000000E+00  0.00000000E+00
  0.00000000E+00  0.00000000E+00  0.00000000E+00
  0.00000000E+00  0.00000000E+00  0.00000000E+00
  0.00000000E+00  0.00000000E+00  0.00000000E+00
  0.00000000E+00  0.00000000E+00  0.00000000E+00
  0.00000000E+00  0.00000000E+00  0.00000000E+00
  0.00000000E+00  0.00000000E+00  0.00000000E+00
  0.00000000E+00  0.00000000E+00  0.00000000E+00
  0.00000000E+00  0.00000000E+00  0.00000000E+00
  0.00000000E+00  0.00000000E+00  0.00000000E+00
  0.00000000E+00  0.00000000E+00  0.00000000E+00
  0.00000000E+00  0.00000000E+00  0.00000000E+00
  0.00000000E+00  0.00000000E+00  0.00000000E+00
  0.00000000E+00  0.00000000E+00  0.00000000E+00
  0.00000000E+00  0.00000000E+00  0.00000000E+00
  0.00000000E+00  0.00000000E+00  0.00000000E+00
  0.00000000E+00  0.00000000E+00  0.00000000E+00
  0.00000000E+00  0.00000000E+00  0.00000000E+00
  0.00000000E+00  0.00000000E+00  0.00000000E+00
  0.00000000E+00  0.00000000E+00  0.00000000E+00
  0.00000000E+00  0.00000000E+00  0.00000000E+00
  0.00000000E+00  0.00000000E+00  0.00000000E+00
  0.00000000E+00  0.00000000E+00  0.00000000E+00
  0.00000000E+00  0.00000000E+00  0.00000000E+00
  0.00000000E+00  0.00000000E+00  0.00000000E+00
  0.00000000E+00  0.00000000E+00  0.00000000E+00
  0.00000000E+00  0.00000000E+00  0.00000000E+00
  0.00000000E+00  0.00000000E+00  0.00000000E+00
  0.00000000E+00  0.00000000E+00  0.00000000E+00
  0.00000000E+00  0.00000000E+00  0.00000000E+00
  0.00000000E+00  0.00000000E+00  0.00000000E+00
  0.00000000E+00  0.00000000E+00  0.00000000E+00
  0.00000000E+00  0.00000000E+00  0.00000000E+00
  0.00000000E+00  0.00000000E+00  0.00000000E+00
  0.00000000E+00  0.00000000E+00  0.00000000E+00
  0.00000000E+00  0.00000000E+00  0.00000000E+00
  0.00000000E+00  0.00000000E+00  0.00000000E+00
  0.00000000E+00  0.00000000E+00  0.00000000E+00
  0.00000000E+00  0.00000000E+00  0.00000000E+00
  0.00000000E+00  0.00000000E+00  0.00000000E+00
  0.00000000E+00  0.00000000E+00  0.00000000E+00
  0.00000000E+00  0.00000000E+00  0.00000000E+00
  0.00000000E+00  0.00000000E+00  0.00000000E+00
  0.00000000E+00  0.00000000E+00  0.00000000E+00
  0.00000000E+00  0.00000000E+00  0.00000000E+00
  0.00000000E+00  0.00000000E+00  0.00000000E+00
  0.00000000E+00  0.00000000E+00  0.00000000E+00
  0.00000000E+00  0.00000000E+00  0.00000000E+00
  0.00000000E+00  0.00000000E+00  0.00000000E+00
  0.00000000E+00  0.00000000E+00  0.00000000E+00
  0.00000000E+00  0.00000000E+00  0.00000000E+00
  0.00000000E+00  0.00000000E+00  0.00000000E+00
  0.00000000E+00  0.00000000E+00  0.00000000E+00
  0.00000000E+00  0.00000000E+00  0.00000000E+00
  0.00000000E+00  0.00000000E+00  0.00000000E+00
  0.00000000E+00  0.00000000E+00  0.00000000E+00
  0.00000000E+00  0.00000000E+00  0.00000000E+00
  0.00000000E+00  0.00000000E+00  0.00000000E+00
  0.00000000E+00  0.00000000E+00  0.00000000E+00
  0.00000000E+00  0.00000000E+00  0.00000000E+00
  0.00000000E+00  0.00000000E+00  0.00000000E+00
  0.00000000E+00  0.00000000E+00  0.00000000E+00
  0.00000000E+00  0.00000000E+00  0.00000000E+00
  0.00000000E+00  0.00000000E+00  0.00000000E+00
  0.00000000E+00  0.00000000E+00  0.00000000E+00
  0.00000000E+00  0.00000000E+00  0.00000000E+00
  0.00000000E+00  0.00000000E+00  0.00000000E+00
  0.00000000E+00  0.00000000E+00  0.00000000E+00
  0.00000000E+00  0.00000000E+00  0.00000000E+00
  0.00000000E+00  0.00000000E+00  0.00000000E+00
  0.00000000E+00  0.00000000E+00  0.00000000E+00
  0.00000000E+00  0.00000000E+00  0.00000000E+00
  0.00000000E+00  0.00000000E+00  0.00000000E+00
  0.00000000E+00  0.00000000E+00  0.00000000E+00
  0.00000000E+00  0.00000000E+00  0.00000000E+00
  0.00000000E+00  0.00000000E+00  0.00000000E+00
  0.00000000E+00  0.00000000E+00  0.00000000E+00
  0.00000000E+00  0.00000000E+00  0.00000000E+00
  0.00000000E+00  0.00000000E+00  0.00000000E+00
  0.00000000E+00  0.00000000E+00  0.00000000E+00
  0.00000000E+00  0.00000000E+00  0.00000000E+00
  0.00000000E+00  0.00000000E+00  0.00000000E+00
  0.00000000E+00  0.00000000E+00  0.00000000E+00
  0.00000000E+00  0.00000000E+00  0.00000000E+00
  0.00000000E+00  0.00000000E+00  0.00000000E+00
  0.00000000E+00  0.00000000E+00  0.00000000E+00
  0.00000000E+00  0.00000000E+00  0.00000000E+00
  0.00000000E+00  0.00000000E+00  0.00000000E+00
  0.00000000E+00  0.00000000E+00  0.00000000E+00
