C 
 1.0000000000000000
    16.9787629831492595    0.0000000000000000    0.0000000000000000
     0.0000000000000000    5.5843481494905012    0.0000000000000000
     0.0000000000000000    0.0000000000000000   16.0000000000000000
 C  
  88
Direct
 -0.0824691526730078  0.6615575987882140  0.3904866058159197
 -0.0519389423392882  0.8589264728641025  0.4376879370812816
 -0.0199585959542287  0.5290885139841310  0.3520594957803425
  0.0344141443285547  0.8203532939895034  0.4427598924833706
  0.0539468204643463  0.6188834543880607  0.3905958963157228
 -0.0248174062816326  0.2810037942496852  0.3739690071338471
  0.0480056511971809  0.1992051279556377  0.4091815669970491
  0.0954878401355791  0.4173124535112008  0.4253450308486306
 -0.0838626078422171  0.2649371492490069  0.4421194726382742
 -0.1191195638667049  0.4977174800033471  0.4522057225687916
 -0.1177778608364306  0.6141928130246084  0.5325123280587096
 -0.0472468299471404  0.1483890507438103  0.5123554027767715
 -0.0459217270256621  0.2647669282805056  0.5926381154618102
 -0.0811672786902067  0.4975990693220072  0.6027293020019618
  0.0352058428785069  0.0897143170961585  0.4889650913121151
 -0.0160441505659285  0.8585691460557676  0.5798149186577969
 -0.0803410198120640  0.8526423174798478  0.5219015259622402
 -0.0203247949420516  0.6612841012737077  0.6369104218029853
  0.0518576672953041  0.5286574552312309  0.6369615762120442
  0.0372809814528007  0.2806217588827777  0.6203677268807063
  0.0838788537031203  0.1986902212223365  0.5513508137619125
  0.0563654975593628  0.8201917235970460  0.5296960939046713
  0.0978333113097069  0.6185653963891178  0.5644999929221918
  0.1173889338940822  0.4171303624181946  0.5123033762087592
  0.5824691526730075  0.6615575987882140  0.3904866058159197
  0.5519389423392879  0.8589264728641025  0.4376879370812816
  0.5199585959542283  0.5290885139841310  0.3520594957803425
  0.4655858556714449  0.8203532939895034  0.4427598924833706
  0.4460531795356533  0.6188834543880607  0.3905958963157228
  0.5248174062816323  0.2810037942496852  0.3739690071338471
  0.4519943488028186  0.1992051279556377  0.4091815669970491
  0.4045121598644206  0.4173124535112008  0.4253450308486306
  0.5838626078422168  0.2649371492490069  0.4421194726382742
  0.6191195638667045  0.4977174800033471  0.4522057225687916
  0.6177778608364303  0.6141928130246084  0.5325123280587096
  0.5472468299471400  0.1483890507438103  0.5123554027767715
  0.5459217270256618  0.2647669282805056  0.5926381154618102
  0.5811672786902063  0.4975990693220072  0.6027293020019618
  0.4647941571214927  0.0897143170961585  0.4889650913121151
  0.5160441505659281  0.8585691460557676  0.5798149186577969
  0.5803410198120637  0.8526423174798478  0.5219015259622402
  0.5203247949420512  0.6612841012737077  0.6369104218029853
  0.4481423327046955  0.5286574552312309  0.6369615762120442
  0.4627190185471989  0.2806217588827777  0.6203677268807063
  0.4161211462968793  0.1986902212223365  0.5513508137619125
  0.4436345024406368  0.8201917235970460  0.5296960939046713
  0.4021666886902927  0.6185653963891178  0.5644999929221918
  0.3826110661059174  0.4171303624181946  0.5123033762087592
  0.2922419513576379 -0.3969865259753443  0.5325568418829099
  0.3181405635580631 -0.3000471098935206  0.4528853410795851
  0.2077067847513815 -0.3970235582127797  0.5325566932097245
  0.1818226019015022 -0.3000259869900021  0.4528790708630215
  0.2499873146811636 -0.2469950349647345  0.4000966773849089
  0.1791058597126742 -0.2467724868254207  0.6010241085890491
  0.1395710667759203 -0.0465913808830870  0.5596113280362064
  0.1395594713043127 -0.0827173218530232  0.4696561332150937
  0.2500031891648055 -0.1420904755164343  0.6369672731430579
  0.2500149254427786  0.1177009587912645  0.6291461793988323
  0.1818544738517458  0.1707205220614733  0.5763815686767250
  0.3208704649526382 -0.2467713687917581  0.6010145895401631
  0.3604363334952796 -0.0465909718377716  0.5596111036767485
  0.3181860995683055  0.1707567261130858  0.5763826695086308
  0.3604284153904184 -0.0827568960515535  0.4696730438307606
  0.3209017940069994  0.1174268216450189  0.4282600156630412
  0.2922899908266067  0.2677137033506594  0.4967097184982593
  0.2077494959808950  0.2676635952526518  0.4967112478003673
  0.1791243045964327  0.1174470746545475  0.4282398862890392
  0.2500048986804346  0.0128011565850124  0.3922865135165096
  0.7077580486423618  1.3827759704802896  0.4737298257508015
  0.6818594364419366  1.1992592453424771  0.4155085894624567
  0.7922932152486181  1.3828094309041199  0.4737242855528525
  0.8181773980984975  1.1992325453059900  0.4155059769112541
  0.7500126853188361  1.0878185034757999  0.3753009105011960
  0.8208941402873255  1.3283639523471424  0.5578476074939493
  0.8604289332240794  1.0969076269290063  0.5494479641717073
  0.8604405286956871  1.0219402635490729  0.4624634968989710
  0.7499968108351943  1.2763415664815687  0.6057760712660002
  0.7499850745572210  1.0309866202077633  0.6365903357461904
  0.8181455261482539  0.9196042304298429  0.5963997601809741
  0.6791295350473615  1.3283515312196863  0.5578391239673594
  0.6395636665047201  1.0969069865456338  0.5494478200762182
  0.6818139004316941  0.9195726631552535  0.5964060444004400
  0.6395715846095814  1.0219964731161899  0.4624730816379413
  0.6790982059930003  0.7905374786002723  0.4540735945988161
  0.7077100091733929  0.7360382485740807  0.5381860539938983
  0.7922505040191046  0.7360855970913933  0.5381801294739282
  0.8208756954035669  0.7904949629487242  0.4540582659910853
  0.7499951013195651  0.8424723318978879  0.4061257975883207
