C 
 1.0000000000000000
    14.4220330472929525    0.0000000000000000    0.0000000000000000
     0.0000000000000000   10.6619837619406610    0.0000000000000000
     0.0000000000000000    0.0000000000000000   16.0000000000000000
 C  
 128
Direct
  0.6653792820932096  0.6858633453885707  0.5070363400386436
  0.6283392045013069  0.6378322535169740  0.4303307580166864
  0.6630190772671805  0.8201658779721430  0.5077690641000622
  0.5837265968108507  0.7460122943664950  0.3880194672810843
  0.6047724711513731  0.8572887137390147  0.4353153127134115
  0.6154911246706838  0.8650203218832458  0.5803995962656094
  0.5417268362853164  0.9483296060830820  0.5575066376575877
  0.5308063381999103  0.9357204507050624  0.4657052933823405
  0.5703582088931083  0.7538418808541870  0.6185839613507724
  0.6008881616170851  0.6442747175984352  0.5737043092660326
  0.5339317429454853  0.5608997361482281  0.5366297615991364
  0.4728221623775765  0.7801077026665806  0.6264470203420317
  0.4058852359271545  0.6967550420455925  0.5894113081875803
  0.4364114577147472  0.5871842893711693  0.5445097291898804
  0.4557148527801392  0.9082336176303033  0.5933616588362850
  0.4729855641142297  0.5840611657562575  0.4027978808454039
  0.5558925066826527  0.5492208538958097  0.4462712619765161
  0.3960987135168392  0.5924353528110674  0.4592566744655331
  0.3516913121369675  0.7121424000512021  0.4525809047812365
  0.3462419905783035  0.7715838808894675  0.5326800142830027
  0.3863225085036305  0.8945461180746013  0.5300301552253716
  0.4887082557700179  0.7131009906537604  0.3711648931337677
  0.4147116162510385  0.7914243027727483  0.4016134437357831
  0.4357843063768147  0.9027405490313246  0.4488865733708981
  0.3346207179067904  0.3141366546114293  0.5070363400386436
  0.3716607954986931  0.3621677464830260  0.4303307580166864
  0.3369809227328195  0.1798341220278569  0.5077690641000622
  0.4162734031891493  0.2539877056335051  0.3880194672810843
  0.3952275288486271  0.1427112862609853  0.4353153127134115
  0.3845088753293163  0.1349796781167540  0.5803995962656094
  0.4582731637146837  0.0516703939169179  0.5575066376575877
  0.4691936618000898  0.0642795492949376  0.4657052933823405
  0.4296417911068918  0.2461581191458130  0.6185839613507724
  0.3991118383829149  0.3557252824015648  0.5737043092660326
  0.4660682570545147  0.4391002638517719  0.5366297615991364
  0.5271778376224235  0.2198922973334193  0.6264470203420317
  0.5941147640728455  0.3032449579544075  0.5894113081875803
  0.5635885422852528  0.4128157106288308  0.5445097291898804
  0.5442851472198609  0.0917663823696966  0.5933616588362850
  0.5270144358857703  0.4159388342437425  0.4027978808454039
  0.4441074933173474  0.4507791461041903  0.4462712619765161
  0.6039012864831609  0.4075646471889326  0.4592566744655331
  0.6483086878630326  0.2878575999487979  0.4525809047812365
  0.6537580094216966  0.2284161191105326  0.5326800142830027
  0.6136774914963695  0.1054538819253987  0.5300301552253716
  0.5112917442299821  0.2868990093462396  0.3711648931337677
  0.5852883837489615  0.2085756972272516  0.4016134437357831
  0.5642156936231852  0.0972594509686754  0.4488865733708981
  0.8772502395827804 -0.0542307850894721  0.6264470246928661
  0.9440203975135056  0.0118337135441302  0.5746081668042070
  0.8671293314219669 -0.1784617447405020  0.5931186805014235
  0.9276925997623809 -0.1884793842648865  0.5208384242745315
  0.9798735803733001 -0.0719745262863517  0.5098265302346062
  0.7706891194838067 -0.1982909820146480  0.5680640084773928
  0.7744833689746489 -0.2121554201191271  0.4771821340180169
  0.8702399675258863 -0.2093896486171990  0.4489399493724931
  0.7261215807858681 -0.0773419962426848  0.5813791673172324
  0.6913318790205707 -0.0249960172707463  0.5033880155995247
  0.7271655098627856 -0.1088239396318385  0.4386232046894515
  0.7876815341224492  0.0100320583221500  0.6239686265161846
  0.8009427051398638  0.1124041381166528  0.5642866092777268
  0.7434907062460920  0.0915211650058582  0.4923796468109013
  0.8966891889744859  0.1151654995323339  0.5360647179542798
  0.9004842363946004  0.1013136141961838  0.4451852095294053
  0.8040545376194207  0.0814774426987900  0.4201083552885002
  0.7939334596670191 -0.0427641224755372  0.3867823867882617
  0.8835163821978304 -0.1070208497974525  0.3892566426313745
  0.9450728839012515 -0.0196202194004896  0.4318410100346473
  0.1227497604172197  0.0542307850894721  0.6264470246928661
  0.0559796024864944 -0.0118337135441302  0.5746081668042070
  0.1328706685780333  0.1784617447405020  0.5931186805014235
  0.0723074002376190  0.1884793842648865  0.5208384242745315
  0.0201264196267000  0.0719745262863517  0.5098265302346062
  0.2293108805161934  0.1982909820146480  0.5680640084773928
  0.2255166310253512  0.2121554201191271  0.4771821340180169
  0.1297600324741138  0.2093896486171990  0.4489399493724931
  0.2738784192141319  0.0773419962426848  0.5813791673172324
  0.3086681209794294  0.0249960172707463  0.5033880155995247
  0.2728344901372144  0.1088239396318385  0.4386232046894515
  0.2123184658775509 -0.0100320583221500  0.6239686265161846
  0.1990572948601362 -0.1124041381166528  0.5642866092777268
  0.2565092937539080 -0.0915211650058582  0.4923796468109013
  0.1033108110255142 -0.1151654995323339  0.5360647179542798
  0.0995157636053997 -0.1013136141961838  0.4451852095294053
  0.1959454623805794 -0.0814774426987900  0.4201083552885002
  0.2060665403329810  0.0427641224755372  0.3867823867882617
  0.1164836178021697  0.1070208497974525  0.3892566426313745
  0.0549271160987485  0.0196202194004896  0.4318410100346473
  0.1629493309031325  0.6512509013405594  0.5990279034438988
  0.2530417706381225  0.6590240979997343  0.5587024122905195
  0.1454316141170696  0.5215955127560796  0.6172797659763410
  0.2247982074078206  0.4499371337297617  0.5881068794375134
  0.2953016775397910  0.5344709651534407  0.5542096877117975
  0.0615442035754617  0.4811789676014263  0.5735062405435518
  0.0940881199530964  0.3885376368719985  0.5128019825250142
  0.1929569322485822  0.3674088261860844  0.5233209040474164
  0.0347410638585627  0.5890800524956092  0.5231737982157530
  0.0375423556772765  0.5602379096424676  0.4342526701471481
  0.0797752627485006  0.4356837086344014  0.4297730958148657
  0.0909332292523229  0.6986132936122628  0.5429186923051736
  0.1398595001353143  0.7272983674345429  0.4651481947895365
  0.1080260296287689  0.6447843119817591  0.4003459893650694
  0.2387112745073957  0.7061840351872846  0.4756803313596984
  0.2712570966997354  0.6135549011280513  0.4149734129021789
  0.1873859535351843  0.5731131025758089  0.3711896400400371
  0.1698655914281087  0.4434513486092717  0.3894471537259644
  0.2418972542798302  0.3960904351523923  0.4455558374974163
  0.2980921599005684  0.5056403187343018  0.4652858944971661
  0.8370506690968676  0.3487490986594405  0.5990279034438988
  0.7469582293618776  0.3409759020002657  0.5587024122905195
  0.8545683858829306  0.4784044872439203  0.6172797659763410
  0.7752017925921795  0.5500628662702381  0.5881068794375134
  0.7046983224602090  0.4655290348465593  0.5542096877117975
  0.9384557964245384  0.5188210323985737  0.5735062405435518
  0.9059118800469037  0.6114623631280014  0.5128019825250142
  0.8070430677514179  0.6325911738139155  0.5233209040474164
  0.9652589361414374  0.4109199475043907  0.5231737982157530
  0.9624576443227235  0.4397620903575323  0.4342526701471481
  0.9202247372514994  0.5643162913655985  0.4297730958148657
  0.9090667707476773  0.3013867063877372  0.5429186923051736
  0.8601404998646858  0.2727016325654570  0.4651481947895365
  0.8919739703712312  0.3552156880182408  0.4003459893650694
  0.7612887254926043  0.2938159648127153  0.4756803313596984
  0.7287429033002647  0.3864450988719486  0.4149734129021789
  0.8126140464648158  0.4268868974241910  0.3711896400400371
  0.8301344085718915  0.5565486513907283  0.3894471537259644
  0.7581027457201700  0.6039095648476076  0.4455558374974163
  0.7019078400994317  0.4943596812656981  0.4652858944971661
