C 
 1.0000000000000000
     9.6443930499080377    0.0000000000000000    0.0000000000000000
     0.0000000000000000   15.5945790654388059    0.0000000000000000
     0.0000000000000000    0.0000000000000000   16.0000000000000000
 C  
 128
Direct
  0.6455560099539814 -0.1363715218678230  0.5379105511010643
  0.7187561736310654 -0.1494760246215383  0.4610153098285407
  0.7392095552824514 -0.1131485342559415  0.6036022366410886
  0.8610615142831082 -0.1163121510862192  0.4752055202382817
  0.8735383156806287 -0.0940302317502865  0.5621942628719223
  0.6963763640345646 -0.0347920038115805  0.6423935431813066
  0.8068454221308382  0.0267061800556328  0.6420481709687691
  0.9149030812001455 -0.0086741929653967  0.5858044809066459
  0.5863135423507816  0.0014400548901201  0.5880486248166915
  0.5552426818793260 -0.0607047400444436  0.5241516032739343
  0.5645946091252604 -0.0372226116964156  0.4372712224227571
  0.6267324122658264  0.0871448155541315  0.5651101049723980
  0.6360456433703537  0.1106326754156146  0.4782679715825364
  0.6050005550057510  0.0484802370671383  0.4143567728536075
  0.7626173911512175  0.1056696728795702  0.6049498643061394
  0.7658084650192930 -0.0463039127118954  0.3574068859460721
  0.6608070227813937 -0.0980865718379135  0.3956221379149821
  0.7270257798992821  0.0424000213280519  0.3581834913208380
  0.8333312817666807  0.0935603745231522  0.3958338389362712
  0.7777558339513240  0.1439806647456594  0.4627049629725557
  0.8538359654025366  0.1299427695218880  0.5384409300832920
  0.8898417129984646 -0.0532198395743170  0.4118169833786872
  0.9310684121107347  0.0321705246418408  0.4353903026898170
  0.9435923252474138  0.0544268022696410  0.5223983732809935
  0.3544439900460186  0.1363715218678230  0.5379105511010643
  0.2812438263689346  0.1494760246215383  0.4610153098285407
  0.2607904447175486  0.1131485342559415  0.6036022366410886
  0.1389384857168918  0.1163121510862192  0.4752055202382817
  0.1264616843193714  0.0940302317502865  0.5621942628719223
  0.3036236359654355  0.0347920038115805  0.6423935431813066
  0.1931545778691618 -0.0267061800556328  0.6420481709687691
  0.0850969187998545  0.0086741929653967  0.5858044809066459
  0.4136864576492184 -0.0014400548901201  0.5880486248166915
  0.4447573181206739  0.0607047400444436  0.5241516032739343
  0.4354053908747396  0.0372226116964156  0.4372712224227571
  0.3732675877341735 -0.0871448155541315  0.5651101049723980
  0.3639543566296461 -0.1106326754156146  0.4782679715825364
  0.3949994449942490 -0.0484802370671383  0.4143567728536075
  0.2373826088487825 -0.1056696728795702  0.6049498643061394
  0.2341915349807069  0.0463039127118954  0.3574068859460721
  0.3391929772186063  0.0980865718379135  0.3956221379149821
  0.2729742201007180 -0.0424000213280519  0.3581834913208380
  0.1666687182333193 -0.0935603745231522  0.3958338389362712
  0.2222441660486760 -0.1439806647456594  0.4627049629725557
  0.1461640345974634 -0.1299427695218880  0.5384409300832920
  0.1101582870015354  0.0532198395743170  0.4118169833786872
  0.0689315878892653 -0.0321705246418408  0.4353903026898170
  0.0564076747525862 -0.0544268022696410  0.5223983732809935
  0.3418116747357370  0.3723811040197063  0.6519838633653521
  0.3989310021859342  0.2891864753611226  0.6299127962676601
  0.2090304923176048  0.3798435246340537  0.6121291487999573
  0.1848337512624494  0.3012143670775115  0.5656191693126458
  0.2998906052510369  0.2415309458684146  0.5785451859992046
  0.2104274045630480  0.4532354962568176  0.5551957801106484
  0.1956490868646355  0.4155273339099844  0.4719704407701852
  0.1765183449317828  0.3233434983746495  0.4786992680948375
  0.3527733324540483  0.4843272693517033  0.5577676888647564
  0.4191807331217927  0.4778162060415793  0.4762804573485208
  0.3201232194721740  0.4301857201927815  0.4249208140585480
  0.4330832384280899  0.4407107565184464  0.6220502706089397
  0.5425418522855354  0.3960290686345732  0.5761290098590216
  0.5342562072957864  0.4181516646945432  0.4892027283675934
  0.5234083974292819  0.3038621999146491  0.5828729181330348
  0.5086435631219346  0.2661530779466290  0.4996506046438091
  0.5100307360028851  0.3395281039986623  0.4427000326362311
  0.3772379828960860  0.3469926358593373  0.4028469718730235
  0.2859698067437898  0.2786487622718489  0.4327818694409339
  0.3663096078300794  0.2350305692132475  0.4970597791737210
  0.6581883252642630  0.6276188959802936  0.6519838633653521
  0.6010689978140658  0.7108135246388774  0.6299127962676601
  0.7909695076823953  0.6201564753659463  0.6121291487999573
  0.8151662487375505  0.6987856329224884  0.5656191693126458
  0.7001093947489631  0.7584690541315853  0.5785451859992046
  0.7895725954369520  0.5467645037431823  0.5551957801106484
  0.8043509131353644  0.5844726660900155  0.4719704407701852
  0.8234816550682172  0.6766565016253504  0.4786992680948375
  0.6472266675459517  0.5156727306482967  0.5577676888647564
  0.5808192668782074  0.5221837939584206  0.4762804573485208
  0.6798767805278259  0.5698142798072183  0.4249208140585480
  0.5669167615719101  0.5592892434815536  0.6220502706089397
  0.4574581477144646  0.6039709313654267  0.5761290098590216
  0.4657437927042136  0.5818483353054567  0.4892027283675934
  0.4765916025707181  0.6961378000853508  0.5828729181330348
  0.4913564368780654  0.7338469220533709  0.4996506046438091
  0.4899692639971149  0.6604718960013377  0.4427000326362311
  0.6227620171039140  0.6530073641406626  0.4028469718730235
  0.7140301932562102  0.7213512377281510  0.4327818694409339
  0.6336903921699205  0.7649694307867524  0.4970597791737210
  0.9185469789595824  0.3759853740095581  0.6519760845830603
  0.8247855177058909  0.3031506583717174  0.6482399530141310
  1.0365124291381580  0.3563069343022282  0.6007586047208495
  1.0149827682688117  0.2714127658204048  0.5656263672084629
  0.8854500898921407  0.2349224837462511  0.5972428153601512
  1.0475783399290304  0.4197290276457575  0.5337258117524233
  1.0225309676335117  0.3710129947352834  0.4570830227673570
  1.0063280968029336  0.2805297007731959  0.4765241009113769
  0.9248555400613215  0.4732768336370137  0.5432618891251536
  0.8352110142087534  0.4680097734201766  0.4702101595047521
  0.8959041223726254  0.3998036990939820  0.4192154458285748
  0.8497688767044949  0.4527191796844074  0.6196353329974809
  0.7143544376129702  0.4224253437637221  0.5909265287006346
  0.7056669434693884  0.4315401594830926  0.5018215417872771
  0.6981652489941514  0.3319596779848952  0.6103794540465642
  0.6731055205239357  0.2832453249494252  0.5337408997555870
  0.6841690145656762  0.3466474940605092  0.4666931411992804
  0.8021468151053928  0.3269693660261283  0.4154759786161715
  0.8709164503138922  0.2502226808546128  0.4478205200253161
  0.7957992518997100  0.2296677820968080  0.5241921618588705
  0.0814530210404176  0.6240146259904419  0.6519760845830603
  0.1752144822941090  0.6968493416282825  0.6482399530141310
 -0.0365124291381581  0.6436930656977717  0.6007586047208495
 -0.0149827682688118  0.7285872341795951  0.5656263672084629
  0.1145499101078593  0.7650775162537489  0.5972428153601512
 -0.0475783399290305  0.5802709723542426  0.5337258117524233
 -0.0225309676335118  0.6289870052647165  0.4570830227673570
 -0.0063280968029336  0.7194702992268041  0.4765241009113769
  0.0751444599386784  0.5267231663629864  0.5432618891251536
  0.1647889857912466  0.5319902265798234  0.4702101595047521
  0.1040958776273746  0.6001963009060179  0.4192154458285748
  0.1502311232955051  0.5472808203155927  0.6196353329974809
  0.2856455623870298  0.5775746562362779  0.5909265287006346
  0.2943330565306115  0.5684598405169073  0.5018215417872771
  0.3018347510058485  0.6680403220151049  0.6103794540465642
  0.3268944794760643  0.7167546750505749  0.5337408997555870
  0.3158309854343237  0.6533525059394908  0.4666931411992804
  0.1978531848946072  0.6730306339738718  0.4154759786161715
  0.1290835496861077  0.7497773191453873  0.4478205200253161
  0.2042007481002900  0.7703322179031920  0.5241921618588705
