C 
 1.0000000000000000
    10.3070967538906242    0.0000000000000000    0.0000000000000000
     0.0000000000000000   10.0650137691261676    0.0000000000000000
     0.0000000000000000    0.0000000000000000   16.0000000000000000
 C  
  84
Direct
  0.3537090263031487  0.6811170959519991  0.5190269337760566
  0.3626908658407381  0.6562131463272136  0.4310271429588012
  0.2999222419282602  0.5687986542793625  0.5617094560366283
  0.3375494378692098  0.5120500138518362  0.4201887945431724
  0.2993998132781648  0.4586229852769936  0.4999491436210630
  0.3838641296812561  0.5267724755204201  0.6278978670221390
  0.4151418793535048  0.3886107632490727  0.6197059898500583
  0.3695867404604500  0.3485411280241729  0.5354538969475527
  0.5075961547153452  0.5996902494856945  0.6158754949682722
  0.4891232435947481  0.6940929322915511  0.5492863769061170
  0.5737070404644763  0.6924030220024818  0.4776366115921195
  0.6107169145642897  0.5035235006231749  0.6108772418620785
  0.6952961855999170  0.5018484376336393  0.5392715492041225
  0.6768138911827591  0.5962411275576730  0.4726618941837233
  0.5527657064896797  0.3691223954697199  0.6198383749845777
  0.5399352287457220  0.5636822326581578  0.3587371770925781
  0.4920537331874236  0.6785438397734550  0.4016481910496670
  0.6609904000276099  0.5208893547439517  0.3936053313553952
  0.6552233094988396  0.3835814248484736  0.4167457929926527
  0.6911552935101339  0.3666041755188645  0.5025310971527298
  0.5924868201529118  0.2960751336819487  0.5474496294288043
  0.4459565430382817  0.4554683721630094  0.3759543858573319
  0.5162637213268811  0.3454781362064865  0.4114683133292363
  0.4780516791862485  0.2920294028606478  0.4912274722803626
  0.4197881274672241 -0.1554869546946538  0.5509881749203625
  0.4030673220209069 -0.0333908008329207  0.5982362044171644
  0.5507947801580522 -0.1580073295671835  0.5206164795403224
  0.6143171279191434 -0.0374141217070971  0.5492476549913520
  0.5254057968145525  0.0401516517733246  0.6012039933317943
  0.5497311737414349 -0.1622357337007126  0.4292302462036036
  0.6069642832555213 -0.0356380293919063  0.4036368133291252
  0.6491658801292742  0.0384686887392997  0.4767026595901402
  0.4132453317003153 -0.1507636717522521  0.4067707924498834
  0.3884524636762042 -0.0307463611116937  0.3585252784010952
  0.5107953827888273  0.0427578468124906  0.3614796984478784
  0.3300451174841224 -0.1580256913738052  0.4801830517790221
  0.2646935173344661 -0.0290940441106298  0.4830094814898850
  0.2995204002570973  0.0468114903104107  0.4104650212760007
  0.3068864496888337  0.0449784235980750  0.5560724629682399
  0.3641067187350458  0.1715777450989773  0.5304816048197908
  0.3630636328998039  0.1673821515584344  0.4390969360868928
  0.4940792431507205  0.1648542972684347  0.4087248182691161
  0.5838230449191497  0.1674061204477399  0.4795413415106587
  0.5005987014368126  0.1601602902697569  0.5529516261357444
  0.0934125340034703  0.0207673962745132  0.5939078589361699
  0.0819234602347365 -0.0995621274242172  0.5442782264780877
 -0.0323588725870627  0.0498175980001645  0.6278027336132784
 -0.1209077868704530 -0.0527176482077586  0.5989091385902171
 -0.0505533248117103 -0.1511457635786748  0.5491799340525501
 -0.0752051561056682  0.1800098578919262  0.5979752152590774
 -0.1877875410368273  0.1514577614559058  0.5453053420116876
 -0.2173080710579711  0.0103149359604953  0.5477556120548907
  0.0253466734032679  0.2215474695300276  0.5395931302584357
 -0.0259242440136774  0.2369698955794249  0.4553450421214980
 -0.1583960423593622  0.1854220334791995  0.4602625284926097
  0.1357195697402541  0.1312716298222496  0.5411524531679720
  0.1408333723214566  0.0755471329877694  0.4567789924129634
  0.0444428319965022  0.1385710045708406  0.4056071994370798
  0.1113326180177634 -0.0655750071834491  0.4592423759628211
 -0.0012381922361710 -0.0941300150618154  0.4065683633048781
 -0.0441144245025035  0.0360427129676800  0.3767318992007507
 -0.1698906606140765  0.0650959304061168  0.4106332804252280
 -0.2121979788183837 -0.0454303738609082  0.4633864065159595
 -0.1018120249244425 -0.1357081587770549  0.4649290867630236
 -0.0849039166775906  0.6973339949385822  0.4068669146130525
  0.0526499263106702  0.6927929105917785  0.3871825914564406
 -0.0970880765023963  0.7050541678349425  0.4960972268891999
  0.0330271265513399  0.7052042516456878  0.5310744566627850
  0.1292580661582324  0.7032938397042345  0.4638697307638472
 -0.1693423311977490  0.5896457228285702  0.5264589874673441
 -0.0754168458843338  0.5152224476907751  0.5764963993611198
  0.0464641477971248  0.5874875107025176  0.5809429660431842
 -0.1897197504016281  0.5079874084658033  0.4524590013250857
 -0.1263568520287980  0.3793020978753584  0.4604297037749081
 -0.0497908024769983  0.3898060077705641  0.5371220416840612
 -0.1489078359248866  0.5767362101421889  0.3768195039198602
 -0.0436017118390130  0.4951017517297183  0.3433613657717653
 -0.0301471095827943  0.3773670822219957  0.3932177246343333
  0.0782471903175634  0.5673767709707189  0.3478018519562903
  0.1721747322812616  0.4929515586311025  0.3978307288874415
  0.0999515235736131  0.3775363003217695  0.4282060853597273
  0.0877615634641616  0.3852626685898460  0.5174415418561923
  0.1517852305856680  0.5058689806048194  0.5474862354559402
  0.1926070715053811  0.5745990272548168  0.4718337324738088
