C 
 1.0000000000000000
     9.7578824279959413    0.0000000000000000    0.0000000000000000
     0.0000000000000000    9.7578824279959431    0.0000000000000000
     0.0000000000000000    0.0000000000000000   16.0000000000000000
 C  
  88
Direct
  0.4058062175914413 -0.0853774113866273  0.6273269822175269
  0.4885723858696647 -0.1920245711060946  0.5920464527672583
  0.4876640637252109  0.0317290857896388  0.6478587747717002
  0.6237716901167605 -0.1287640445025310  0.5742426044263724
  0.6232052727126275  0.0078547816118263  0.6081984896194577
  0.4334947342994957  0.1525023607277039  0.6092924100325184
  0.5365650224522327  0.2203115163466643  0.5606572741198930
  0.6531162862287002  0.1231503293600617  0.5550639876361306
  0.3286104727785451  0.1047457412116215  0.5487780770236383
  0.3116880038253001 -0.0407518792907900  0.5598255777734032
  0.3295046372541892 -0.1321031366245114  0.4899550851344059
  0.3633329918613452  0.1590240050721642  0.4678254647234101
  0.3811062803057856  0.0677248384595911  0.3979731408789701
  0.3642116306585723 -0.0777962110415653  0.4090182316124570
  0.4903813826510659  0.2416567451988056  0.4767079784086349
  0.5382202009046824 -0.2268414249777261  0.4496269179254490
  0.4349372795567168 -0.2351568835811155  0.5130324590076172
  0.4917990983949427 -0.1459745177819432  0.3804314510108234
  0.5870114039048396 -0.0382855863671471  0.3624067782317246
  0.5193938928168539  0.0919484659278381  0.3624188562773826
  0.5861460009821388  0.1855511039372112  0.4181878421174086
  0.6541426587265322 -0.1500935027530574  0.4871321082583641
  0.6839192468882709 -0.0348271790339345  0.4339489420720443
  0.6833991454940864  0.1017973748039182  0.4679363633870315
 -0.3017502920374633  0.3883647143204772  0.6204600005463364
 -0.2131494951373940  0.2889982277908746  0.5826353306655752
 -0.2254859335663404  0.5055322482305490  0.6477583301752892
 -0.0794461988818589  0.3587801016244106  0.5706394606984708
 -0.0869834212016452  0.4910045495370036  0.6102803434510118
 -0.2818507666164417  0.6285537771983025  0.6132150399169615
 -0.1786508410687503  0.7053520588206184  0.5699490045656010
 -0.0583456150114857  0.6131500934871089  0.5628877884574831
 -0.3813988172966939  0.5843796134972070  0.5484831042676435
 -0.3935581701519786  0.4374680273689113  0.5529314521500822
 -0.3684221536543607  0.3551408389766912  0.4798022013701531
 -0.3441229099384042  0.6490989583389728  0.4708762222337838
 -0.3190331377663373  0.5668200952518208  0.3977663138181117
 -0.3311637054188019  0.4198863896093367  0.4022118945593395
 -0.2207916888004427  0.7348084136441069  0.4861215932956642
 -0.1541860767886531  0.2725626096004064  0.4403068321161933
 -0.2606333364781355  0.2533474772218849  0.5008197535558286
 -0.1995991468079119  0.3596310826228432  0.3737104081298512
 -0.1074585585859247  0.4723543064296895  0.3624753078156219
 -0.1797960672061568  0.5998574446496414  0.3664870673771828
 -0.1197534204594558  0.6889762131302404  0.4275716471935085
 -0.0433761251957247  0.3486937166348611  0.4835833007080053
 -0.0148687276753251  0.4708111675005425  0.4361379445210023
 -0.0223616971124425  0.6030392490467374  0.4758115582516201
 -0.1456122423754911  0.1012544260090405  0.4570957171104636
 -0.1752922532410369  0.1218558348845469  0.5451984742365888
 -0.1426609593197531 -0.0437339287110182  0.4420874364431078
 -0.1705007392033219 -0.1119515928979834  0.5210175260805583
 -0.1972191951040086 -0.0103138347894123  0.5862334501408252
 -0.0070736900293975 -0.0828625263122519  0.4112353878052454
  0.0498177134906217 -0.1698126967629681  0.4771198472293725
 -0.0511411676821989 -0.1901540515870933  0.5427396900737295
  0.0732259191396737  0.0427826541022611  0.4153654146107431
  0.1881227300380073  0.0291672127811783  0.4728434439282713
  0.1662032004202876 -0.1030074732535673  0.5138512917597817
 -0.0120607646981521  0.1602818228553506  0.4364000109067441
  0.0420609982532193  0.2090029834392973  0.5163135496418854
  0.1614333460358835  0.1308195411198297  0.5380501319459483
 -0.0589008246349860  0.1886739221957463  0.5819123176761346
 -0.0020087107410678  0.1017375888154350  0.6477989416349154
  0.1335792512213365  0.0625843946856321  0.6169663353697714
  0.1365261372030324 -0.0824120990058894  0.6019531778333012
  0.0029611939773901 -0.1414370584906692  0.6226602128645649
 -0.0823101496559277 -0.0239167938985007  0.6437046162871044
  0.2050293197429500  0.3575243018162123  0.5859047425989535
  0.2745721065405674  0.4649872833378257  0.6323113257753789
  0.3044629169006400  0.2933263525874220  0.5326415299919739
  0.4349254736619076  0.3615064043524534  0.5464098700164965
  0.4205079488579179  0.4660250984904666  0.6113746191776402
  0.2624399806222916  0.3088663991238367  0.4453927398710200
  0.3675171685534948  0.3967741957851489  0.4083029046745384
  0.4740394011846775  0.4256476591476666  0.4692984733404740
  0.1404604155706275  0.3947024797895313  0.4489358353698369
  0.1612770330884621  0.5241050401532760  0.4054220946020255
  0.3071910127760684  0.5251093136464844  0.3844723686896023
  0.0956999155106778  0.4165013002064875  0.5347318201926551
  0.1077232273864173  0.5644581801651055  0.5474821101342143
  0.1468303078346623  0.6286308922301453  0.4703749097339747
  0.2142187841306995  0.5933063185073792  0.6084770785564808
  0.3192867727026232  0.6812217069507404  0.5713920571638091
  0.2772994927034255  0.6967798952470838  0.4841404531814315
  0.3767367654398016  0.6325707268296134  0.4308752982926720
  0.4860785615402473  0.5736026021631621  0.4820587843324206
  0.4413047629676104  0.5954287667131490  0.5678570830085383
