C 
 1.0000000000000000
    10.1902515035115044    0.0000000000000000    0.0000000000000000
     0.0000000000000000   10.1902515035115044    0.0000000000000000
     0.0000000000000000    0.0000000000000000   16.0000000000000000
 C  
  68
Direct
  0.5908756640293080  0.0651637543822124  0.6232321658656343
  0.4532552367786247  0.0440725963996172  0.6358833910867683
  0.6446807899192040 -0.0329496120987089  0.5690513194258279
  0.4136630414120931 -0.0563080355093985  0.5735859754661390
  0.5304387649689694 -0.1032225772707377  0.5327073162486566
  0.7112119723385373  0.0266807542334261  0.5000143404331736
  0.6617290199296942 -0.0225217171897187  0.4222218512482412
  0.5410163529713720 -0.0970109304261387  0.4430457038088521
  0.6757453264985247  0.1678743950168160  0.5022780515271787
  0.6021514211969105  0.1913876209890596  0.5776514963833053
  0.4733786690617229  0.2492391672365249  0.5731892990929541
  0.6206259642108394  0.2022377062915518  0.4223644155157436
  0.4919226424308760  0.2601010662452077  0.4178971042117030
  0.4182988058313272  0.2835974629089372  0.4932749693500426
  0.6210906452656082  0.0829122644921587  0.3690122280237249
  0.2797121309523493  0.1310952790180571  0.5561166321542650
  0.3800169068554010  0.1598548642061421  0.6160918051736413
  0.2899098554285081  0.2161164443605306  0.4850710956079364
  0.2967782363908510  0.1416296081183679  0.4093063011759382
  0.4103370372587012  0.1776831010850838  0.3618630001766667
  0.4882077143429355  0.0645889522996868  0.3424103369089118
  0.3074927473981637 -0.0030795079051318  0.5248114789526378
  0.3180710388457431  0.0032841186816342  0.4351559884471037
  0.4348571058485168 -0.0436948215575838  0.3942862169326519
 -0.0251115416991880  0.5037996439729528  0.6217963536141810
  0.0928808197737971  0.4273652909731886  0.6242124704379080
 -0.0158689929039263  0.6051677938578326  0.5600562108140937
  0.1693348346797744  0.4659773214554107  0.5491904560944046
  0.1029147151319736  0.5743767420829978  0.5099549026790534
 -0.1240415921859208  0.5981612791143637  0.5031562925020057
 -0.0786152187244485  0.5907608898936411  0.4184945569637998
  0.0645794900660756  0.5658065448729890  0.4235006503307983
 -0.1903553964839247  0.4712977025609268  0.5201777570886860
 -0.1298334526403232  0.4136071452671269  0.5927486398420152
 -0.0752738725415800  0.2834087619015421  0.5882476911633360
 -0.1964006641578172  0.3988022535806078  0.4430357714963837
 -0.1419010079441956  0.2686417341385025  0.4385349846360957
 -0.0813448571255311  0.2109436986449524  0.5111065757100344
 -0.1340575905312787  0.4795528088561269  0.3766986578714639
  0.1386252812292851  0.2360630029628146  0.5470274578979537
  0.0643010397788715  0.2906548953959296  0.6145845398628698
  0.0542493504796008  0.1720318375396418  0.4881130393497768
  0.0758016871132282  0.2215929282012102  0.4054981179442174
 -0.0447767577823283  0.2664201226279511  0.3694933177333551
 -0.0329577657083518  0.3994035697859709  0.3412773448616673
  0.1973346239763911  0.3489529511374862  0.5019936721598460
  0.1589007518274365  0.3402730504328418  0.4155634587700242
  0.0925180683195258  0.4487276152274902  0.3763295355860089
  0.9366817978655123  0.0622353579109539  0.4692330360732601
  0.9733020371573100  0.0730465895296891  0.5567328496879645
  0.8460637696472326 -0.0449623637595007  0.4618084070355963
  0.8272050819539554 -0.0998435864246935  0.5447728853272926
  0.9016714417828585 -0.0240586835865436  0.6062697021840879
  0.9009286788520284 -0.1443905175416669  0.4058804217333346
  0.9228949977120855 -0.2586325687502478  0.4594235887345849
  0.8748375234080452 -0.2323579839996507  0.5432930052328977
  1.0320999189140563 -0.0967002794122133  0.3862528210960621
  1.1327838569094415 -0.1868152772272900  0.4158629893169528
  1.0611415719834019 -0.2839218921619266  0.4653732040822574
  1.0528662089081398  0.0354018703902133  0.4183357126507579
  1.1596143256299367  0.0214771751396924  0.4788143525141957
  1.2072740990149515 -0.1110337551571935  0.4773442297580370
  1.1115512564007770  0.0477678879972179  0.5626641381722399
  1.1335272822613269 -0.0664646802993911  0.6162084835675343
  1.1883881887281285 -0.1659165405199748  0.5602997009254418
  1.0977598630766749 -0.2731166772928912  0.5528718725850772
  0.9815733780582602 -0.2462764402254601  0.6037825289891090
  1.0023676315710981 -0.1141695886167159  0.6358702244594765
