C 
 1.0000000000000000
    14.7874844428656509    0.0000000000000000    0.0000000000000000
    -4.5274131123907457    3.4022284801253084    0.0000000000000000
     0.0000000000000000    0.0000000000000000   16.0000000000000000
 C  
  44
Direct
 -0.1883967891123144 -0.0719974677181292  0.4146724836004544
 -0.2315750842341690  0.0788768642008984  0.4277564358382141
 -0.0490243496156438  0.2053910511316958  0.3699131699741610
 -0.0983285794460968  0.5012280516047857  0.4048381943193138
  0.0131871245714025  0.5786940207321113  0.3696325986362075
  0.0576152943618779  0.2867975399132022  0.4146402975299693
  0.1949197399781707  0.7010605551911275  0.4278160680791305
  0.1622481895425448  0.8814067018024415  0.4048696143300808
 -0.0078421889926609  0.1113248477257916  0.4988544887616616
 -0.1583158994123494 -0.1081331683407239  0.4988556515518128
 -0.2012352552868431 -0.0232706047482131  0.5598724652316256
  0.0998453814233644  0.4158192225216203  0.5599007729764726
  0.0569452515801101  0.5005993318183947  0.6209111470768874
 -0.0935359505555387  0.2811862852826029  0.6209078030555787
  0.2342370361803334  0.7858197554888502  0.5146078309786132
 -0.1702190758360220  0.4468302404882828  0.5430017232594195
 -0.2589370813226641  0.0664148363783312  0.5145004040710373
 -0.0822927611159163  0.5654425410252647  0.6144884531391699
  0.0736564693565707  0.9422507621448025  0.6009519231051914
  0.1637041166098373  0.9240193313638183  0.6144603581456758
  0.2563213657497417  1.0690190031921984  0.5431219885826717
 -0.0608302505572504  0.7262585685561006  0.4753277873564223
  0.0881627572012385  1.0287223201644247  0.5106457240669696
  0.1996905389322772  1.1062394100803181  0.4753991951521917
  0.3688374703908544 -0.0489779886969734  0.4289562380352194
  0.4216090359385526  0.1799255441863486  0.5039394622681420
  0.2843959729467518 -0.4286551671884991  0.4547497210470001
  0.2854827852489536 -0.4322673884622885  0.5455484325582818
  0.3655011624126006 -0.0592298252509497  0.5782614312485892
  0.3554504010218328 -0.4934674040867660  0.4214105430459060
  0.4086747779163110 -0.5096270685992759  0.4952634173950862
  0.3625390432012631 -0.4825291130549016  0.5706749690648896
  0.4921097614319499 -0.1239355561199204  0.3809125864643488
  0.6262889220258068  0.0590442090871062  0.4202962355634707
  0.5701640263892153 -0.1801797284990127  0.4945949737009805
  0.4970229279805928  0.1432110822012433  0.3781562009253190
  0.6292444982220794  0.4822907495140121  0.4278612263691705
  0.7063324900442853  0.4321169248389890  0.4529935842272738
  0.5830965932757094  0.5093678647918994  0.5032514400910370
  0.6363304286227364  0.4932468357754565  0.5771023667946342
  0.7073874685659366  0.4284205679792876  0.5437867163131337
  0.6229342845545900  0.0487095111352266  0.5695787018932063
  0.4947473209839860 -0.1434577123292020  0.6203896498587254
  0.4996919604420605  0.1237731561430461  0.6176341793575580
