C 
 1.0000000000000000
    11.7918952413732896    0.0000000000000000    0.0000000000000000
     0.0000000000000000   11.7918952413732896    0.0000000000000000
     0.0000000000000000    0.0000000000000000   16.0000000000000000
 C  
 104
Direct
  0.1840462577291682 -0.0158991025993487  0.4791505065756205
  0.1284178172640627 -0.1193093987114728  0.5022518802353958
  0.1502102173313580  0.0193238382027705  0.3971820918936786
  0.0385644309992919 -0.1377057450483814  0.4387305586787447
  0.0517392625729762 -0.0530297022288591  0.3746486208045543
  0.1083472240659004  0.1332481050312329  0.3987627478414761
 -0.0029400449495884  0.1392458925501003  0.3629804358145945
 -0.0416999272137520  0.0202461687746806  0.3536351700207460
  0.0947162592878728  0.1631498993273191  0.4882908518051787
  0.1410302072714855  0.0719154659726681  0.5374452988597679
  0.0719634429084628  0.0163843064839913  0.5993957914420112
 -0.0207201655229314  0.1989559082052066  0.5010681091075743
 -0.0897574520446185  0.1434764571302339  0.5630079302109923
 -0.0434539137683971  0.0522136746952086  0.6121608147656145
 -0.0807698096969170  0.1920544005191480  0.4195963586523301
 -0.0458556751939295 -0.1378255033271036  0.5727383158799347
  0.0711358019414513 -0.1069621091212102  0.5806106137552270
 -0.1179941731784614 -0.0481220778147660  0.6014535062044909
 -0.1989745277286309 -0.0178654264357326  0.5385980584586035
 -0.1936360989780742  0.1010940559906141  0.5210753758370550
 -0.1772508132175893  0.1208090504098172  0.4335010613608138
 -0.0680249855432846 -0.1490555468808243  0.4818531504374780
 -0.1614552023730606 -0.0757257483175949  0.4609279238769767
 -0.1482661555464160  0.0089258865667109  0.3968089555048092
  0.5910168755249677  0.7965515827849206  0.6041420737023986
  0.5615552339704096  0.9085482993570799  0.5731074529705864
  0.6988445665092408  0.7664239216752811  0.5689424091539463
  0.7354196185066703  0.8599720153938188  0.5163194194030639
  0.6530404718831532  0.9525658502780272  0.5205562601379670
  0.6864276014625875  0.6633877312622091  0.5188543280977037
  0.7093168689409377  0.6998105882266660  0.4331138513048531
  0.7419277679045061  0.8186600044672598  0.4320853279184572
  0.5652694551681101  0.6394160138808963  0.5201557433174278
  0.5164974481895314  0.6446560802485701  0.4366344541080318
  0.6079914315976432  0.6886401016669025  0.3840939172141173
  0.5056164083022187  0.7139255219878470  0.5779018000357129
  0.4276142365621434  0.7785278856865039  0.5251106019816190
  0.4340998366988693  0.7372269338932328  0.4408687329021805
  0.4602234317195453  0.8973568815340870  0.5240986770291698
  0.4831018345399731  0.9337829254603547  0.4383607407593774
  0.4706967400911818  0.8307654285861710  0.3882543059628162
  0.5785333168426878  0.8006339180284845  0.3530568043877252
  0.6639336746160728  0.8832790706462608  0.3792970046235902
  0.6042569737150765  0.9577935525305337  0.4370374143408221
  0.3828457786799757  0.2431646691756008  0.6408067767051491
  0.4163776415036041  0.1249831649541902  0.6336906345946054
  0.2842395157169614  0.2592801745904797  0.5895726848924268
  0.2573886062716187  0.1509560397724763  0.5510499034860932
  0.3361788274156233  0.0638156533649996  0.5804525717057095
  0.3088764386858440  0.3437478794506684  0.5251213623596819
  0.3035220710259965  0.2806803698594761  0.4465047292519808
  0.2693331331530853  0.1642288172511875  0.4623244357722830
  0.4287357637672810  0.3696931832455845  0.5359939830946764
  0.4942844639229808  0.3389605753432263  0.4622649410891572
  0.4140753995141517  0.2778288798709221  0.4090303272048045
  0.4742195494056634  0.3167141684572259  0.6110584270854941
  0.5611256594469312  0.2385820814353242  0.5803917450795834
  0.5730938850222287  0.2518420531933204  0.4916632811642352
  0.5269353100134909  0.1221556830858950  0.5962240539410606
  0.5215910854689569  0.0590860829322082  0.5176116434317982
  0.5462197752226460  0.1435295671733043  0.4531445809342920
  0.4476043527626467  0.1596493379744013  0.4019108918561068
  0.3562303539975127  0.0860812596934870  0.4316624782371982
  0.4017385962572755  0.0330960515809177  0.5067250464737624
  0.2100833642762140  0.6209589510753023  0.5975291797826899
  0.0962695731791130  0.5854240614803888  0.5745972203324972
  0.2388693399541590  0.7169767338385871  0.5466415637594916
  0.1426807480616324  0.7402376253785552  0.4925141881313274
  0.0499052014283433  0.6618625803745746  0.5112030579039553
  0.3389392968097327  0.6901106655090483  0.4963648490372752
  0.2978910896430088  0.6903917041303362  0.4101017224863228
  0.1792849194742292  0.7237643776177587  0.4078369642651086
  0.3622289580870345  0.5712973418171547  0.5143879729506834
  0.3520264314248976  0.5014494734826436  0.4397135155109549
  0.3056962090557181  0.5778989184803182  0.3763275666461564
  0.2906526067813143  0.5291092385594074  0.5817187775344486
  0.2226810406611769  0.4395525851296501  0.5430831476969684
  0.2592735909120629  0.4230553205668091  0.4584018680772095
  0.1040961912176036  0.4729276919189431  0.5408343097882788
  0.0630448761303542  0.4731987918480172  0.4545753290171688
  0.1630952010323150  0.4463397725946787  0.4042794603705407
  0.1918851976295163  0.5423667880145465  0.3533925734792132
  0.1112968751116947  0.6342166408391596  0.3692034717367380
  0.0397150951915792  0.5920039156738711  0.4365322914717406
  0.7637792899287293  0.4187573008852191  0.6474196706248576
  0.8816633022949006  0.4481074028308814  0.6322008672326946
  0.7442147422720432  0.3087273624271737  0.6118735302868815
  0.8501274767166567  0.2706904297877401  0.5748551347578297
  0.9393140978704335  0.3545189232684521  0.5898057739397213
  0.6563647433386988  0.3170249452038291  0.5476108414201104
  0.7149478503239254  0.2900992539558058  0.4695168580705111
  0.8319759815833624  0.2591244441006886  0.4865727994256316
  0.6317762608483564  0.4378118553093263  0.5417617534614207
  0.6587554806876147  0.4821671821091529  0.4591858796862340
  0.7163706220560768  0.3885700630575065  0.4167966777727654
  0.6891833509265681  0.5015304518856653  0.6072414495867584
  0.7660588553478976  0.5775573819921779  0.5624191993642338
  0.7479201308090349  0.5660136665197442  0.4741301459892062
  0.8830625505154326  0.5465848727010392  0.5794884211819517
  0.9416480438785754  0.5196702165445459  0.5013970551740069
  0.8538213142815125  0.5279552231647966  0.4371194265265674
  0.8342524719758180  0.4179164679883394  0.4015751227646189
  0.9088671535018910  0.3351436895005879  0.4417560111240504
  0.9662804747807727  0.3988856884375803  0.5072301693428438
