C 
 1.0000000000000000
     9.8111419638009423    0.0000000000000000    0.0000000000000000
     0.0000000000000000   12.0115761710610336    0.0000000000000000
     0.0000000000000000    0.0000000000000000   16.0000000000000000
 C  
  88
Direct
  0.2705701585988674  0.1723999026321240  0.5177431955127823
  0.2660796642379733  0.2787903606697849  0.4772944600550177
  0.3382044619725805  0.0920268692232530  0.4662275517012949
  0.3589727564089595  0.2702488314615900  0.4043678431617097
  0.4031549627312926  0.1563128050556498  0.3976518091389503
  0.4475116489379888  0.0402712505896662  0.5109676933209626
  0.5729412469829380  0.0498651884308999  0.4655872626758827
  0.5464555915388077  0.1303925692782523  0.3972019367894565
  0.4661050035762201  0.1064239832702531  0.5884628787671875
  0.3578626876832938  0.1872276311533676  0.5925947315544567
  0.3894341150030029  0.3039016998206618  0.6001449549546893
  0.6060390898356707  0.1422371284063606  0.5919030960814946
  0.6376108911460804  0.2588581052622842  0.5994745203818761
  0.5293634041035969  0.3396819972168016  0.6035903483315982
  0.6768610994155669  0.0987658841881116  0.5165962669275349
  0.4281567374801999  0.4226654793406993  0.4876549357317946
  0.3219951443100705  0.3634731890186993  0.5300954373605066
  0.5513762621070196  0.4219604969339198  0.5357437080243864
  0.6628735793519683  0.3805219659000785  0.4870836057605671
  0.7282961074838019  0.2897749501709311  0.5290176433867859
  0.7350981451286560  0.1937367970306337  0.4760018973611692
  0.4580865412101857  0.3582715037833440  0.4107018239587464
  0.6013960600786952  0.3323923870932273  0.4103437352412508
  0.6455546406765583  0.2184329414536030  0.4035918457056168
  0.3239076347413067  0.8616753835327219  0.5161885319503912
  0.4270983184964550  0.9146097556377534  0.4667941568820381
  0.2711644502771609  0.7654622406817730  0.4743382134283550
  0.4597069124034942  0.8354611541722885  0.3984301108965497
  0.3646793095210940  0.7443523647144745  0.4030738443277431
  0.2806373495536249  0.6693926863097294  0.5269560496566299
  0.3522882923992366  0.5812637906132274  0.4854918497165847
  0.4140090855688188  0.6318004448753307  0.4098399042416493
  0.3673447803963703  0.7024000777389700  0.5987956047110754
  0.3937878929309686  0.8200123567851685  0.5921979122160113
  0.5320049810043845  0.8603829611706229  0.5907849813464769
  0.4791258960530705  0.6250485129191341  0.6040111351324621
  0.6172906073221208  0.6653941372928156  0.6026237959787468
  0.6437501536513424  0.7830182632127483  0.5960082941287593
  0.4636342099102311  0.5425074543007752  0.5355117651207624
  0.6631132608917835  0.8795381179386760  0.4703817946861577
  0.5501118104079543  0.9279794326450626  0.5138525140088668
  0.7331200757973368  0.8010713570875310  0.5224294964660056
  0.7442527910190834  0.6953729240193128  0.4816015752347287
  0.6897848524634742  0.6087809753336247  0.5332501711681634
  0.5883479355987569  0.5461430513322255  0.4891362851243917
  0.6040763244754438  0.8140346424171973  0.4006189514050225
  0.6534633270654401  0.7015113924656123  0.4074728305613181
  0.5583950516378214  0.6104014639807123  0.4120821858897871
  0.2070393831135330 -0.0463517281212202  0.4842947318060082
  0.1795366467069218  0.0556435104854545  0.5301224735231072
  0.1382113959457257 -0.0386895007739699  0.4053461152409568
  0.0685068498342007  0.0680060616781952  0.4028268351653624
  0.0974474840982090  0.1311290406297832  0.4789865528117042
  0.0393830170353887 -0.1293949605370295  0.3983039967906091
 -0.0933021655742790 -0.0739025569395550  0.3971760271807964
 -0.0750674717062782  0.0461708184809797  0.3977500912769469
  0.0445094202436999 -0.1851995202081276  0.4790631573634322
 -0.0859435314952198 -0.1788460045928162  0.5222031983566354
 -0.1680222592712241 -0.1033912724151447  0.4710534857988684
  0.1548374822733920 -0.1422305116465381  0.5306907297125992
  0.0865732961443371 -0.0939193688048174  0.6034295582843173
 -0.0570101188806736 -0.1157490847943424  0.5983716502978881
  0.1048310458540160  0.0261315296536234  0.6039992668578197
 -0.0278487931171228  0.0816234810545069  0.6028793740006434
 -0.1267039959203708 -0.0090580169689247  0.5958342447561670
 -0.1955297574642619 -0.0013973328634985  0.5168783888181882
 -0.1433244509381643  0.0944992576008662  0.4704862542252787
 -0.0330031066255807  0.1374674313352921  0.5221320438524951
  0.1555767431973131  0.3926119371052673  0.5289404798005302
  0.0881745704202643  0.4326840999449305  0.6040029130477790
  0.1900531881063416  0.4878645305519008  0.4790720563520837
  0.1437249305844242  0.5862958870077183  0.5235876576017503
  0.0844696604037456  0.5544398804679033  0.6040157402497786
  0.1214074019821256  0.4799534051661588  0.3981284589784801
  0.0251394990247562  0.5729275486106529  0.3977391685793846
  0.0414637962696625  0.6390572792155593  0.4731452503335062
  0.0360835328102606  0.3811343428236966  0.4049158906712484
 -0.1079012928270616  0.4086833668648202  0.3971887155844637
 -0.1115843104196493  0.5304260860139320  0.3971794211723682
  0.0636240850383831  0.3202182309831470  0.4817685829775441
 -0.0648839522245692  0.3240533084390354  0.5280362751718390
 -0.1671721513825858  0.3768076298249846  0.4776038426167383
 -0.0485383467893789  0.3901624131471217  0.6034327086067046
 -0.1448110347595692  0.4831277556831984  0.6030482991493091
 -0.2134729099853470  0.4752454676941614  0.5221108004770233
 -0.1789869942742987  0.5705016910547469  0.4722385743043835
 -0.0870354898308100  0.6429020002532926  0.5194236209945661
 -0.0595197350080278  0.5819743123101991  0.5962828320302431
