C 
 1.0000000000000000
    12.6372409277075164    0.0000000000000000    0.0000000000000000
    -6.3186204638537644   10.9441716771391366    0.0000000000000000
     0.0000000000000000    0.0000000000000000   16.0000000000000000
 C  
 108
Direct
  0.5961622062207915  0.3228760811671433  0.6396742127288945
  0.7245594906326543  0.3653939002260865  0.6437218266359841
  0.5734216621957180  0.4078832129758144  0.5951982940152706
  0.7833896381557222  0.4698401470879617  0.5847913269715029
  0.6911565993841061  0.4957050491354506  0.5550785991144223
  0.4891231766996958  0.3481603506629606  0.5282172731279603
  0.5390775906267562  0.4091473592128200  0.4504329690327575
  0.6700863789405692  0.4965897147127379  0.4666977610932444
  0.4767615484209882  0.2254842242998047  0.5201990018185534
  0.5422318944333702  0.2100393858203159  0.5883808870245992
  0.6365848659878189  0.1805964693948735  0.5717560065027282
  0.5055757679272089  0.2114601101977154  0.4353178001526778
  0.5998637394324723  0.1819945541184757  0.4186920691158679
  0.6653659804241923  0.1665699709752112  0.4868771611241731
  0.5361828962507927  0.3252200963761919  0.3890938700605575
  0.8407805383181385  0.3243885167465925  0.5477903793235240
  0.7506903760497979  0.2746836805232662  0.6126185314481418
  0.7977262484176992  0.2517152122996471  0.4734760582969826
  0.8063900162920421  0.3255506158235526  0.4030393944551811
  0.6905933815632636  0.2769371199533326  0.3620323844090412
  0.6552474091923637  0.3680620624808695  0.3544538884250840
  0.8544973695079132  0.4447608303781208  0.5261279051385522
  0.8333802124890787  0.4455061881509317  0.4377448089540802
  0.7411590124368570  0.4714271472801300  0.4080451522399657
  0.0714111564674074  0.0542523849713851  0.6406628085754488
 -0.0215720368866225  0.0843368615507872  0.6227837791226838
  0.0252263277733530 -0.0741819030588974  0.6309674023659665
 -0.1236287452762986 -0.0264130179213262  0.5839775470093477
 -0.0950382696858139 -0.1231378125985810  0.5888607459320405
  0.1003893219850746 -0.0959173058042599  0.5747023510736537
  0.0286665498287450 -0.1759040176502707  0.5083288331082402
 -0.0929562202727887 -0.1854192479710516  0.5140487879957113
  0.1836724712875817  0.0233836329826592  0.5347727775283108
  0.1659360433510812  0.1152184111293407  0.5751318849854006
  0.1341802258914255  0.1911025941674095  0.5263550640994004
  0.1696980038711431  0.0073802743380838  0.4455794259690819
  0.1379900762873766  0.0832510857715530  0.3968124236523438
  0.1202246218508700  0.1750842287724984  0.4371719343302934
  0.0775425541707643 -0.1222918639668174  0.4285690284949754
 -0.0647438346413069  0.1407460097268274  0.4924607883797890
  0.0194007458592186  0.1785988819526416  0.5609429626536305
 -0.0034176073738673  0.1522301774765871  0.4147903009095498
 -0.0612136505659209  0.0391142521382625  0.3698177570038427
  0.0256498310906945  0.0020809210676949  0.3488485622386665
 -0.0144326142892597 -0.1194654305280280  0.3779525671168594
 -0.1500455194526591  0.0081072257427213  0.5042722759090805
 -0.1478512281468501 -0.0540536598831097  0.4294299378609440
 -0.1193011331763738 -0.1508241912191699  0.4343383275439539
  0.3686440738396193  0.7656568900622761  0.5391138773577339
  0.4777700930536974  0.8822807276244465  0.5556445108094971
  0.3551477257530899  0.7510228393767056  0.4501013904051867
  0.4560076012103799  0.8587194580430507  0.4121045133914133
  0.5374813081595543  0.9404623680198108  0.4769595348886428
  0.2388162705682506  0.7403115749603902  0.4251518936342283
  0.2732622201297440  0.8498787410237112  0.3753345132133871
  0.4052272411914309  0.9200196459047505  0.3657287124496660
  0.1890861563789221  0.7595575468322356  0.5020680622660342
  0.1763144407663043  0.8676630777929629  0.4966722297837533
  0.2359931082133494  0.9258083567074610  0.4179829684553328
  0.2614691002003341  0.7648382072695094  0.5744248699469618
  0.3085339277559569  0.8880763623260417  0.6078992937761321
  0.2577598877139920  0.9493990657145226  0.5615357690315469
  0.4404787203862376  0.9581863609218421  0.5983000078716567
  0.4749260881511232  1.0677561850945887  0.5484911582900459
  0.3586149222017654  1.0570735030902991  0.5235275714115905
  0.3451165295621169  1.0424318882836279  0.4345098921249709
  0.4523116272072423  1.0432633532002999  0.3992008744375347
  0.5246944580447122  1.0485605303872549  0.4715710191465470
  0.2801368549009478  0.6116246241833048  0.4941438201963266
  0.1788147028753324  0.6224308260287394  0.5271194089092902
  0.2646780576439770  0.5969387607661729  0.4052323895517710
  0.1538477780024620  0.5987159483278088  0.3837482833816699
  0.1007285616891307  0.6198518129817577  0.4587253458450096
  0.2531312285268015  0.4800036931165854  0.3809831752058165
  0.1282582483662834  0.4080704564917614  0.3492865260992229
  0.0692496574261231  0.4815937019042060  0.3490437053450676
  0.2520277333000172  0.4217870586113117  0.4597998485927171
  0.1371834526737436  0.3082365756866448  0.4719074121497942
  0.0591293678794866  0.3056558879140795  0.4035038921593885
  0.2790728756198264  0.5046657498268652  0.5300840759385281
  0.1686871894456310  0.4464845925884023  0.5815812405583763
  0.0840706154620260  0.3293502687736585  0.5468921127288771
  0.1097100670285394  0.5200158510685611  0.5813401719929397
 -0.0151627110815969  0.4480830012771836  0.5496522415948963
 -0.0267410611937474  0.3311409380405840  0.5253935185855916
 -0.0421939956333182  0.3164590487915768  0.4364758547220156
 -0.0411400507556274  0.4234277561812732  0.4005392473040358
 -0.0141076324987143  0.5062932457570971  0.4708391047032786
  0.4538223443343806  0.7032317687666542  0.5677921872195456
  0.4305265117829484  0.5842996641626853  0.5392703980112047
  0.5026507211132302  0.7860702190039813  0.4984930639524959
  0.5092955215939808  0.7178717088551585  0.4275183022245137
  0.4596716586080107  0.5895200895157252  0.4503432784785604
  0.6248144831161719  0.8856600307812319  0.5197402771739656
  0.7064858064915790  0.8701063830313630  0.4627125872943122
  0.6357033809389652  0.7699947922986070  0.4053212043321164
  0.6501874841699832  0.8527791159814252  0.6015357208868113
  0.7548897092954819  0.8341174374776285  0.5987372613726790
  0.7840401647494554  0.8393732876579609  0.5098192307758813
  0.5428980505106649  0.7467320872215812  0.6359474898893093
  0.5788707678445686  0.6536770846763973  0.6437694128646629
  0.7052842387923319  0.7057798528348493  0.6215797230516230
  0.5080799415123318  0.5535827347945896  0.5863915860370628
  0.5897474916974201  0.5380207014724950  0.5293704594232997
  0.7119216988623099  0.6375998347505524  0.5505978124711028
  0.7607486772530265  0.7204458939097325  0.4812952776358036
  0.6716620686453716  0.6769270121023118  0.4131340482332452
  0.5643792611591466  0.5708648321289338  0.4475565878573540
