C 
 1.0000000000000000
    14.1133158701426478    0.0000000000000000    0.0000000000000000
     0.9890702033855401    4.7788845322485480    0.0000000000000000
     0.0000000000000000    0.0000000000000000   16.0000000000000000
 C  
  64
Direct
 -0.1702327572723702  0.6694907929054268  0.4877190312614681
 -0.1444031764689653  0.4368260546034305  0.4318343249471142
 -0.1510148552896965  0.5828487070505491  0.5726330875871746
 -0.0885358851566835  0.2045449841837483  0.4825424869490408
 -0.0924458530488650  0.2936927561732054  0.5684611264432283
 -0.0907013320757387  0.7476240051740191  0.6121783053578803
 -0.0064094556102807  0.5722295394531389  0.6475188775133593
 -0.0042238454303593  0.2872221460244800  0.6143173344128040
 -0.0550890932709890  0.9082321307588006  0.5444170551876855
 -0.1037495832746536  0.8604216138337838  0.4683012341063807
 -0.0483721077384714  0.7538648861771832  0.3954662834904241
  0.0490137852708091  0.8495848330250731  0.5477516164717220
  0.1043771754434527  0.7431477008915433  0.4749438106572347
  0.0557182886100252  0.6952687249017399  0.3988195169572016
  0.0798620969631817  0.6516844429526391  0.6177797915073716
  0.0062419261120422  0.2808663373708850  0.3663141574376600
 -0.0797296627658738  0.4950112680715400  0.3683883645047015
  0.0908538121636596  0.3991317552292887  0.3739938372806507
  0.1508428068640308  0.2704409498879752  0.4411589945694112
  0.1703567777642367  0.4774788095720590  0.4984680743980053
  0.1442907525402151  0.4164191377497095  0.5819973254435689
  0.0035984642040234  0.1091253171660121  0.4424499756418027
  0.0918430594747699  0.1028868970658885  0.4882476822876241
  0.0879086619925014  0.1919562097778827  0.5741899550201077
  0.4325566690453941  1.1944915327952579  0.5397067752410322
  0.3541577851456164  1.2460738738699295  0.6001945427162186
  0.3900836448642573  1.2018803704489638  0.4580196789484902
  0.2856506551834725  1.2579214666255882  0.4684773492357305
  0.2608558346717225  1.2985328547641095  0.5570148074905937
  0.4226704678889443  0.9311606359019681  0.4170728046626260
  0.3350229632538788  0.8170322053401270  0.4083132400200067
  0.2515011178726557  1.0192717688189863  0.4376428699942830
  0.4794558922211044  0.7564950350690040  0.4804882576010119
  0.4366274189848343  0.5185919610054943  0.5023744800413960
  0.3433498859652892  0.5710384690593455  0.4591768402732805
  0.4938959437090902  0.9188470380826771  0.5540602177639506
  0.4460047852510002  0.7978221235407350  0.6217304826523318
  0.4118510457453410  0.5591435891838444  0.5909132888760529
  0.3625070366162687  1.0000683814051499  0.6510546327864239
  0.2748630413887126  0.8859371623919470  0.6423032441524316
  0.3074221463295414  0.6152164876139642  0.6013547905101134
  0.2649498628896856  0.6226153765626401  0.5196609878335297
  0.2035990630172777  0.8982862015143133  0.5053154975516767
  0.2180403975743400  1.0606043419882403  0.5789031424685566
  0.5941491906791621  0.0879608872050086  0.5938432877572798
  0.6861932853413453  0.1578412838028373  0.6162029864594059
  0.6134233261416915 -0.1372253382113061  0.5345641480047794
  0.7172899827823475 -0.2052323463118830  0.5205949836699560
  0.7653278257216858 -0.0310616858818667  0.5737999229935132
  0.5630931456366723 -0.0475957629225546  0.4562530157722469
  0.6405467215232186 -0.0455924476615601  0.3956593359868208
  0.7341121142226453 -0.1484387513324632  0.4344500829877580
  0.5200980083369872  0.2466884445004512  0.4693579277461445
  0.5589895163296510  0.4253123264238625  0.4112204309134806
  0.6380957482459878  0.2363875859943697  0.3688118084783260
  0.5307741033343015  0.3299873587119074  0.5556810877711539
  0.5901785288969091  0.5426829932464788  0.5505608594569953
  0.6070082607259775  0.5995340700787352  0.4644177253471473
  0.6837197783045554  0.4398326435201041  0.5893577600550326
  0.7611720653799063  0.4418593744373241  0.5287692837560029
  0.7108678100011433  0.5314703455250928  0.4504481189329179
  0.7301398067760908  0.3062620394357567  0.3911677356084172
  0.7935287764102482  0.0642317835549975  0.4293371772280499
  0.8042066749597395  0.1475905262398726  0.5156617271392407
