C 
 1.0000000000000000
    10.6170275556783285    0.0000000000000000    0.0000000000000000
     0.0000000000000000   10.0321222851670910    0.0000000000000000
     0.0000000000000000    0.0000000000000000   16.0000000000000000
 C  
  88
Direct
  0.3046714129305868  0.1377972017768675  0.5329889371260869
  0.3046188848345913  0.1178085164164314  0.4442996404344999
  0.2877299312881859  0.0139517193278746  0.5760972358616623
  0.3132375773659657 -0.0284383296389876  0.4315389665203014
  0.3030971114824110 -0.0918572337367533  0.5119676943785649
  0.3868192421489807 -0.0066537995060579  0.6353732917263721
  0.4471905721189935 -0.1325952717370444  0.6217216060723082
  0.4003373105470814 -0.1814410300550003  0.5399267911881925
  0.4833775189588297  0.0962904181655681  0.6172002591201190
  0.4331059305324699  0.1846343416200602  0.5545804488680299
  0.5009173057861543  0.2063152217288703  0.4778064261302578
  0.6015479154341394  0.0295705244882867  0.6031020381662099
  0.6693587332350234  0.0512637145783281  0.5263724948784806
  0.6190773856713494  0.1395959557786228  0.4637326289407199
  0.5804238371361046 -0.1160715747210667  0.6124047216848837
  0.4802805199031748  0.0751537097287536  0.3585744035977396
  0.4155077407781536  0.1734475929348240  0.4072349044940318
  0.6091488710753249  0.0640342233621382  0.3842804734016516
  0.6397866307682814 -0.0712913388025554  0.4042085175650976
  0.6913007922312528 -0.0803577034949247  0.4867201924627404
  0.6229527828029273 -0.1752294679417290  0.5360231100010654
  0.4206704297649490 -0.0545144257106577  0.3790876437005404
  0.5180029826904388 -0.1439784643095213  0.4070503351360901
  0.5078090846952867 -0.2074345002523264  0.4874813975395932
  0.1953285870694132  0.6377972017768673  0.5329889371260869
  0.1953811151654087  0.6178085164164312  0.4442996404344999
  0.2122700687118141  0.5139517193278744  0.5760972358616623
  0.1867624226340343  0.4715616703610123  0.4315389665203014
  0.1969028885175889  0.4081427662632466  0.5119676943785649
  0.1131807578510193  0.4933462004939420  0.6353732917263721
  0.0528094278810064  0.3674047282629554  0.6217216060723082
  0.0996626894529186  0.3185589699449995  0.5399267911881925
  0.0166224810411703  0.5962904181655679  0.6172002591201190
  0.0668940694675300  0.6846343416200600  0.5545804488680299
 -0.0009173057861543  0.7063152217288701  0.4778064261302578
 -0.1015479154341395  0.5295705244882866  0.6031020381662099
 -0.1693587332350235  0.5512637145783279  0.5263724948784806
 -0.1190773856713494  0.6395959557786227  0.4637326289407199
 -0.0804238371361045  0.3839284252789331  0.6124047216848837
  0.0197194800968252  0.5751537097287535  0.3585744035977396
  0.0844922592218464  0.6734475929348238  0.4072349044940318
 -0.1091488710753249  0.5640342233621379  0.3842804734016516
 -0.1397866307682814  0.4287086611974444  0.4042085175650976
 -0.1913007922312528  0.4196422965050751  0.4867201924627404
 -0.1229527828029274  0.3247705320582708  0.5360231100010654
  0.0793295702350510  0.4454855742893421  0.3790876437005404
 -0.0180029826904388  0.3560215356904785  0.4070503351360901
 -0.0078090846952868  0.2925654997476734  0.4874813975395932
 -0.1163115282096523 -0.1562928028322177  0.5097310911899169
  0.0127967364546776 -0.1599200402149518  0.5397776420170924
 -0.1122360358680833 -0.1536014460189908  0.4200813340220967
  0.0193943786136173 -0.1555429586569311  0.3952130560916048
  0.1000588242352854 -0.1652638302215791  0.4690958024767107
 -0.1726685323425152 -0.0316906464447673  0.3899484684658606
 -0.0707948008865711  0.0441809643272357  0.3509133772667808
  0.0450932314345421 -0.0328945002396348  0.3523091469641036
 -0.2029954971692517  0.0426568212000982  0.4655060698329521
 -0.1363920557908858  0.1694603536332945  0.4683613635474644
 -0.0491696735419147  0.1641159910391586  0.3976710727177761
 -0.1795027744791770 -0.0362413672803358  0.5402897520080250
 -0.0814627221892084  0.0370999289917113  0.5851405643860983
 -0.0557485449526768  0.1597642042998259  0.5422508448796958
  0.0343929823588952 -0.0399847675548063  0.5865394808262685
  0.1362672209910336  0.0358877456921359  0.5475130874705768
  0.0758672968983713  0.1578055121833806  0.5173694070293869
  0.0799379288274706  0.1604914960589643  0.4277138307475358
  0.1431474353851752  0.0404303730829023  0.3971589486853914
  0.1666479814915771 -0.0384509335241750  0.4719571304085444
  0.6163115282096523  0.3437071971677822  0.5097310911899169
  0.4872032635453224  0.3400799597850481  0.5397776420170924
  0.6122360358680833  0.3463985539810090  0.4200813340220967
  0.4806056213863827  0.3444570413430688  0.3952130560916048
  0.3999411757647145  0.3347361697784207  0.4690958024767107
  0.6726685323425151  0.4683093535552326  0.3899484684658606
  0.5707948008865711  0.5441809643272356  0.3509133772667808
  0.4549067685654579  0.4671054997603650  0.3523091469641036
  0.7029954971692517  0.5426568212000981  0.4655060698329521
  0.6363920557908858  0.6694603536332944  0.4683613635474644
  0.5491696735419146  0.6641159910391585  0.3976710727177761
  0.6795027744791770  0.4637586327196641  0.5402897520080250
  0.5814627221892084  0.5370999289917112  0.5851405643860983
  0.5557485449526768  0.6597642042998257  0.5422508448796958
  0.4656070176411048  0.4600152324451937  0.5865394808262685
  0.3637327790089664  0.5358877456921358  0.5475130874705768
  0.4241327031016286  0.6578055121833806  0.5173694070293869
  0.4200620711725294  0.6604914960589642  0.4277138307475358
  0.3568525646148248  0.5404303730829022  0.3971589486853914
  0.3333520185084229  0.4615490664758248  0.4719571304085444
