C 
 1.0000000000000000
    10.3062276451074553    0.0000000000000000    0.0000000000000000
     0.0000000000000000    9.4948275907129673    0.0000000000000000
     0.0000000000000000    0.0000000000000000   16.0000000000000000
 C  
  88
Direct
  0.7657839941933485  0.1911506572084281  0.6296202708279076
  0.6815084833104262  0.2932926754878540  0.5921775399567127
  0.7165696655965080  0.0515363135005434  0.6175649345858336
  0.5888647651230781  0.2122508201752155  0.5399280752039433
  0.6103368529740566  0.0646981780496060  0.5553196112398371
  0.8126731807680599 -0.0363865814016782  0.5794927707016572
  0.7628443002799344 -0.1010566532936255  0.5051700089111401
  0.6385364981550810 -0.0286788489485726  0.4867648579341248
  0.9180106884362115  0.0592327900309955  0.5515969775148200
  0.8893124412652222  0.1983940889764907  0.5822697948076329
  0.8808419891679514  0.3150348519044738  0.5249729203752057
  0.9383031600304356  0.0366039750987082  0.4635836134972102
  0.9298759864467443  0.1531950238675590  0.4063065035051765
  0.9011484846957972  0.2923743206107113  0.4369739679729674
  0.8459606367965014 -0.0737006717057990  0.4353104405150299
  0.6926908868262395  0.3818747538751807  0.4549339026111177
  0.7518480679794588  0.3822902312470333  0.5359369716728092
  0.7851718478515933  0.3449618126747587  0.3917413922007265
  0.7390620209188615  0.2293387774834739  0.3425481092266652
  0.8321439758210299  0.1173921412207297  0.3416488180143148
  0.7741218419918904 -0.0124924702104764  0.3678880597697380
  0.5956920147586494  0.2664636755095708  0.4559864944794293
  0.6240222453201668  0.1731650406976640  0.3874188036978923
  0.6454416119959608  0.0255828263274984  0.4028288699550155
  0.1740968155203949  0.0012115067527989  0.6034058897393549
  0.2016805282493666  0.1440289310364912  0.6263041537465470
  0.2887646871986428 -0.0681560694237851  0.5740049114470568
  0.3339037195681783  0.1739373012459106  0.5941314114117189
  0.3870267074512926  0.0445119644989896  0.5621094249599965
  0.2673601654365870 -0.1277560701376700  0.4929931400005727
  0.3632991980018933 -0.0793799249157723  0.4348233258867255
  0.4326639590760052  0.0374579481136248  0.4771473844740609
  0.1418429641425129 -0.0697642601925253  0.4633161697269795
  0.0848156793768067  0.0091044822189387  0.5308622958171341
  0.0496838397805341  0.1545302225336261  0.5188588464330405
  0.1637545287631777 -0.0032640368826815  0.3836857936800608
  0.1286069645158096  0.1420897737172432  0.3716716893249741
  0.0715958236640228  0.2209877506159554  0.4392272340800653
  0.3033435720825092 -0.0190074876693764  0.3624684255543623
  0.1892881857927333  0.3440329664832849  0.5396987958399325
  0.1165072507329963  0.2393271073283854  0.5839137353969672
  0.1524725861038791  0.3480655321720285  0.4533640518637326
  0.2637127423286007  0.3328047529751259  0.4005089686888426
  0.2456746738807272  0.2190081387219766  0.3429444810689577
  0.3508506181110744  0.1206152678785501  0.3481547515698457
  0.3263168565154288  0.2962934691616468  0.5411737456719327
  0.3718123724292543  0.2892604006847406  0.4561814218348396
  0.4249874714118895  0.1598144509350774  0.4241824188977407
  0.3820557855872284  0.6481705362253478  0.6197328658378769
  0.5048077007751479  0.7180734423515599  0.6363117618657943
  0.4090236225010217  0.5018353437565499  0.6054346851794825
  0.5483240239536817  0.4821113563332012  0.6132343629027663
  0.6104504270309923  0.6151649419039622  0.6361495786289870
  0.3664805927190117  0.4631247337352852  0.5212900448232336
  0.4862711462201566  0.4284665718726022  0.4767971035380482
  0.5962299358806321  0.4365950262249377  0.5334622195699109
  0.3234613003402286  0.5950896980771793  0.4840549830154681
  0.4016014036724689  0.6322304437850707  0.4115047178359753
  0.5072060277226892  0.5293014565848372  0.4113385900439580
  0.3212528635821812  0.7085203296663808  0.5452909148920060
  0.4157878854721398  0.8107836866817993  0.5141827040764732
  0.4637071575085291  0.7652958896790796  0.4344040538824142
  0.5257123326902944  0.8189104643755812  0.5708514581856259
  0.6455012883051928  0.7842668453315863  0.5263592571572715
  0.6029945769222465  0.7455449540082201  0.4422112849948776
  0.6299584766570729  0.5991984822568784  0.4279151970732729
  0.6907780495773982  0.5388562410770241  0.5023650770742550
  0.6885754002150014  0.6523148708587581  0.5635933096507209
  0.1474864861098690  0.6434561496898895  0.5984225634140468
  0.1537634241529360  0.5141858067052240  0.5499824622396290
  0.0215215407318596  0.6499104889097469  0.6364888032638014
 -0.0493816045841601  0.5245887833320203  0.6113406003445794
  0.0333217788113790  0.4343496412715664  0.5598114651455265
 -0.0462321465499258  0.7761267392387361  0.6074324907936984
 -0.1558752770335978  0.7223703673371535  0.5589456232920548
 -0.1594047316443986  0.5695232482225564  0.5632598058021719
  0.0403789363590498  0.8374416702544409  0.5453792917947423
 -0.0194678778157960  0.8406332267653399  0.4629591917810552
 -0.1399097648771716  0.7608358377855771  0.4728035633867707
  0.1650223158342357  0.7652827038608045  0.5436142328619197
  0.1732554330534485  0.7055000320279055  0.4595201397984849
  0.0632419682020216  0.7504267575142347  0.4114208176482935
  0.1697427431107134  0.5526788093703854  0.4638466023660490
  0.0601111659772969  0.4989215625273355  0.4153552145220432
 -0.0076691463313952  0.6251112379866565  0.3862911320757320
 -0.1336388517116906  0.6315679734363564  0.4243640194994628
 -0.1511711918582453  0.5097182906840787  0.4791702144420796
 -0.0265159777319960  0.4375593457574053  0.4773880933378717
