C 
 1.0000000000000000
    10.2833273550812532    0.0000000000000000    0.0000000000000000
     0.0000000000000000   10.2833273550812532    0.0000000000000000
     0.0000000000000000    0.0000000000000000   16.0000000000000000
 C  
  64
Direct
  0.3918908319166542  0.6843782167149306  0.5498104627583336
  0.3361074282084712  0.5706658204317396  0.5871765158287285
  0.5268735065177083  0.6954654705101990  0.5707254080420323
  0.4471555080416601  0.4931006225431777  0.6191914755407762
  0.5636233685663374  0.5691575434493755  0.6090666447095011
  0.6042321166184911  0.7071760294007184  0.4967302202302338
  0.7041700468898140  0.6100270275910376  0.4950881746431153
  0.6720314381809115  0.5171336068115561  0.5629397264670755
  0.5165014993447317  0.6767011776581874  0.4257447630097752
  0.3866305502221770  0.6627706698651532  0.4582268166275204
  0.3145510961809152  0.5449463156578477  0.4432879310444210
  0.5743960879692270  0.5728067519579335  0.3782656751635679
  0.5023426578442798  0.4550406314080250  0.3633078797092909
  0.3724637975776917  0.4410865757963704  0.3958055191680868
  0.6992772714259738  0.5370722856451359  0.4189183908739900
  0.3228894642399958  0.3613293711238190  0.5282086260457497
  0.2736841025138311  0.4915609037100442  0.5254458635012124
  0.3687416148660169  0.3214570235456595  0.4476069749253084
  0.5001155857056703  0.2759195876847281  0.4525193996533050
  0.5810798620184535  0.3443421908892367  0.3944908345044861
  0.6909691977380794  0.4006790271689138  0.4360484519281228
  0.4390439168043618  0.3650499897236777  0.5831332769467400
  0.5473676293042411  0.3130303675557849  0.5369259865671073
  0.6638614213043076  0.3891027931567501  0.5268389384405849
  0.3989967531219611  0.1383049897126046  0.4740973791383768
  0.3393423143336008  0.0109296441924045  0.4827983895378128
  0.4775383481715672  0.1361251462742742  0.3999548356221944
  0.4660172452776372  0.0073786207771065  0.3632491974100261
  0.3753445948815927 -0.0716945167986521  0.4120547644039390
  0.6130328169724487  0.1621560505154737  0.4222162928916607
  0.6815112184435579  0.0411688390996203  0.4029026735168237
  0.5925144482762625 -0.0515055560958688  0.3650675082288299
  0.6129843830449733  0.1688500759876439  0.5131476011889715
  0.6934203380677736  0.0670532029336030  0.5496120864798704
  0.7294389673613084 -0.0155313301606499  0.4788658842721907
  0.4812905660824483  0.1658219053477863  0.5465398435787736
  0.4762725356681400  0.0468977517350253  0.5966003214796300
  0.6027661475045477 -0.0120064560563523  0.5984338649513778
  0.3872735847280238 -0.0457421871786086  0.5587685025555807
  0.4557450571074479 -0.1667304083063327  0.5394623552746248
  0.5912465047296429 -0.1407333371418767  0.5617133125907116
  0.6697900997755067 -0.1429066880994383  0.4875647234983241
  0.5874811056380826 -0.1704390059959288  0.4151200684836170
  0.4557860540149096 -0.1734801090599193  0.4485290295824688
 -0.1754792018559346  0.4673556152988047  0.5334001354778667
 -0.0691314055154513  0.3928949541351671  0.5692547473667617
 -0.1601689540633079  0.4654603871311456  0.4442433608419314
 -0.0444010616887781  0.3898549182060487  0.4254869868459443
  0.0117426296989787  0.3383404868898269  0.5027048847042240
 -0.1447324072013365  0.5986158074175711  0.4136392172195289
 -0.0120677541386365  0.6031808133970794  0.3808077672630146
  0.0474408581238702  0.4752573960823239  0.3861378712140134
 -0.1405291248891543  0.6780903583869539  0.4889429944805833
 -0.0163879056422292  0.7449925995487444  0.4971870505089837
  0.0644524427835775  0.6904596627646171  0.4306269172005434
 -0.1704268922550015  0.6017632613640665  0.5631531061009083
 -0.0521119582479519  0.6081030928623973  0.6137451197986874
  0.0397499193669319  0.6935102795710916  0.5744111504378460
  0.0073634473289018  0.4801902178482602  0.6190767000762664
  0.1400280093672045  0.4847558583579185  0.5862539631100441
  0.1554976673588620  0.6178985850430280  0.5556406666882466
  0.1708015498277962  0.6160015441525695  0.4664777667528183
  0.1657595005231414  0.4815758300056868  0.4367292296683832
  0.1358757248811032  0.4052585106456054  0.5109544698317102
