C 
 1.0000000000000000
    10.2116915163471216    0.0000000000000000    0.0000000000000000
    -5.1058457581735679    8.8435842687666426    0.0000000000000000
     0.0000000000000000    0.0000000000000000   16.0000000000000000
 C  
  84
Direct
 -0.1648476614461178 -0.0587377858508044  0.6170243262166795
 -0.2547241724512880 -0.1462840801575546  0.5476299851881564
 -0.0543843601530202 -0.1003591186990813  0.6386045544401991
 -0.1774412544458280 -0.2250862933988094  0.5135572350189108
 -0.0550464377606221 -0.1969326461175716  0.5689997993038527
  0.0940401739235368  0.0297597256994560  0.6393513853441297
  0.1941027641792009  0.0072255896120897  0.5862189035821684
  0.0967680663767338 -0.1313201741198682  0.5371262135532086
  0.0793950275468338  0.1539388972466882  0.6007205621254623
 -0.0789618759808654  0.0997843157947250  0.5870761844304947
 -0.1328212736488843  0.1051707450483406  0.5046614711458601
  0.1840504481478497  0.2135779801679073  0.5319481140508348
  0.1302343792149877  0.2190089693380149  0.4495687710490227
 -0.0281453695109351  0.1648221248969808  0.4359116866264615
  0.2657135392975518  0.1275266912484633  0.5267596209870894
 -0.2065595324301667 -0.0848352241707259  0.4048941493129715
 -0.2533126709248951 -0.0500572851855579  0.4821482739485048
 -0.0816004730120376  0.0477571333323954  0.3695527137262621
  0.0419102373247097  0.0228514728188491  0.3525116993607955
  0.1773188861847148  0.1363369883555552  0.3919280967372160
  0.2423553656368173  0.0687988505000240  0.4434646925004108
 -0.1480167473306917 -0.1875187644180203  0.4262460647643355
  0.0037952607923854 -0.1217582775616156  0.3943543216274120
  0.1261776804700271 -0.0936698343798799  0.4498153096968506
  0.3977651170799383 -0.1039147745806253  0.3636211799035577
  0.4092152244853698 -0.2032399199144327  0.4245501586178269
  0.5482819386376403  0.0158772788171627  0.3457857435310965
  0.6519405826169217 -0.0100569228659049  0.3958175954735670
  0.5681408190980298 -0.1505747410463215  0.4432929325989811
  0.5615395643964176  0.1609326180633171  0.3681444464242706
  0.6694229030424095  0.2169301103309150  0.4374203077875973
  0.7270817343284244  0.1146349264842271  0.4526393245112893
  0.4168333456031472  0.1209331306580278  0.4063990225152342
  0.4351090098561386  0.1691055469515430  0.4933475042982461
  0.5940298866387719  0.2217991344993455  0.5120709567416464
  0.3091277780509634 -0.0399809224930803  0.3980373609217123
  0.2761627185288290 -0.0960724840821072  0.4839878119011234
  0.3512865127624119  0.0286037905692098  0.5408266198165380
  0.3338016550403173 -0.1983635653354181  0.4991894432956216
  0.4416707395218420 -0.1423773465123522  0.5684679523383820
  0.4549612522995440  0.0026825823059616  0.5908413367202591
  0.6054857911351961  0.1224811099979005  0.5730000154764379
  0.6941261451657086  0.0585279568966343  0.5385881749500023
  0.5863990865654276 -0.1023981008571874  0.5302409176318121
  0.2119838606937973  0.6060293517756981  0.4162901092288985
  0.2185308347791901  0.5919093033801395  0.5063526769854216
  0.1414205882411173  0.6947986661280686  0.4002371090123042
  0.1047022431268729  0.7350219933248157  0.4804821266506585
  0.1577180289209867  0.6773044697344986  0.5483978736129181
  0.0034087835585738  0.6053182043386662  0.3515624906482276
 -0.1189463844125664  0.5841763896145502  0.4075091486043136
 -0.0567647945153743  0.6664349173260337  0.4849894932828762
 -0.0113514978024431  0.4561834036937895  0.3456261929295367
 -0.1490064685283863  0.3414285161833399  0.3860559988316884
 -0.2098189705012647  0.4268288031227069  0.4280737065119459
  0.1217804689260880  0.4564883614721379  0.3784843092957800
  0.0654671902842915  0.3522936642891349  0.4494390814115803
 -0.0960077195247339  0.2836789551390607  0.4539589151146313
  0.1276655051386989  0.4345543907108299  0.5268993600568802
  0.0053158560098705  0.4134029663169605  0.5828481300052673
 -0.1327161422421394  0.3239302208674683  0.5341922031682822
 -0.2032775418681190  0.4127099693398869  0.5181349842807906
 -0.1130641972305208  0.5622580163699649  0.5559536670043843
  0.0200601842076290  0.5625332790616171  0.5888194223877169
  0.5534727889411374  0.6947782001514049  0.3970594426153348
  0.4045651142088927  0.6345557563137595  0.4343556586248396
  0.5508695068749621  0.5782888888318799  0.3456734336511936
  0.4003510125758730  0.4466773291233316  0.3515152474320026
  0.3040061591160747  0.4809202906061819  0.4040347279959208
  0.6633134525044920  0.5410487128598299  0.3763024324322579
  0.5744483947293598  0.3852396700993526  0.4061534482613529
  0.4149724030981231  0.3269491648387864  0.3890131597373234
  0.7232972509472411  0.6310314897850291  0.4519451525916692
  0.6921768621548163  0.5356379426669768  0.5253668632351001
  0.5916630945400991  0.3820226224740298  0.4950341226836723
  0.6676655568004413  0.7364133684107254  0.4624581248695799
  0.5812552173065795  0.6896242427570003  0.5403823244635844
  0.5958645544589604  0.5698961211831621  0.5778987762260352
  0.4218127920299573  0.6313660083851187  0.5232341836182216
  0.3329473692034107  0.4755671352582823  0.5530908908357832
  0.4453567612415318  0.4382857446207823  0.5837221330237763
  0.4427571920689151  0.3217949016066903  0.5323292884403074
  0.3285401221753261  0.2801540824616295  0.4669312013961628
  0.2729053032735024  0.3855417566923283  0.4774621790686763
