Generated by VASPKIT code               
   1.00000000000000     
    11.6130574738788681   -0.3435484150339530    0.0000000000000000
    -6.0877519510723639   10.4956755728233855    0.0000000000000000
     0.0000000000000012    0.0000000000000023   19.7125322388415398
  C             
    84
Direct
  0.2744569029568386  0.8296033153811266  0.4642858587655971
  0.3521935643470583  0.8695944533692912  0.5340879894876865
  0.3800033582146430  0.8376010024214934  0.4164869246855275
  0.4932571216649324  0.8893124258214036  0.5307536122043792
  0.5197721434443919  0.8767358125467232  0.4516180077381915
  0.3311641493758289  0.7227150492942160  0.3798702114243752
  0.4299145451384368  0.6836864301191303  0.3715200200704969
  0.5126114941041214  0.7593471019353493  0.4306519770559543
  0.2113303374536746  0.6197714917514793  0.4145146795405112
  0.1530730477645473  0.6719775674615077  0.4665682341815273
  0.1826987948467018  0.6390659104457729  0.5355585328381154
  0.2427991705586693  0.5250578519754617  0.4275462628425584
  0.2081933094663981  0.4483707202366486  0.4913372995429842
  0.1680515797081641  0.5107569972172085  0.5524106628925041
  0.3713539228902705  0.5565620709223209  0.3976585620826896
  0.3591442872145848  0.7135443544559334  0.6073825657194361
  0.2714686145585989  0.7457354025444880  0.5734637055721150
  0.2982062800858117  0.5720330293590140  0.5997249224620889
  0.3977799515572795  0.5597366398741636  0.5727263261365734
  0.3545561086727169  0.4660782773366158  0.5156042114967582
  0.4524672792430804  0.5492585870708376  0.4586687568178849
  0.4881122721440563  0.7886128357825233  0.5801336392058708
  0.5229578468032897  0.6933538463374401  0.5539860093226743
  0.4850920961744923  0.6784762923342409  0.4815990452072730
  0.9444621740507083  0.2586171315463013  0.5925491148566889
  0.8590900220575940  0.7528176615463656  0.5913955380457361
  0.3091180427066618  0.0520130237374354  0.5856463177314368
  0.7993421116013188  0.2035175219300299  0.5988693639278584
  0.9306211282799907  0.6822550775023065  0.5851245198585723
  0.3891849779788118  0.1932857379264586  0.5942327403707668
  0.0128348218103147  0.3776306541417002  0.5471976309856187
  0.7195818935261724  0.6584910657189256  0.5853141367097241
  0.3653697496717494  0.0032701684133358  0.5335111563113527
  0.8792149412639303  0.3793099887098080  0.5180588204716176
  0.7060284730407786  0.5382310205819427  0.5707926726814289
  0.4986150414836096  0.1395211937468926  0.5080533875436405
  0.7560976898478275  0.2623188133947876  0.5554884578349990
  0.8338650121777870  0.5484673223427543  0.5727053871758970
  0.4905556549984770  0.2423904147636675  0.5477153755195091
  0.0598663851400973  0.3242130065644534  0.4864071253773398
  0.6534826089593238  0.6987258767466065  0.5351768193737138
  0.2639652443587491  0.9516788185379168  0.4703282091235360
  0.9570797953447231  0.2914527132518963  0.4300076030175031
  0.6019295318340678  0.5826767199051407  0.4749205081921542
  0.3247518710851251  0.0556644174492042  0.4178917298104328
  0.8573374049282457  0.3128182406357914  0.4509543258124781
  0.6288401498321334  0.4778055707740604  0.5061619234594331
  0.4528122883169318  0.1602205261319399  0.4397102174411436
  0.0259765013194676  0.1832538659935486  0.5015124478606227
  0.7818425235430259  0.8329620187963438  0.4989688873695645
  0.1409401745819715  0.9586799945581882  0.4962600282268984
  0.9107824619724619  0.0841189096483731  0.4557229023594184
  0.8064504754385402  0.7732495338326266  0.4363751434117275
  0.1313212545627838  0.0540100181724718  0.4505502075792983
  0.8804489053372520  0.1527802081690781  0.4118767981872628
  0.7119079406819941  0.6445762884838451  0.4234554823334385
  0.2414305442183691  0.1061479993545125  0.4049528840893144
  0.9524461775448334  0.1552846119393297  0.5676187793467888
  0.9006773339729091  0.8479544752214095  0.5417139016898835
  0.1860038144878879  0.0277354612040841  0.5634610185962922
  0.8204145340948777  0.0363566988927995  0.5625594705406719
  0.0088749273032856  0.8416387167945583  0.5005475210352748
  0.1851086188287371  0.1442635833916213  0.5619304222648667
  0.7885306577469434  0.9664922195791451  0.4928270347266860
  0.9382602096927984  0.7882419399099293  0.4346310474109593
  0.1408388946917954  0.1628316126901576  0.4938060357500397
  0.7260732238257104  0.0643693107577324  0.5832644565354106
  0.0098422867458002  0.7284954978286087  0.5287370988500698
  0.3072617417266266  0.2506323625152994  0.5827688993142750
  0.6227098027306843  0.0268242686894488  0.5297001120735406
  0.0026580337665570  0.6370089988673054  0.4748481776300194
  0.3648162786161500  0.3489076149158949  0.5243186143198785
  0.6669077731435411  0.9869869305492472  0.4633430482305095
  0.9308851703896627  0.6712895565391468  0.4209065083085529
  0.2726690551497733  0.2714566524648460  0.4685127276131757
  0.7367541454541885  0.1011887735317791  0.4184406135097439
  0.7875950878016835  0.5784138277002346  0.4176415799028222
  0.3272011066177855  0.2477499173932897  0.4135899560019635
  0.7224346762038464  0.1992808307669121  0.4436945004435461
  0.7486365797163838  0.4851214995353639  0.4665917667193997
  0.4590887965492801  0.2787003826922004  0.4362971196950887
  0.6386294199514339  0.1591554438781954  0.5094196680317910
  0.8699576397638151  0.4995603218968218  0.5094195176822127
  0.4989100391434528  0.3499075008515110  0.5047019838933341
 
  0.00000000E+00  0.00000000E+00  0.00000000E+00
  0.00000000E+00  0.00000000E+00  0.00000000E+00
  0.00000000E+00  0.00000000E+00  0.00000000E+00
  0.00000000E+00  0.00000000E+00  0.00000000E+00
  0.00000000E+00  0.00000000E+00  0.00000000E+00
  0.00000000E+00  0.00000000E+00  0.00000000E+00
  0.00000000E+00  0.00000000E+00  0.00000000E+00
  0.00000000E+00  0.00000000E+00  0.00000000E+00
  0.00000000E+00  0.00000000E+00  0.00000000E+00
  0.00000000E+00  0.00000000E+00  0.00000000E+00
  0.00000000E+00  0.00000000E+00  0.00000000E+00
  0.00000000E+00  0.00000000E+00  0.00000000E+00
  0.00000000E+00  0.00000000E+00  0.00000000E+00
  0.00000000E+00  0.00000000E+00  0.00000000E+00
  0.00000000E+00  0.00000000E+00  0.00000000E+00
  0.00000000E+00  0.00000000E+00  0.00000000E+00
  0.00000000E+00  0.00000000E+00  0.00000000E+00
  0.00000000E+00  0.00000000E+00  0.00000000E+00
  0.00000000E+00  0.00000000E+00  0.00000000E+00
  0.00000000E+00  0.00000000E+00  0.00000000E+00
  0.00000000E+00  0.00000000E+00  0.00000000E+00
  0.00000000E+00  0.00000000E+00  0.00000000E+00
  0.00000000E+00  0.00000000E+00  0.00000000E+00
  0.00000000E+00  0.00000000E+00  0.00000000E+00
  0.00000000E+00  0.00000000E+00  0.00000000E+00
  0.00000000E+00  0.00000000E+00  0.00000000E+00
  0.00000000E+00  0.00000000E+00  0.00000000E+00
  0.00000000E+00  0.00000000E+00  0.00000000E+00
  0.00000000E+00  0.00000000E+00  0.00000000E+00
  0.00000000E+00  0.00000000E+00  0.00000000E+00
  0.00000000E+00  0.00000000E+00  0.00000000E+00
  0.00000000E+00  0.00000000E+00  0.00000000E+00
  0.00000000E+00  0.00000000E+00  0.00000000E+00
  0.00000000E+00  0.00000000E+00  0.00000000E+00
  0.00000000E+00  0.00000000E+00  0.00000000E+00
  0.00000000E+00  0.00000000E+00  0.00000000E+00
  0.00000000E+00  0.00000000E+00  0.00000000E+00
  0.00000000E+00  0.00000000E+00  0.00000000E+00
  0.00000000E+00  0.00000000E+00  0.00000000E+00
  0.00000000E+00  0.00000000E+00  0.00000000E+00
  0.00000000E+00  0.00000000E+00  0.00000000E+00
  0.00000000E+00  0.00000000E+00  0.00000000E+00
  0.00000000E+00  0.00000000E+00  0.00000000E+00
  0.00000000E+00  0.00000000E+00  0.00000000E+00
  0.00000000E+00  0.00000000E+00  0.00000000E+00
  0.00000000E+00  0.00000000E+00  0.00000000E+00
  0.00000000E+00  0.00000000E+00  0.00000000E+00
  0.00000000E+00  0.00000000E+00  0.00000000E+00
  0.00000000E+00  0.00000000E+00  0.00000000E+00
  0.00000000E+00  0.00000000E+00  0.00000000E+00
  0.00000000E+00  0.00000000E+00  0.00000000E+00
  0.00000000E+00  0.00000000E+00  0.00000000E+00
  0.00000000E+00  0.00000000E+00  0.00000000E+00
  0.00000000E+00  0.00000000E+00  0.00000000E+00
  0.00000000E+00  0.00000000E+00  0.00000000E+00
  0.00000000E+00  0.00000000E+00  0.00000000E+00
  0.00000000E+00  0.00000000E+00  0.00000000E+00
  0.00000000E+00  0.00000000E+00  0.00000000E+00
  0.00000000E+00  0.00000000E+00  0.00000000E+00
  0.00000000E+00  0.00000000E+00  0.00000000E+00
  0.00000000E+00  0.00000000E+00  0.00000000E+00
  0.00000000E+00  0.00000000E+00  0.00000000E+00
  0.00000000E+00  0.00000000E+00  0.00000000E+00
  0.00000000E+00  0.00000000E+00  0.00000000E+00
  0.00000000E+00  0.00000000E+00  0.00000000E+00
  0.00000000E+00  0.00000000E+00  0.00000000E+00
  0.00000000E+00  0.00000000E+00  0.00000000E+00
  0.00000000E+00  0.00000000E+00  0.00000000E+00
  0.00000000E+00  0.00000000E+00  0.00000000E+00
  0.00000000E+00  0.00000000E+00  0.00000000E+00
  0.00000000E+00  0.00000000E+00  0.00000000E+00
  0.00000000E+00  0.00000000E+00  0.00000000E+00
  0.00000000E+00  0.00000000E+00  0.00000000E+00
  0.00000000E+00  0.00000000E+00  0.00000000E+00
  0.00000000E+00  0.00000000E+00  0.00000000E+00
  0.00000000E+00  0.00000000E+00  0.00000000E+00
  0.00000000E+00  0.00000000E+00  0.00000000E+00
  0.00000000E+00  0.00000000E+00  0.00000000E+00
  0.00000000E+00  0.00000000E+00  0.00000000E+00
  0.00000000E+00  0.00000000E+00  0.00000000E+00
  0.00000000E+00  0.00000000E+00  0.00000000E+00
  0.00000000E+00  0.00000000E+00  0.00000000E+00
  0.00000000E+00  0.00000000E+00  0.00000000E+00
  0.00000000E+00  0.00000000E+00  0.00000000E+00
