Generated by VASPKIT code               
   1.00000000000000     
    10.3775784109515818    0.2830439716254241    0.0000000000000000
    -4.9501431258700759    9.2313292630620811    0.0000000000000000
     0.0000000000000013    0.0000000000000024   19.7154586182137130
  C             
    64
Direct
  0.9796827159341347  0.9201636178171407  0.5776697390366139
  0.9517028732587918  0.0441668457139607  0.5792335398695571
  0.8903358913213736  0.8289389085847207  0.5264108469604387
  0.8569125001681848  0.0340407190210753  0.5229327871101773
  0.8153883645344425  0.8991158674403341  0.4906071239476519
  0.9640571011709786  0.7818951219786080  0.4788537760174478
  0.9205494155397763  0.8034722785796732  0.4147500777167155
  0.8302931915191472  0.8815400836037829  0.4196042488990043
  0.1326055165278519  0.8718645997283758  0.4897083611988096
  0.1201793554794196  0.9677685037951752  0.5449556405394727
  0.1797583926816358  0.1144265858947416  0.5360008286301510
  0.1667303296445517  0.9470546313613544  0.4198513934164838
  0.2246188221019607  0.0949461099669353  0.4125621984228970
  0.2624126398954701  0.1925462828167548  0.4738565838130611
  0.0438500539727784  0.8912166384215939  0.3752941148101533
  0.0670215749045402  0.2649078486273912  0.5119977877615147
  0.0817420475755774  0.1639441981008801  0.5605878658107351
  0.1855216823692910  0.2848597138279625  0.4594901387720524
  0.0997951619223393  0.2219461282177376  0.3971736152480419
  0.1485339384929951  0.1331137337390063  0.3608310507768139
  0.0257558670974814  0.0046326576865102  0.3417144615714976
  0.9137915764908631  0.1769106393507771  0.4820483609011660
  0.9502186982463724  0.1489612599556513  0.4097453453535658
  0.9045537867327696  0.0089029977648904  0.3793312754088137
  0.4439541218051167  0.7906052098916057  0.4588945272066706
  0.4557455716242427  0.1529828499637119  0.5230676995174914
  0.4608264471362271  0.6602262744207694  0.4494139196881889
  0.4206151822973671  0.2635843028854206  0.4887583394347234
  0.4842504586374581  0.8390429191425244  0.5262078078397667
  0.5146724018713492  0.1980006742897719  0.5881329210141367
  0.5247783639468503  0.7367901860373850  0.5600357139308841
  0.5370639592934531  0.3409985714870127  0.5986149763229589
  0.5235036912327933  0.6188085844845929  0.5111936253630461
  0.4763635297043086  0.3917650222474680  0.5401059852826128
  0.3603902136778342  0.8458055549972238  0.5592074075718297
  0.6518742199030253  0.1896033022388995  0.5911970881438627
  0.3219464473251161  0.7433332335319397  0.6115898488985193
  0.7614861340870409  0.3345914943020853  0.6019839747753456
  0.4206415866111424  0.6769417627848566  0.6114550289431202
  0.6879302461270437  0.4278049349462627  0.6061030826429430
  0.2304238698643164  0.8012130070275025  0.5077026702511691
  0.6750548443225892  0.1379092976724018  0.5284261157501149
  0.1340632431539686  0.6534741741809446  0.5351518942950039
  0.8160225125235744  0.2483380069637505  0.4956050905215346
  0.1798323193715984  0.6277428611998439  0.5984367511566095
  0.8547048056142020  0.3761124781472983  0.5464878332842106
  0.2980930073884665  0.7650427793119094  0.4459903043294859
  0.5568207595384156  0.1258072667250548  0.4851317331447610
  0.2214784654470642  0.6142861314500832  0.4353344822105332
  0.6068665952868232  0.2238581000642557  0.4301716251438936
  0.1163998213601321  0.5461115962368609  0.4874049128531353
  0.7584051241772428  0.3060152428444505  0.4367157579846823
  0.3229193897540497  0.5556187326229388  0.4351237414783652
  0.5354941668052999  0.3167240521989846  0.4337259457724892
  0.2726579902061160  0.4357121650808878  0.4833422213604747
  0.6406130798365361  0.4560465473521908  0.4446011883072798
  0.1367427271734060  0.4278224124651663  0.5236633289036474
  0.7777002521497637  0.4477673431259909  0.4484832307529653
  0.1916050857314105  0.4950834426200986  0.5918334858467222
  0.8340376118930797  0.4907460692851631  0.5146530173026310
  0.3353720112629068  0.5253070424411762  0.5994480370362678
  0.7381432229172553  0.5294671949194537  0.5528009581080032
  0.3917339035623292  0.4778369357164420  0.5389975687959205
  0.6127611177963732  0.5237362707005773  0.5084749759997974
 
  0.00000000E+00  0.00000000E+00  0.00000000E+00
  0.00000000E+00  0.00000000E+00  0.00000000E+00
  0.00000000E+00  0.00000000E+00  0.00000000E+00
  0.00000000E+00  0.00000000E+00  0.00000000E+00
  0.00000000E+00  0.00000000E+00  0.00000000E+00
  0.00000000E+00  0.00000000E+00  0.00000000E+00
  0.00000000E+00  0.00000000E+00  0.00000000E+00
  0.00000000E+00  0.00000000E+00  0.00000000E+00
  0.00000000E+00  0.00000000E+00  0.00000000E+00
  0.00000000E+00  0.00000000E+00  0.00000000E+00
  0.00000000E+00  0.00000000E+00  0.00000000E+00
  0.00000000E+00  0.00000000E+00  0.00000000E+00
  0.00000000E+00  0.00000000E+00  0.00000000E+00
  0.00000000E+00  0.00000000E+00  0.00000000E+00
  0.00000000E+00  0.00000000E+00  0.00000000E+00
  0.00000000E+00  0.00000000E+00  0.00000000E+00
  0.00000000E+00  0.00000000E+00  0.00000000E+00
  0.00000000E+00  0.00000000E+00  0.00000000E+00
  0.00000000E+00  0.00000000E+00  0.00000000E+00
  0.00000000E+00  0.00000000E+00  0.00000000E+00
  0.00000000E+00  0.00000000E+00  0.00000000E+00
  0.00000000E+00  0.00000000E+00  0.00000000E+00
  0.00000000E+00  0.00000000E+00  0.00000000E+00
  0.00000000E+00  0.00000000E+00  0.00000000E+00
  0.00000000E+00  0.00000000E+00  0.00000000E+00
  0.00000000E+00  0.00000000E+00  0.00000000E+00
  0.00000000E+00  0.00000000E+00  0.00000000E+00
  0.00000000E+00  0.00000000E+00  0.00000000E+00
  0.00000000E+00  0.00000000E+00  0.00000000E+00
  0.00000000E+00  0.00000000E+00  0.00000000E+00
  0.00000000E+00  0.00000000E+00  0.00000000E+00
  0.00000000E+00  0.00000000E+00  0.00000000E+00
  0.00000000E+00  0.00000000E+00  0.00000000E+00
  0.00000000E+00  0.00000000E+00  0.00000000E+00
  0.00000000E+00  0.00000000E+00  0.00000000E+00
  0.00000000E+00  0.00000000E+00  0.00000000E+00
  0.00000000E+00  0.00000000E+00  0.00000000E+00
  0.00000000E+00  0.00000000E+00  0.00000000E+00
  0.00000000E+00  0.00000000E+00  0.00000000E+00
  0.00000000E+00  0.00000000E+00  0.00000000E+00
  0.00000000E+00  0.00000000E+00  0.00000000E+00
  0.00000000E+00  0.00000000E+00  0.00000000E+00
  0.00000000E+00  0.00000000E+00  0.00000000E+00
  0.00000000E+00  0.00000000E+00  0.00000000E+00
  0.00000000E+00  0.00000000E+00  0.00000000E+00
  0.00000000E+00  0.00000000E+00  0.00000000E+00
  0.00000000E+00  0.00000000E+00  0.00000000E+00
  0.00000000E+00  0.00000000E+00  0.00000000E+00
  0.00000000E+00  0.00000000E+00  0.00000000E+00
  0.00000000E+00  0.00000000E+00  0.00000000E+00
  0.00000000E+00  0.00000000E+00  0.00000000E+00
  0.00000000E+00  0.00000000E+00  0.00000000E+00
  0.00000000E+00  0.00000000E+00  0.00000000E+00
  0.00000000E+00  0.00000000E+00  0.00000000E+00
  0.00000000E+00  0.00000000E+00  0.00000000E+00
  0.00000000E+00  0.00000000E+00  0.00000000E+00
  0.00000000E+00  0.00000000E+00  0.00000000E+00
  0.00000000E+00  0.00000000E+00  0.00000000E+00
  0.00000000E+00  0.00000000E+00  0.00000000E+00
  0.00000000E+00  0.00000000E+00  0.00000000E+00
  0.00000000E+00  0.00000000E+00  0.00000000E+00
  0.00000000E+00  0.00000000E+00  0.00000000E+00
  0.00000000E+00  0.00000000E+00  0.00000000E+00
  0.00000000E+00  0.00000000E+00  0.00000000E+00
