C 
 1.0000000000000000
    14.9642978340317239    0.0000000000000000    0.0000000000000000
    -7.4821489170158708   12.9594620740679254    0.0000000000000000
     0.0000000000000000    0.0000000000000000   16.0000000000000000
 C  
 128
Direct
  0.4027344514094560  0.6884097521172268  0.6441239929421155
  0.5047208943325169  0.7069731634845375  0.6274134475175933
  0.3929707888123721  0.7752666260864580  0.6198277280010871
  0.5550510009487817  0.8013492961796344  0.5749529127130560
  0.4868232164721660  0.8429828310487468  0.5702165775179175
  0.3076807605084519  0.7440424987978937  0.5639932666719050
  0.3399672262153371  0.8033444291235199  0.4884045100309172
  0.4544096713346077  0.8602419598851516  0.4900211405821848
  0.2748024726314928  0.6363301293625286  0.5393864246786134
  0.3329475008119841  0.6023192951191737  0.5884105080021517
  0.3930302112397796  0.5641142457178956  0.5476500814538051
  0.2766711072902784  0.6321338509718646  0.4495409047125291
  0.3367022187951355  0.5939182164323792  0.4087899103991551
  0.3948747739795543  0.5599204148137099  0.4578134999972723
  0.3106296739018061  0.7372311069956601  0.4167762367203998
  0.5631510610344452  0.6669949537122574  0.5040309174243174
  0.5011746040450229  0.6258383847019691  0.5775374979960239
  0.5040973069464484  0.6190079578609842  0.4303027526596114
  0.5100979195760925  0.6949854073622221  0.3726151055200319
  0.4089665531655342  0.6745964434540452  0.3501948255276073
  0.3983362751948543  0.7633089016101533  0.3649744492365667
  0.5908080320689147  0.7768929656029676  0.4994942669909266
  0.5583345388684166  0.7940336724983712  0.4192844720009232
  0.4901281187304491  0.8357140838716486  0.4145670904449795
  0.5682529213978327  0.2362661336297379  0.5976730825155100
  0.6337055145433843  0.2095129431842741  0.5516543386336044
  0.6282440538131719  0.3298165960120962  0.6437193551735774
  0.7387775898999874  0.3012448532178038  0.5558199365335534
  0.7354544248911985  0.3747422618417544  0.6119160560250138
  0.5967022868917411  0.4032991819153702  0.6241492749539936
  0.6830389078549230  0.4990932333499100  0.5974254611067062
  0.7689355342460054  0.4781707497243292  0.5837838065419585
  0.5275949025312050  0.3614532043617738  0.5505138742459681
  0.5102009592630216  0.2592864119850530  0.5343367884502995
  0.5332831971343581  0.2339884703122741  0.4532987938352329
  0.5680671404890417  0.4384135314400597  0.4856418799791908
  0.5911150760017017  0.4131273318856423  0.4046270360317624
  0.5737418093979260  0.3109558065420564  0.3884456310139649
  0.6630064528246845  0.5295142638185105  0.5179480136400356
  0.6937495793145508  0.2584296258498799  0.4139101284524984
  0.6059939265082079  0.1946592155443068  0.4650491448419061
  0.6722828993479982  0.3208901843651678  0.3588351766242146
  0.7484651455835107  0.4276601892900907  0.3675857305374208
  0.7006595777859380  0.4879112004290251  0.3853328495555486
  0.7430425737553303  0.5480427221619265  0.4596387333549287
  0.7755056890449900  0.3311444654778393  0.4715634773882609
  0.8088940593651662  0.4345285458237676  0.4433698997220024
  0.8056003002641809  0.5080328408834278  0.4995004266264431
  0.9293030120388382 -0.0579090031098004  0.6330798294300480
  0.9999691762208981 -0.0969826767049142  0.6444238017363660
  0.8633218235564359 -0.1120854896010327  0.5638084776808773
  0.8935992120964359 -0.1843357370894291  0.5327029964150114
  0.9764452684049043 -0.1796607162252908  0.5844413074987327
  0.8764147012697765 -0.0382587074148602  0.4983336979185221
  0.9223101596268960 -0.0641083491662459  0.4283923438069405
  0.9301701859731412 -0.1545913865085322  0.4487201822184047
  0.9590344240798822  0.0604455082556867  0.5287866896335250
  1.0484072074841266  0.1024733469707219  0.4736831934889342
  1.0248613516255365  0.0198068829016040  0.4136984815268462
  0.9870460852301493  0.0525740521040070  0.6145155954491686
  1.0946670378770116  0.0774198595249242  0.6093987267550361
  1.1312624658804982  0.1071747704329187  0.5254188028004061
  1.1025126289217209 -0.0130524790075574  0.6297358433996187
  1.1484154001847113 -0.0388966191531170  0.5598006556044719
  1.1615158152771043  0.0349135213970170  0.4943116794811958
  1.0955256846236165 -0.0192673004591955  0.4250385562418141
  1.0377877790216021 -0.1297611408052826  0.4436077029311626
  1.0658217831287244 -0.1376180674532611  0.5293400531268493
  0.9232281163706464  0.5813657632028771  0.5735054984502702
  1.0140736737574816  0.6581223371186288  0.6179407725753858
  0.9469538452073166  0.5069139741827628  0.5394315421331696
  1.0523613268299372  0.5380905429234545  0.5629812356732524
  1.0950143403042925  0.6305020031465398  0.6153955227690520
  0.9376604208053679  0.5053998113622730  0.4483615492813094
  1.0427295414944577  0.5435461032165955  0.4178156299570219
  1.1117564542525371  0.5607969575828772  0.4875607461142831
  0.9160609860885646  0.5879959298036443  0.4296295274204813
  0.9974800687178870  0.6683503009626149  0.3790434817379188
  1.0783922048742594  0.6407063634006239  0.3764857645584773
  0.8978637449428614  0.6302394598721961  0.5055230932412208
  0.9807141678130745  0.7380378022315716  0.5068619331467666
  1.0401217211848937  0.7607689946063007  0.4314420188507908
  1.0497134572127000  0.7552745540010212  0.5766053438444873
  1.1547812511450499  0.7934289021314926  0.5460623268487790
  1.1455167846939946  0.7919214300658647  0.4549924333360207
  1.1692387780319913  0.7174605040633647  0.4209179904702780
  1.1946138398874562  0.6685935757933575  0.4889114067710415
  1.1764234998661127  0.7108595367559158  0.5648032806105336
  0.2946206307274036  0.3914204812875099  0.5591805360387950
  0.3066801987137863  0.3111917094029103  0.5997236185145924
  0.2053154589273812  0.3416895619165236  0.5063369289042113
  0.1626841235635989  0.2309798818035379  0.5144969515067390
  0.2222761538067597  0.2094443408226503  0.5755399461637860
  0.2357872846902534  0.3733815593779879  0.4196596515325597
  0.2165614596324239  0.2789994948807621  0.3768992787560605
  0.1696462779354104  0.1920982905689038  0.4342236240569693
  0.3477880922304784  0.4368612010283033  0.4225799873438779
  0.3972385499388706  0.3915755476123287  0.3736823247375293
  0.3128308544931720  0.2898532285501493  0.3494874627356166
  0.3855344322736556  0.4567785536784227  0.5082957582569255
  0.4498694532252434  0.4089448080551564  0.5149840058959227
  0.4568507587513246  0.3700595760175294  0.4347137921100673
  0.4029575516914307  0.3220690455404885  0.5723093347667173
  0.3837407812591499  0.2276911604427845  0.5295536729718604
  0.4142006171450386  0.2593534872616328  0.4428720859474810
  0.3248878932784157  0.2096230273549126  0.3900268962670438
  0.2339713380839727  0.1442531699343614  0.4409215865563654
  0.2717385624114025  0.1641726330865548  0.5266388981675637
  0.6141962776735944  0.0027171258655451  0.5690942961137864
  0.7173595330112943  0.0289028163178153  0.5955776620456658
  0.5827754001225788 -0.0742336622722276  0.5049149799307605
  0.6667208427814512 -0.0951634277270210  0.4920696301662915
  0.7506300197067605 -0.0346283949897727  0.5507195208816708
  0.5624796342888490 -0.0349548808077442  0.4277670923470023
  0.6417663395893856 -0.0262515854136314  0.3695000240720876
  0.7032979297688533 -0.0654190253070915  0.4080882039545320
  0.5915596437992968  0.0713223477882738  0.4470225208308459
  0.6765253248628899  0.1439814498967349  0.3945810972768651
  0.7097639126391394  0.0804419551006456  0.3497161173923924
  0.6151615279280540  0.0940700425895845  0.5354114480883532
  0.7238310765807178  0.1747698911270124  0.5372021628373044
  0.7604292022423292  0.2045355675904993  0.4532241343687788
  0.7853381217919787  0.1355997013998347  0.5757957296359966
  0.8646288535923168  0.1443111105920976  0.5175343967957423
  0.8443541590596972  0.1835846967412551  0.4403767390446242
  0.8129259907288182  0.1066258124008601  0.3761955754971614
  0.8119725303234582  0.0152711804302355  0.4098859163141006
  0.8355905080789984  0.0380408935362257  0.4982777697429775
