C 
 1.0000000000000000
    12.8475859845848799    0.0000000000000000    0.0000000000000000
    -6.4237929922924470   11.1263358399554164    0.0000000000000000
     0.0000000000000000    0.0000000000000000   16.0000000000000000
 C  
 108
Direct
  0.4974766575994383  0.6319335829507684  0.4886547713257133
  0.4900789954582145  0.6503904008547126  0.5762898525399699
  0.3910853115466542  0.5268797246383692  0.4602480522010594
  0.3634257617204486  0.5668420006658033  0.6004420942893079
  0.3029337948501818  0.4915488774376561  0.5296090806248376
  0.3390833355359527  0.5553359198068559  0.3910807645170137
  0.2154654439982965  0.5177375374238496  0.4071813408741017
  0.1956368523399707  0.4857859675296139  0.4971353674827406
  0.4024562279424059  0.6884765371671973  0.3862648802389881
  0.4993361722851925  0.7353038195836800  0.4459469566430607
  0.5074023879511914  0.8190187240264957  0.5090229765263088
  0.3135629881346936  0.7253632492268544  0.3895976555233605
  0.3216350408022675  0.8090699896385544  0.4526296020002240
  0.4185098915822508  0.8558907169680292  0.5123334709506778
  0.1933387088664211  0.6156552273359797  0.3964254030628603
  0.4136267605230950  0.7641894682461599  0.6389226710760236
  0.5108736237515503  0.7689949773124463  0.5919921616587216
  0.3651209845500969  0.8293351702706777  0.5973177018395514
  0.2380806540862390  0.7551377024701296  0.5858312288689642
  0.2067711739301556  0.7527583326746209  0.4996842940111972
  0.1389997797819359  0.6316038157361767  0.4697726235877012
  0.3166804275472231  0.6364554511501922  0.6387686174208254
  0.2094600856105391  0.6308261024054637  0.6062681018279034
  0.1489509396055842  0.5554747044797135  0.5354434671065633
  0.6558288675020000  0.2389864756265068  0.6388431631373652
  0.5411566974931533  0.1656507941100926  0.6001270042994442
  0.7501602283887635  0.2426569656449014  0.5889262066654730
  0.5669676309521120  0.1417443328616750  0.5140563975359110
  0.6945282745949714  0.1888608053012877  0.5071573119176177
  0.8400120384723329  0.3642982088119431  0.5714554607592206
  0.8603598386351694  0.3829618177523314  0.4832501566110236
  0.7619790266521669  0.2744979826768978  0.4426389386130548
  0.7883100305719959  0.4397192091858014  0.5978459611730045
  0.6756612039082801  0.3630535871646819  0.6390660370549475
  0.5671964582740370  0.3580482549780275  0.6098725788628336
  0.7925897413616382  0.5114843429112648  0.5273970384240821
  0.6841818170465326  0.5065156542242152  0.4982243919699960
  0.5715088383637200  0.4298248295208988  0.5394342384134222
  0.8472307941745538  0.4819624163783293  0.4560173636083864
  0.4429286275049638  0.2287730336624285  0.5059837039102273
  0.4781180508611665  0.2306219111111350  0.5911595023528681
  0.4853559302055164  0.3483265178909896  0.4757191028936876
  0.5531130905021366  0.3691354422481097  0.4003550342771664
  0.6695971598812519  0.4736937330264161  0.4083800148540042
  0.7621653716822213  0.4461867762972057  0.3891013341272473
  0.5068583056184517  0.1803328071161409  0.4564783110140863
  0.5742818714769529  0.2660617788871838  0.3920033925234046
  0.7018548172551797  0.3131331581895345  0.3850981200654857
  0.0353036936156915  0.9187392240423849  0.5003523058677731
  0.0715568446434645  0.8774343831145449  0.5733910441605667
  0.0812525269111945  0.8890950614115158  0.4279569187980468
  0.1456903020754643  0.8296518195172550  0.4566603374880702
  0.1367301512771296  0.8164792423058627  0.5476180477691612
  0.1629607805607856  0.9993202498458860  0.3829271568726214
  0.2807943812062504  1.0086272358607464  0.3903689705500648
  0.2694354516584274  0.9037718225122867  0.4333419398901865
  0.1712289292723964  1.0958015482116419  0.4354187963315398
  0.2934086073698933  1.1733205745552586  0.4652507946083916
  0.3585691137073520  1.1123770504019865  0.4394559533319717
  0.0858770940763481  1.0490030190986603  0.5043324832866658
  0.1606986393444856  1.0860462455822406  0.5795073603237094
  0.2844554014188542  1.1601779503364520  0.5562067245157981
  0.1493179207414567  0.9811966527005840  0.6224706419334192
  0.2671483168995993  0.9905071077286851  0.6299198406176211
  0.3488803558664620  1.1007219799479384  0.5848934850340464
  0.3948258571565912  1.0710733751965871  0.5124913692656045
  0.3442508527447986  0.9407962285746219  0.5085209490113203
  0.2589082028868170  0.8940131794285457  0.5774498676637403
 -0.0397206385859234  0.2329208924197664  0.6390555524569554
 -0.0624392013303219  0.3155020053079703  0.5910132434892167
  0.0860159702797119  0.2723682051453401  0.6321003257193172
  0.1403153022365750  0.3791118146965234  0.5797687646742973
  0.0500714974109242  0.4113144834023135  0.5559462499082641
  0.1009329830330838  0.1774036402464461  0.5935327111892336
  0.1589427737309926  0.2277674755708280  0.5133134745467499
  0.1855548447903716  0.3514592847338642  0.5061062130865371
 -0.0205696649636436  0.0844867539099291  0.5716022002027277
 -0.0340841173263719  0.0648878550308869  0.4816683928039917
  0.0784327189304934  0.1606754888482303  0.4466170564323780
 -0.1099196983532033  0.1112709196549287  0.6052151540760344
 -0.1695636573598627  0.1247153052472206  0.5315180070867536
 -0.1243441514345560  0.0970595556027823  0.4578420704282545
 -0.1429593039298398  0.2483872474399336  0.5243283395661542
 -0.0849617570939735  0.2987472975829213  0.4441088357326138
 -0.0700259088432825  0.2038072084337246  0.4055243260738142
  0.0557189556811533  0.2432562870303998  0.3985734648478503
  0.1259168522377614  0.3649229547834079  0.4324116525153036
  0.0365450938923947  0.3916977852749448  0.4660136751652390
  0.8098528064042083  0.7723351554641378  0.6189658560890540
  0.7359496011061439  0.6544440279668512  0.5817844984020126
  0.7465926324997347  0.8374645799350285  0.6102784688581983
  0.6339360630497171  0.7594623760978810  0.5677471032861977
  0.6224891558415255  0.6419535469918286  0.5522394123652152
  0.8190154615943551  0.9459139213918767  0.5607002397274901
  0.7497043246955981  0.9269084675812946  0.4840481988595752
  0.6358574471336034  0.8149365630116054  0.4894685341110531
  0.9228323685845922  0.9369041300083095  0.5345792310170706
  0.9283216203774377  0.9296908890184963  0.4440020141270548
  0.8148837578565247  0.9172354936474382  0.4144693404818378
  0.9250864235995753  0.8366798365460225  0.5752892471836670
  0.9149779623385988  0.7567429495015042  0.5067790745244812
  0.9169044531898168  0.8122007549703801  0.4284878830139277
  0.8011527798899067  0.6447890909251290  0.5122149840988784
  0.7318476029924448  0.6257770592198134  0.4355628603060901
  0.8042423872127890  0.7342131455703451  0.3859697152760960
  0.7409795454756660  0.7993486316006534  0.3772864398828235
  0.6257314260028771  0.7349844832225741  0.4209627900772629
  0.6279966367531747  0.6347494102473702  0.4616620112085223
