C 
 1.0000000000000000
     9.4012843839477593    0.0000000000000000    0.0000000000000000
     0.0000000000000000   15.3248181909616505    0.0000000000000000
     0.0000000000000000    0.0000000000000000   16.0000000000000000
 C  
 128
Direct
  0.4371867064539436  0.2494413538189340  0.6020746747522883
  0.4147122818633956  0.1621680524791062  0.5727298639919567
  0.4888562465787852  0.3041826367930679  0.5361673264671194
  0.4257264175087427  0.1664940941094985  0.4802907260446075
  0.4707968037448518  0.2531847668450473  0.4579403450439606
  0.4006596954353741  0.3797292959580308  0.5270811334993442
  0.3511894481945433  0.3879830827678082  0.4427043990104841
  0.3869227151159260  0.3044490140735091  0.4008391569069069
  0.2722331170802572  0.3632763137004527  0.5786482072439841
  0.2946059076898507  0.2835868248353697  0.6245149602104738
  0.1941401081511721  0.2130127230935775  0.6174551853927619
  0.1493241793683625  0.3724663173769806  0.5256907691738180
  0.0488699144813495  0.3019356550227588  0.5186471533808624
  0.0712495181398849  0.2222258873289625  0.5645036819472095
  0.1993471030530317  0.3949278723002359  0.4402778279915118
  0.2037820984112586  0.1043081667669848  0.5159930026184523
  0.2728638490387391  0.1337952631025134  0.5906140087304357
  0.0715145029419895  0.1490125957639495  0.5038131886641688
  0.0660513073722183  0.1881134670685558  0.4225905356829233
  0.0349893504090988  0.2793504663718210  0.4288660852603981
  0.1401531350460130  0.3301616140116628  0.3859772028654143
  0.2967152399187974  0.1310835169892396  0.4455934696621142
  0.2127209040980334  0.1823508521754447  0.3885586591726334
  0.2578568252306623  0.2690406678627379  0.3661903578564902
  0.5628132935460564  0.7505586461810662  0.6020746747522883
  0.5852877181366044  0.8378319475208938  0.5727298639919567
  0.5111437534212147  0.6958173632069322  0.5361673264671194
  0.5742735824912573  0.8335059058905017  0.4802907260446075
  0.5292031962551482  0.7468152331549529  0.4579403450439606
  0.5993403045646258  0.6202707040419693  0.5270811334993442
  0.6488105518054565  0.6120169172321919  0.4427043990104841
  0.6130772848840739  0.6955509859264910  0.4008391569069069
  0.7277668829197428  0.6367236862995476  0.5786482072439841
  0.7053940923101493  0.7164131751646304  0.6245149602104738
  0.8058598918488279  0.7869872769064227  0.6174551853927619
  0.8506758206316375  0.6275336826230195  0.5256907691738180
  0.9511300855186504  0.6980643449772415  0.5186471533808624
  0.9287504818601150  0.7777741126710376  0.5645036819472095
  0.8006528969469682  0.6050721276997643  0.4402778279915118
  0.7962179015887413  0.8956918332330154  0.5159930026184523
  0.7271361509612609  0.8662047368974868  0.5906140087304357
  0.9284854970580103  0.8509874042360507  0.5038131886641688
  0.9339486926277817  0.8118865329314443  0.4225905356829233
  0.9650106495909012  0.7206495336281792  0.4288660852603981
  0.8598468649539870  0.6698383859883373  0.3859772028654143
  0.7032847600812024  0.8689164830107606  0.4455934696621142
  0.7872790959019665  0.8176491478245554  0.3885586591726334
  0.7421431747693377  0.7309593321372622  0.3661903578564902
  0.4668408685754460  0.9067338590898795  0.5248791658310914
  0.4390115189464903  0.9581623714927979  0.4503551495609889
  0.4025200249324327  0.8226947107973359  0.5130558858104323
  0.3352471861755016  0.8226575196074900  0.4312841077161836
  0.3616564415173479  0.9057115051039145  0.3889523600209469
  0.2958852440213155  0.8081200386708867  0.5781579645418997
  0.1604515272236907  0.8052126736384294  0.5332566515952856
  0.1851281652633182  0.8118056159019404  0.4438094264480743
  0.2914034820614341  0.8898404297818812  0.6245647646317931
  0.1520250615206496  0.9308732451195356  0.6189798830464275
  0.0746806017647138  0.8784069655849303  0.5575996515779189
  0.4037840337944107  0.9490447656817159  0.5979752952070509
  0.3285546729291578  1.0247672539738677  0.5641459585963419
  0.1784247770349532  1.0139349179401143  0.5766679591704491
  0.3532546344070944  1.0313553845436736  0.4747158952713605
  0.2178257456254532  1.0284565778119326  0.4298155015451612
  0.1111644405544037  1.0138789955032133  0.4948988042505516
  0.0468464823826394  0.9298323122731105  0.4830763329713565
  0.1099073725638248  0.8875263390016818  0.4099671656831363
  0.2222792743907176  0.9467493875722255  0.3833791673021946
  0.5331591314245540  0.0932661409101205  0.5248791658310914
  0.5609884810535097  0.0418376285072021  0.4503551495609889
  0.5974799750675673  0.1773052892026642  0.5130558858104323
  0.6647528138244984  0.1773424803925101  0.4312841077161836
  0.6383435584826520  0.0942884948960855  0.3889523600209469
  0.7041147559786844  0.1918799613291134  0.5781579645418997
  0.8395484727763093  0.1947873263615706  0.5332566515952856
  0.8148718347366818  0.1881943840980596  0.4438094264480743
  0.7085965179385658  0.1101595702181189  0.6245647646317931
  0.8479749384793503  0.0691267548804645  0.6189798830464275
  0.9253193982352862  0.1215930344150697  0.5575996515779189
  0.5962159662055893  0.0509552343182841  0.5979752952070509
  0.6714453270708421 -0.0247672539738676  0.5641459585963419
  0.8215752229650467 -0.0139349179401142  0.5766679591704491
  0.6467453655929055 -0.0313553845436734  0.4747158952713605
  0.7821742543745467 -0.0284565778119326  0.4298155015451612
  0.8888355594455962 -0.0138789955032133  0.4948988042505516
  0.9531535176173607  0.0701676877268895  0.4830763329713565
  0.8900926274361750  0.1124736609983183  0.4099671656831363
  0.7777207256092823  0.0532506124277745  0.3833791673021946
  0.1240034223929671  0.4876398449723435  0.5006289349949540
  0.2559911457196200  0.4794756064183539  0.5472327966302850
  0.1602188314816516  0.4998906266924761  0.4142765038916338
  0.3144187055663590  0.4992542844963433  0.4079915239634478
  0.3773791853692954  0.4828071500734436  0.4901140324427555
  0.1042856721305306  0.5837734279770361  0.3855735228187441
  0.2307313550838445  0.6359257798231303  0.3670974296250764
  0.3581493373280762  0.5836135109508962  0.3787237024757799
  0.0441606666821878  0.6237376399340515  0.4602310050616782
  0.1168971418401650  0.7046855789073847  0.4813246426646871
  0.2382443090029416  0.7080184426508389  0.4241921903059833
  0.0435532571459680  0.5632047573233354  0.5303825701859259
  0.1360895847906224  0.6038865230543341  0.5927034123720669
  0.1798321473198590  0.6882540922822908  0.5634526233802198
  0.2634707303589636  0.5515684466438644  0.6043276474468655
  0.3899138983090870  0.6037203507043762  0.5858601401834407
  0.3340205550358313  0.6876083867103538  0.5571516154613723
  0.3702326459891224  0.6998564461768718  0.4707924751370371
  0.4507016328405661  0.6242844691537469  0.4410443080346777
  0.4500977598670142  0.5637607166939178  0.5112122572851631
  0.8759965776070329  0.5123601550276565  0.5006289349949540
  0.7440088542803800  0.5205243935816461  0.5472327966302850
  0.8397811685183483  0.5001093733075239  0.4142765038916338
  0.6855812944336410  0.5007457155036568  0.4079915239634478
  0.6226208146307046  0.5171928499265565  0.4901140324427555
  0.8957143278694694  0.4162265720229639  0.3855735228187441
  0.7692686449161554  0.3640742201768699  0.3670974296250764
  0.6418506626719238  0.4163864890491039  0.3787237024757799
  0.9558393333178123  0.3762623600659487  0.4602310050616782
  0.8831028581598350  0.2953144210926154  0.4813246426646871
  0.7617556909970584  0.2919815573491611  0.4241921903059833
  0.9564467428540320  0.4367952426766646  0.5303825701859259
  0.8639104152093775  0.3961134769456660  0.5927034123720669
  0.8201678526801410  0.3117459077177092  0.5634526233802198
  0.7365292696410364  0.4484315533561357  0.6043276474468655
  0.6100861016909130  0.3962796492956239  0.5858601401834407
  0.6659794449641686  0.3123916132896462  0.5571516154613723
  0.6297673540108776  0.3001435538231283  0.4707924751370371
  0.5492983671594340  0.3757155308462531  0.4410443080346777
  0.5499022401329858  0.4362392833060821  0.5112122572851631
