Generated by VASPKIT code               
   1.00000000000000     
     9.7532097001032270    0.0064109594970222    0.0000000000000000
    -4.8793920540729623    9.3912944596462893    0.0000000000000000
     0.0000000000000012    0.0000000000000024   19.7187324573200726
  C             
    64
Direct
  0.1598417873199077  0.0858417038196236  0.5909652134035926
  0.0046401025746402  0.0154985357333757  0.6198077299871406
  0.1930787077303998  0.9889368569249776  0.5560469623255634
  0.9298488603405990  0.8776858627114973  0.5847195172336473
  0.0474009334851205  0.8628571812072688  0.5455610125184138
  0.2759830230250358  0.0474763214872428  0.4920147310359689
  0.1906587660604326  0.9273909217557027  0.4387767685947609
  0.0331628453368128  0.8348935529468813  0.4765685013550298
  0.2471624389100965  0.1800337617420738  0.4748425734094536
  0.1668883766777145  0.1882692297236265  0.5401224935332731
  0.0241163002180856  0.1874959480699024  0.5407570000743565
  0.1369966339269059  0.1259447303108895  0.4157953991846708
  0.9888342037971606  0.1274992922236803  0.4165084339398813
  0.9344605219442228  0.1805343322724076  0.4757153549897851
  0.1186641827131915  0.9953666535468184  0.3905914896858248
  0.7954126271549530  0.9904276371746686  0.5561751442715986
  0.9277421779879301  0.0903741528834843  0.5935974576937023
  0.7756071608337566  0.0526643314692996  0.4936181654871579
  0.7333246438895061  0.9384969883030062  0.4413357429124167
  0.8705729484454192  0.9987936480164488  0.3915761030136505
  0.9483754901392306  0.9105769173260857  0.3842849304125087
  0.7966205594879312  0.8606036822967079  0.5473610737560731
  0.7564785026434176  0.8112844488645516  0.4729741687175261
  0.8987283961005749  0.8151480935940695  0.4386455439785655
  0.2956835331199585  0.6482877051733511  0.5805947008044281
  0.7195976231884663  0.4201187865180891  0.5956391626201564
  0.4588351458452147  0.7350589226184038  0.5621052057329657
  0.5487456038455997  0.3370094058106540  0.5864203184465063
  0.2429172513828689  0.5058674992739798  0.5635292305738684
  0.7749426331395826  0.5274874212206641  0.5466719657389922
  0.3874921308325601  0.4918936210073709  0.5311516121143628
  0.6464093453419725  0.5092838016193787  0.5051658471706126
  0.5071687359643225  0.6477745246204598  0.5305077582457546
  0.4855809325885518  0.4022517846983295  0.5319310375326570
  0.1018416214285728  0.4679805672521996  0.5173274724524919
  0.9047162107648269  0.5235931819312116  0.5047259933044781
  0.1831555436333528  0.4671494847032073  0.4502145641220845
  0.8214150381214412  0.4759888179673286  0.4364319639083383
  0.3368684268730502  0.4898794090258080  0.4582895225412778
  0.6713861971400915  0.4759539464723747  0.4386189425507788
  0.0816787426056389  0.6101586772197181  0.5042895681335100
  0.9194925318694341  0.3893754460102636  0.5281334136179335
  0.1498765488565462  0.6681019284513466  0.4354731389284101
  0.8535661289870249  0.2772981644820116  0.4724509935795445
  0.1991655823485208  0.5808180173423007  0.4047501022308568
  0.7961485381332578  0.3412294864441316  0.4177052189240550
  0.2112929588103324  0.7128449981401590  0.5481269526309278
  0.7961441114359417  0.3316833636040163  0.5855091994377055
  0.3216093154793761  0.8244743216853343  0.5078129076562775
  0.6749034708702821  0.2002632783062670  0.5659208837497853
  0.2706063498202843  0.8242104092165726  0.4347473335242836
  0.7006134628844743  0.1502519941497321  0.4985795888642792
  0.4741654620495981  0.8477321063912536  0.5161626152933274
  0.5287206948663645  0.2034081145119742  0.5661778920416306
  0.5536951598119313  0.8483322301430771  0.4484266149854297
  0.4482595796847527  0.1520786974582028  0.4990564225470602
  0.4142705290226114  0.8103575395997618  0.4020986195258497
  0.5723705850600312  0.1467076521001498  0.4565680933290250
  0.3629557543436589  0.6674258610117193  0.3860027175556144
  0.6273374776590718  0.2564158998126226  0.4094837619897327
  0.4486045433078940  0.6026746754967423  0.4181847022456689
  0.5490529722915246  0.3429002083318281  0.4186481341636200
  0.5780699544497031  0.7089349446256590  0.4627617702455630
  0.4260433813982789  0.2826483211480628  0.4743991732030313
 
  0.00000000E+00  0.00000000E+00  0.00000000E+00
  0.00000000E+00  0.00000000E+00  0.00000000E+00
  0.00000000E+00  0.00000000E+00  0.00000000E+00
  0.00000000E+00  0.00000000E+00  0.00000000E+00
  0.00000000E+00  0.00000000E+00  0.00000000E+00
  0.00000000E+00  0.00000000E+00  0.00000000E+00
  0.00000000E+00  0.00000000E+00  0.00000000E+00
  0.00000000E+00  0.00000000E+00  0.00000000E+00
  0.00000000E+00  0.00000000E+00  0.00000000E+00
  0.00000000E+00  0.00000000E+00  0.00000000E+00
  0.00000000E+00  0.00000000E+00  0.00000000E+00
  0.00000000E+00  0.00000000E+00  0.00000000E+00
  0.00000000E+00  0.00000000E+00  0.00000000E+00
  0.00000000E+00  0.00000000E+00  0.00000000E+00
  0.00000000E+00  0.00000000E+00  0.00000000E+00
  0.00000000E+00  0.00000000E+00  0.00000000E+00
  0.00000000E+00  0.00000000E+00  0.00000000E+00
  0.00000000E+00  0.00000000E+00  0.00000000E+00
  0.00000000E+00  0.00000000E+00  0.00000000E+00
  0.00000000E+00  0.00000000E+00  0.00000000E+00
  0.00000000E+00  0.00000000E+00  0.00000000E+00
  0.00000000E+00  0.00000000E+00  0.00000000E+00
  0.00000000E+00  0.00000000E+00  0.00000000E+00
  0.00000000E+00  0.00000000E+00  0.00000000E+00
  0.00000000E+00  0.00000000E+00  0.00000000E+00
  0.00000000E+00  0.00000000E+00  0.00000000E+00
  0.00000000E+00  0.00000000E+00  0.00000000E+00
  0.00000000E+00  0.00000000E+00  0.00000000E+00
  0.00000000E+00  0.00000000E+00  0.00000000E+00
  0.00000000E+00  0.00000000E+00  0.00000000E+00
  0.00000000E+00  0.00000000E+00  0.00000000E+00
  0.00000000E+00  0.00000000E+00  0.00000000E+00
  0.00000000E+00  0.00000000E+00  0.00000000E+00
  0.00000000E+00  0.00000000E+00  0.00000000E+00
  0.00000000E+00  0.00000000E+00  0.00000000E+00
  0.00000000E+00  0.00000000E+00  0.00000000E+00
  0.00000000E+00  0.00000000E+00  0.00000000E+00
  0.00000000E+00  0.00000000E+00  0.00000000E+00
  0.00000000E+00  0.00000000E+00  0.00000000E+00
  0.00000000E+00  0.00000000E+00  0.00000000E+00
  0.00000000E+00  0.00000000E+00  0.00000000E+00
  0.00000000E+00  0.00000000E+00  0.00000000E+00
  0.00000000E+00  0.00000000E+00  0.00000000E+00
  0.00000000E+00  0.00000000E+00  0.00000000E+00
  0.00000000E+00  0.00000000E+00  0.00000000E+00
  0.00000000E+00  0.00000000E+00  0.00000000E+00
  0.00000000E+00  0.00000000E+00  0.00000000E+00
  0.00000000E+00  0.00000000E+00  0.00000000E+00
  0.00000000E+00  0.00000000E+00  0.00000000E+00
  0.00000000E+00  0.00000000E+00  0.00000000E+00
  0.00000000E+00  0.00000000E+00  0.00000000E+00
  0.00000000E+00  0.00000000E+00  0.00000000E+00
  0.00000000E+00  0.00000000E+00  0.00000000E+00
  0.00000000E+00  0.00000000E+00  0.00000000E+00
  0.00000000E+00  0.00000000E+00  0.00000000E+00
  0.00000000E+00  0.00000000E+00  0.00000000E+00
  0.00000000E+00  0.00000000E+00  0.00000000E+00
  0.00000000E+00  0.00000000E+00  0.00000000E+00
  0.00000000E+00  0.00000000E+00  0.00000000E+00
  0.00000000E+00  0.00000000E+00  0.00000000E+00
  0.00000000E+00  0.00000000E+00  0.00000000E+00
  0.00000000E+00  0.00000000E+00  0.00000000E+00
  0.00000000E+00  0.00000000E+00  0.00000000E+00
  0.00000000E+00  0.00000000E+00  0.00000000E+00
