C 
 1.0000000000000000
     9.3732995157658685    0.0000000000000000    0.0000000000000000
    -9.5662704166484396    9.6259926131999798    0.0000000000000000
     0.0000000000000000    0.0000000000000000   16.0000000000000000
 C  
  88
Direct
  0.1092015031964976  0.4969998353898628  0.6338122158205822
 -0.1054731918885400  0.4013446639594258  0.6368062616077090
  0.1687309140025696  0.4533175643851051  0.5737794621678353
 -0.1824609969850295  0.3084083354559873  0.5635375008682253
 -0.0151304382047795  0.3402092700047515  0.5249888430419890
  0.3085416299419669  0.5622023670894289  0.5152109807870616
  0.2399522677003799  0.5144271312203238  0.4311529378463780
  0.0285512519644214  0.3774745260887418  0.4378874974304546
  0.3066729221733708  0.6693615516489306  0.5293222657283395
  0.1847498947514460  0.6294611768525621  0.6018699558466321
  0.0167001634104222  0.6142891066586121  0.5962009104204419
  0.2606656313183853  0.6941665351617392  0.4510343809832216
  0.0927242650634095  0.6790434068291424  0.4453651886314380
 -0.0292503715613562  0.6391107617033376  0.5179139772381597
  0.2334339803428030  0.6029003517225894  0.3868768496264791
 -0.3074444127165980  0.4104737225788523  0.5574367352915028
 -0.1660328358005381  0.4720740701368012  0.6246894419020189
 -0.2411031333822471  0.5128120138139022  0.4963407054642521
 -0.2361635532075379  0.4716826802445329  0.4148404092620361
 -0.0416134995882120  0.5781044972439029  0.3777587876577978
  0.0380580466833532  0.5236597010243257  0.3517491133144688
 -0.3060340430701555  0.3139767716774457  0.5150046318821107
 -0.2622979653597567  0.3513769408499998  0.4279241950484142
 -0.0949780287842752  0.3831230182596975  0.3893785543200107
  0.2669588223290105 -0.0892687831693514  0.5921293032583149
  0.4624654378447907 -0.0100352418970735  0.6273426575779011
  0.2597433833875212 -0.0009927177331666  0.5480359330333694
  0.5952146578317666  0.1303936056642800  0.5895549996122508
  0.4715976028676472  0.1359054823739564  0.5410616771207741
  0.1912972785616015 -0.0489426947087608  0.4641247153386316
  0.3314951292303140  0.0598659132638476  0.4053880747331824
  0.5152263284364350  0.1731234148269350  0.4539529042578456
  0.1930015638658879 -0.1561811301326250  0.4500054270099039
  0.2392693750825993 -0.1808334959452352  0.5283086372530177
  0.4071544574436730 -0.1658266523612229  0.5340988178192358
  0.3145782154634038 -0.1165313498389042  0.3774063174378195
  0.4823634075473693 -0.1015661825109883  0.3831797519338225
  0.5286767279527269 -0.1261915034206733  0.4614940537279943
  0.3902938285393368  0.0160269277393835  0.3450941077581066
  0.7357324329184644  0.0416220374305610  0.5641623985463967
  0.5417618862549500 -0.0647514926408336  0.6017730814587885
  0.7407405031660607  0.0001947575043285  0.4827182759868853
  0.8074097743712265  0.1023686346269358  0.4215138416496408
  0.6649255603694958  0.0404276408831124  0.3547020810085938
  0.6047316805681000  0.1114594505777123  0.3421490420612513
  0.7623803963620966  0.1619920150806418  0.5509279382690733
  0.8059528015106175  0.1990734683123566  0.4638017751111707
  0.6823365849919715  0.2046318263143305  0.4153251059098386
  0.1185205248868489  0.0832176789024634  0.5543940129514429
 -0.0301585181151220  0.0700612967393223  0.5107270682102416
  0.2286182182785632  0.2011748269110749  0.6089353263523433
  0.1473960095206424  0.2603017553669782  0.5986557551019926
 -0.0212236191066847  0.1764713727445931  0.5399249236400319
  0.4414808909702733  0.3034214498271080  0.5858275985197734
  0.4825024778942446  0.4231869851313010  0.5558040240845721
  0.3048482497164536  0.3979905414585765  0.5657153149668038
  0.4498120114533127  0.2462756827259139  0.5111262457315667
  0.5208403352107824  0.3364778599793629  0.4391127520439627
  0.5298182505814513  0.4428899074504538  0.4683242925856766
  0.2568101274544460  0.1055857325386026  0.4943792658120579
  0.1948171039136071  0.1149660670310022  0.4133304813078137
  0.3522552554841029  0.2526498094017270  0.3803708980895508
  0.0171765128911794  0.0897528229983530  0.4232505012166927
  0.0581878588481156  0.2095078382485468  0.3932209314645272
  0.2710438365347907  0.3117797633394204  0.3701102753642000
  0.3811472613597555  0.4297399847900727  0.4246586516018725
  0.2428277929132229  0.4073649216305040  0.4846716172091681
  0.0498187962256682  0.2666685821042878  0.4679063524855515
  0.8740389411558436  0.8931499962959788  0.5841081358472019
  1.0272997277884224  0.9272976915415116  0.5292121332201476
  0.7563247351302318  0.7550716359186646  0.6151172112102097
  0.8374657380357668  0.7046219565641800  0.5791890334144766
  1.0133433642038867  0.8129364194849945  0.5277157635237445
  0.5467231885531376  0.6658385074715649  0.5895222715024349
  0.5082923405045108  0.5652569957405340  0.5322566722398820
  0.6836413374460210  0.5868967377984743  0.5278099389371245
  0.5487018434505678  0.7538573250502275  0.5362864856361311
  0.4862215503619959  0.7000068489794067  0.4513529329128861
  0.4722207347102144  0.5856369622725819  0.4498739540373244
  0.7441646168866184  0.8974089495846472  0.5375382349939872
  0.8158741856420685  0.9260352394925451  0.4512700431370834
  0.6620662666619742  0.8083236658831904  0.3998726875466558
  0.9912087565039693  0.9476868001017571  0.4468378779378384
  0.9527889694040674  0.8471181211445971  0.3895683983460550
  0.7431941121767635  0.7578623865622416  0.3639627694887929
  0.6254732802789342  0.6197778341431203  0.3949783026632170
  0.7553775575188061  0.6155267152422288  0.4415449921687991
  0.9508497985307843  0.7590927859328563  0.4427804891148414
