Generated by VASPKIT code               
   1.00000000000000     
    24.7811136876492988    0.0988840338633638    0.0000000000000000
   -12.3051082513688428   21.3562794272732610    0.0000000000000000
     0.0000000000000013    0.0000000000000023   21.9613012037498585
  C             
   264
Direct
  0.5701937829903343  0.1937929493988715  0.4160127511763919
  0.0047114601682036  0.0525725048562960  0.3477876785177198
  0.5370650716197284  0.1840733338815953  0.4727673578299281
  0.0562146749200465  0.0401654855291621  0.3481109307565907
  0.5083922871624994  0.2228306706092151  0.4730870052500848
  0.0305111311948348  0.9728793994324908  0.3480943930673560
  0.5631609559612241  0.2398786136730308  0.3811509811848586
  0.9472040587461392  0.9930573264466084  0.3476936498961634
  0.5248344380533764  0.2577505894971364  0.4164558002354954
  0.9631911727692921  0.9437859520247479  0.3478153481386204
  0.6131723214825687  0.2845890971353607  0.3471154666236593
  0.8958822833842004  0.9859441721808976  0.3810417324440234
  0.6717015292809475  0.2844091367538223  0.3466386139032850
  0.9000203519823082  0.0379680684211516  0.4158286733045212
  0.6261414317248160  0.1929754820127167  0.4153419246066576
  0.0087513557189820  0.1026514857386840  0.3813569061026237
  0.6779954703275217  0.2393767809487188  0.3800070979651896
  0.9555504252110593  0.0949846663830438  0.4160596724601932
  0.6503288317079523  0.1818820331236166  0.4714441516438736
  0.0643262108123285  0.1420967974491747  0.4164695653558003
  0.5599688761137135  0.1730737245706478  0.5266024572775224
  0.1098265553833702  0.0784270854936230  0.3818994994679991
  0.6176925915674906  0.1718827838075814  0.5261337048425534
  0.1141007314146052  0.1305397586421234  0.4166775734583217
  0.5558787630312048  0.2010980215164942  0.5831392673904544
  0.1394536023801202  0.0507570002991628  0.4171528533228139
  0.5045058326264752  0.2500593601855137  0.5275472171250341
  0.0591751490352634  0.9461962437537303  0.3820591518017319
  0.5286866141123290  0.2390229357411719  0.5836778779030004
  0.1142341394063750  0.9859579590334071  0.4173863853220239
  0.5179197893045093  0.3143022212951692  0.5276462740067348
  0.0219907655060603  0.8893905881776503  0.4168362260191301
  0.5378025717558943  0.3197217187517110  0.4165458226904335
  0.9274649013757450  0.8892805384668302  0.3814842624933882
  0.5344588583845870  0.3483841305937379  0.4732056204151624
  0.9573349303796551  0.8614716074327562  0.4165682951784290
  0.6268791327950197  0.3491637810881751  0.3472874250871485
  0.8588737067619376  0.9294845606689046  0.4159770096278661
  0.5899223425574511  0.3662814839033358  0.3813713567183636
  0.8748360028549939  0.8825037472452723  0.4163461728734293
  0.7215995167854499  0.3489578518286757  0.3464086110308896
  0.8654029346178095  0.0136533648369021  0.4721091932393056
  0.6939493301819155  0.3889639836536566  0.3468502467578267
  0.8400704171867317  0.9466010534365435  0.4722097049174631
  0.7758029634506410  0.3660808272874341  0.3797178225649044
  0.8873173735873818  0.0471853646192185  0.5265632906240907
  0.7342400513049445  0.2571199614856576  0.4145325761259306
  0.9782778264305874  0.1291075704937153  0.4725611270172799
  0.7171765374453029  0.2215729912930721  0.4709459310274310
  0.0453922460101577  0.1583163441658724  0.4728305974797259
  0.7818554254307092  0.3193619173371556  0.4144837282589712
  0.9449101306555375  0.1061102639828886  0.5266195079080551
  0.7483437751103070  0.2494564400241044  0.5251590792526137
  0.0768031084287957  0.1634886034814702  0.5271669679161448
  0.6500599421143320  0.2002102496473819  0.5825223217607344
  0.1465504864976150  0.1352255435632125  0.4732648397748708
  0.6118323156967611  0.2182932593998900  0.6177922175357259
  0.1621133785003335  0.0858244068453858  0.4735359384985200
  0.7145196002913946  0.2385190454916546  0.5820108031650867
  0.1284273525102104  0.1515543930540109  0.5275359506059404
  0.6393439799588863  0.2737749274969907  0.6514529808131155
  0.1585372602488865  0.0547445748776110  0.5278843802959385
  0.5571523038516984  0.2964751941453985  0.6186078143673666
  0.1106432650155491  0.9539016476884380  0.4738296520503243
  0.5506035898083743  0.3430166806616762  0.5838587929416228
  0.0541323636521539  0.8941206846778539  0.4735986140324230
  0.6115608079985613  0.3136224672006304  0.6518031752951610
  0.1321723422631541  0.9875987827722468  0.5279164234019428
  0.5990290544328234  0.4048971742676267  0.5835402903522459
  0.0211289176817811  0.8703996383273892  0.5279143726523589
  0.5846998217148387  0.4124565700627343  0.4730077125642086
  0.9231455828456039  0.8375568670514962  0.4730622864613098
  0.6188389999469571  0.4236849662593130  0.4163730169722556
  0.8728019787794526  0.8512323875209542  0.4728138449170363
  0.6163764743190220  0.4397024879956253  0.5270138547022920
  0.9540608066468156  0.8414413656364610  0.5276319247516776
  0.7217043599243711  0.4445178020785878  0.3805065899899743
  0.8379363718356454  0.9161361561432101  0.5266145477780987
  0.6833813711437157  0.4620073793697021  0.4159229001831753
  0.8550122085503838  0.8679166774102822  0.5267646094656396
  0.8045643289299598  0.4237962864308249  0.4145654615836120
  0.8843852384052029  0.0152924383564701  0.5831689990487786
  0.7781722020867679  0.4623948600638418  0.4149248452851819
  0.8599448443405838  0.9506507090094792  0.5832055721655768
  0.8136592866144560  0.3480343557994208  0.4707638365779678
  0.9774059446326121  0.1111244142786789  0.5831595029972809
  0.7975338839660843  0.3139501790402995  0.5248858132322699
  0.0421528841611805  0.1392419489931581  0.5834454864504758
  0.8281457506498461  0.4126081888936622  0.4708184653490112
  0.9400768869210780  0.0548599297285578  0.6181803447856193
  0.7431849135758204  0.2963016777356605  0.6168086609185064
  0.1255028597459983  0.1195881319588424  0.5840842801470457
  0.7064597662241044  0.3136311528928185  0.6509452296551936
  0.1405172364645328  0.0719511364268726  0.5842752763084152
  0.7947007721242850  0.3428685975027176  0.5814142614941193
  0.0722409687133770  0.1120675749302745  0.6186957154054353
  0.6616361504553466  0.3781191002955762  0.6515835293330129
  0.0985809669461900  0.9631326075398501  0.5842652337582054
  0.6553914164206589  0.4228905898755531  0.6180379253175911
  0.0437602139484596  0.9054659413396605  0.5843163641917192
  0.7202867466499958  0.3781723626477895  0.6510305316866728
  0.1032620520822140  0.0152539466458388  0.6191493545841342
  0.6832338559018604  0.4793677277994134  0.5265369166983888
  0.9353421285779158  0.8586404983974977  0.5838515215787081
  0.7161441352523573  0.4905611843095221  0.4721198104423026
  0.8864162457188591  0.8714920886770418  0.5833636515786103
  0.7748126317433790  0.4910822519886878  0.4715248211114371
  0.8900081486368228  0.9230754205138931  0.6183156920417532
  0.7074335073301148  0.4692138801848735  0.5827566543056916
  0.9907494804788751  0.8981057470832363  0.6190243025318705
  0.8255158408703969  0.4406314127133120  0.5252464496588884
  0.9690283956222008  0.0283905576705930  0.6521149395153446
  0.8084608005137169  0.4051175146807048  0.5816941672114587
  0.0362793461376059  0.0574858000910118  0.6523325253316581
  0.7704533555922689  0.4230934252233897  0.6170586919823254
  0.0521420400293910  0.0080898243703433  0.6526029855604686
  0.7981688866256512  0.4806620508240008  0.5256522327206584
  0.9434395300955358  0.9610846241846766  0.6521959351541926
  0.7640229118603190  0.4697003023447144  0.5823397406509111
  0.9947931110815909  0.9484468718079763  0.6524319342988172
  0.3361388017080845  0.7247387721816889  0.6191825961126032
  0.3799003487377626  0.0403760906338615  0.6170186854277702
  0.6588007821891343  0.6257548192319794  0.6226039228672926
  0.9646719801952963  0.3496819880066983  0.6190331134975519
  0.3911536775963851  0.7208279771215430  0.6195664976185417
  0.4001365558019519  0.9958106735552666  0.6175912816843945
  0.5944644061962756  0.6055954920065354  0.6217846299175724
  0.0128250860344401  0.4127745573530354  0.6193293244374311
  0.4283520824088905  0.7556293812229862  0.5654370452705434
  0.4391492740435502  0.0067670367152827  0.5623630857723525
  0.5669592710849121  0.5631687022176018  0.5685372454902232
  0.0041531606126727  0.4435984604385208  0.5648057498242737
  0.3387977264256988  0.7618482393890292  0.5647667991172821
  0.4061357520833202  0.0793566477201898  0.5614266497681539
  0.6718178011221398  0.5961038105508192  0.5698292150386970
  0.9258405935197437  0.3407737944074522  0.5642544826097953
  0.3961040340107910  0.7813192665630783  0.5331311726514985
  0.4424136367293388  0.0582694461353397  0.5293096098955626
  0.6149822911771347  0.5576594363528004  0.5380381057377702
  0.9502091560015886  0.3987862318232255  0.5323853827202140
  0.2811905360556355  0.7292402630573951  0.5324146213123211
  0.3579091217231634  0.0840204530735194  0.5301205859906060
  0.7245061428790410  0.6425327261056879  0.5371925690271473
  0.9159590555199374  0.2858451680980176  0.5324142876834048
  0.2774492025939877  0.6695714629685878  0.6188740499218710
  0.3157416092859074  0.0204903379589756  0.6183599706785086
  0.7027824135073605  0.6902002249539251  0.6209918626047159
  0.9792945830402292  0.3010110396434951  0.6193570950809894
  0.2432312023076525  0.6721725809185248  0.5643215735272947
  0.3018777149226325  0.0470058389812047  0.5636858311023762
  0.7432494159310229  0.7008788453098380  0.5671161092569119
  0.9495917057055687  0.2616651884202447  0.5648400292016029
  0.2738200639154019  0.6104812048897773  0.6189411545779383
  0.2715939966891400  0.9558328972734587  0.6201507016937032
  0.6824096135457174  0.7346558209132776  0.6183694184204644
  0.0421678083801640  0.3153758527779170  0.6198969322409539
  0.3875349474922636  0.6616675521430327  0.6196219732457590
  0.3561081626282421  0.9313067368963968  0.6194485774837781
  0.5742321830976799  0.6499684749400509  0.6192215466338312
  0.0755932990413971  0.4271293545299593  0.6199185043284727
  0.3289228294548839  0.6065626811248214  0.6192680839238104
  0.2917700641190122  0.9113771412208009  0.6206233602456200
  0.6182738777789374  0.7146251200282649  0.6175116179468390
  0.0901989936734500  0.3783619964125103  0.6200825067616800
  0.4475604191239830  0.7175786129846875  0.5335585433032178
  0.4193796774201743  0.9487691171555152  0.5316874126349109
  0.5291798011618840  0.5812972062987781  0.5346527132423191
  0.0618561000911984  0.4773781062316865  0.5332660051776048
  0.4223804281930048  0.6593008014060939  0.5655079150370869
  0.3674236697974014  0.9021668824370084  0.5653465234051186
  0.5342837733214288  0.6355036222179657  0.5643504911377278
  0.1061175465234657  0.4667479164465737  0.5657537378216132
  0.4479574815634493  0.7177277363397752  0.4680211087636400
  0.4178312920844445  0.9469307392246707  0.4660971527594654
  0.5295306187332962  0.5791774658833846  0.4691092983776805
  0.0623968587224871  0.4774980490718752  0.4676729803381300
  0.3965125476730094  0.7814599247509928  0.4675619219568599
  0.4406265710736814  0.0563221123632991  0.4638235974001350
  0.6153010057777584  0.5555033887965737  0.4725420688303676
  0.9507982525253929  0.3988830930838490  0.4668849736751832
  0.4291681443526580  0.7559638298624898  0.4357562460187993
  0.4359060526087600  0.0031831518449827  0.4327938430360389
  0.5675914977604142  0.5589279446959858  0.4390260272842944
  0.0051768337963876  0.4438218537183223  0.4351918246434611
  0.2815872501861679  0.7294003583486877  0.4668835903641179
  0.3562779319128512  0.0822609220588127  0.4645342066253295
  0.7248340419749277  0.6403250099695811  0.4716466857028038
  0.9164563758173887  0.2859131431722233  0.4668512700997073
  0.3396114394996518  0.7622572394400752  0.4351679341193218
  0.4027602921999792  0.0756575521139974  0.4320285964347527
  0.6723867092364475  0.5917286975229807  0.4404526059636569
  0.9269529381457094  0.3409340538126544  0.4348859809286782
  0.2440325968027434  0.6724881805033817  0.4346458427241442
  0.2986695555885359  0.0434074499283971  0.4340692328745301
  0.7438382679814142  0.6964692840147001  0.4376151218499155
  0.9506835592798442  0.2618745249917143  0.4352175478628963
  0.2183224841323552  0.6143369485059187  0.5321597111979747
  0.2491095476119933  0.9981904491710790  0.5332517383720548
  0.7473228613558863  0.7519338990018416  0.5328292681787331
  0.9946117817451207  0.2520481645551881  0.5332787279756018
  0.2373400085819337  0.5760030401142763  0.5644479748346711
  0.2300491690772976  0.9417611276537795  0.5665939642959388
  0.7101121265111202  0.7732604797041139  0.5628918508145322
  0.0519556117721648  0.2849862349981723  0.5657115773126380
  0.2187393111179381  0.6144955959681692  0.4666052568805862
  0.2477240289206142  0.9964049656865531  0.4678073232634153
  0.7477769255576563  0.7498577118908553  0.4673540674306425
  0.9951254777618059  0.2522388327497115  0.4677419270049218
  0.3270675998979661  0.5695816487070907  0.5649561031164446
  0.2624682531243809  0.8692389228660882  0.5675595553637565
  0.6059670675749986  0.7409312116832873  0.5615902503878405
  0.1302061848411220  0.3873716313240207  0.5661963564689627
  0.3849691852986765  0.6020706792336756  0.5332802199015938
  0.3095402558559697  0.8642198372898209  0.5348403931694341
  0.5545642411351096  0.6918648442245150  0.5302435475010653
  0.1391650606742650  0.4414368920785190  0.5339954289672576
  0.2706116761913037  0.5508952332712500  0.5325523613548634
  0.2237367936089119  0.8877534076352587  0.5357456827414183
  0.6630551659235674  0.7778869715720782  0.5294300688867061
  0.1067708876668713  0.3294250817963208  0.5341590989685784
  0.4231011199999861  0.6596309683819557  0.4359210530631614
  0.3642364717112364  0.8985680386365782  0.4358269688790298
  0.5351351996463132  0.6313576336680270  0.4349160079915252
  0.1072032393811519  0.4670939481300078  0.4360677022306254
  0.3853977462231809  0.6022237432961001  0.4677278510794345
  0.3079566013133759  0.8625828715375200  0.4694354631507316
  0.5548471916247599  0.6897649402901411  0.4648596676975013
  0.1397220936123754  0.4416012645291251  0.4686032798892368
  0.3926646652970685  0.7214030688063472  0.3812385798259417
  0.3942071132528448  0.9892798790706309  0.3791992772979967
  0.5956619058470648  0.5976948056291009  0.3835749693219374
  0.0148034754439738  0.4132235334111662  0.3810047672665101
  0.3376498429109678  0.7253290397937835  0.3808718710964314
  0.3739565646843685  0.0338202398453691  0.3786943703231787
  0.6599542729027097  0.6177753835455746  0.3844319788786763
  0.9667273551622028  0.3501127210253028  0.3808003497569080
  0.2789810955218934  0.6701347746636562  0.3805633569841577
  0.3097880771436932  0.0139496947374135  0.3799044728826571
  0.7039601968484268  0.6822393870672466  0.3827067007785552
  0.9813510307794744  0.3014994323156852  0.3810008691671450
  0.3890118593619364  0.6622377602550242  0.3812946805193365
  0.3501487519378781  0.9248503736022786  0.3811065511662387
  0.5755190665153315  0.6421778114445447  0.3810651208324421
  0.0775493271816507  0.4276526598350192  0.3815120482800256
  0.2381222151006407  0.5762886527573007  0.4346480836699420
  0.2268487013403724  0.9382496390042622  0.4371947535160253
  0.7110729909028588  0.7691941020485809  0.4334388599456370
  0.0530921670290382  0.2854863281018676  0.4361370152645948
  0.2710002755626983  0.5510307208733206  0.4670334893161460
  0.2221118369659777  0.8859766377277805  0.4701645691492286
  0.6634747664544737  0.7757887365331658  0.4638244884025813
  0.1073121269628906  0.3296122359716432  0.4684943611344433
  0.3278631259064366  0.5699015184253050  0.4353551518045468
  0.2592971649989559  0.8657790954343747  0.4379651269090805
  0.6067625952258425  0.7367989338017381  0.4320182080825495
  0.1313068821939622  0.3877577261753767  0.4365211891671089
  0.2753342725101028  0.6110455076259693  0.3805573952274613
  0.2656744087551727  0.9493341642380640  0.3818787755815599
  0.6838015026881344  0.7268652654646376  0.3801691298393699
  0.0442441146356957  0.3159916024725110  0.3815761946601045
  0.3304196398534232  0.6071139075720525  0.3809673617785856
  0.2857957549287761  0.9048456827327540  0.3824664541556704
  0.6196290527167271  0.7068091109167925  0.3794233544096167
  0.0922426021790848  0.3789379129788106  0.3818697591807165
 
  0.00000000E+00  0.00000000E+00  0.00000000E+00
  0.00000000E+00  0.00000000E+00  0.00000000E+00
  0.00000000E+00  0.00000000E+00  0.00000000E+00
  0.00000000E+00  0.00000000E+00  0.00000000E+00
  0.00000000E+00  0.00000000E+00  0.00000000E+00
  0.00000000E+00  0.00000000E+00  0.00000000E+00
  0.00000000E+00  0.00000000E+00  0.00000000E+00
  0.00000000E+00  0.00000000E+00  0.00000000E+00
  0.00000000E+00  0.00000000E+00  0.00000000E+00
  0.00000000E+00  0.00000000E+00  0.00000000E+00
  0.00000000E+00  0.00000000E+00  0.00000000E+00
  0.00000000E+00  0.00000000E+00  0.00000000E+00
  0.00000000E+00  0.00000000E+00  0.00000000E+00
  0.00000000E+00  0.00000000E+00  0.00000000E+00
  0.00000000E+00  0.00000000E+00  0.00000000E+00
  0.00000000E+00  0.00000000E+00  0.00000000E+00
  0.00000000E+00  0.00000000E+00  0.00000000E+00
  0.00000000E+00  0.00000000E+00  0.00000000E+00
  0.00000000E+00  0.00000000E+00  0.00000000E+00
  0.00000000E+00  0.00000000E+00  0.00000000E+00
  0.00000000E+00  0.00000000E+00  0.00000000E+00
  0.00000000E+00  0.00000000E+00  0.00000000E+00
  0.00000000E+00  0.00000000E+00  0.00000000E+00
  0.00000000E+00  0.00000000E+00  0.00000000E+00
  0.00000000E+00  0.00000000E+00  0.00000000E+00
  0.00000000E+00  0.00000000E+00  0.00000000E+00
  0.00000000E+00  0.00000000E+00  0.00000000E+00
  0.00000000E+00  0.00000000E+00  0.00000000E+00
  0.00000000E+00  0.00000000E+00  0.00000000E+00
  0.00000000E+00  0.00000000E+00  0.00000000E+00
  0.00000000E+00  0.00000000E+00  0.00000000E+00
  0.00000000E+00  0.00000000E+00  0.00000000E+00
  0.00000000E+00  0.00000000E+00  0.00000000E+00
  0.00000000E+00  0.00000000E+00  0.00000000E+00
  0.00000000E+00  0.00000000E+00  0.00000000E+00
  0.00000000E+00  0.00000000E+00  0.00000000E+00
  0.00000000E+00  0.00000000E+00  0.00000000E+00
  0.00000000E+00  0.00000000E+00  0.00000000E+00
  0.00000000E+00  0.00000000E+00  0.00000000E+00
  0.00000000E+00  0.00000000E+00  0.00000000E+00
  0.00000000E+00  0.00000000E+00  0.00000000E+00
  0.00000000E+00  0.00000000E+00  0.00000000E+00
  0.00000000E+00  0.00000000E+00  0.00000000E+00
  0.00000000E+00  0.00000000E+00  0.00000000E+00
  0.00000000E+00  0.00000000E+00  0.00000000E+00
  0.00000000E+00  0.00000000E+00  0.00000000E+00
  0.00000000E+00  0.00000000E+00  0.00000000E+00
  0.00000000E+00  0.00000000E+00  0.00000000E+00
  0.00000000E+00  0.00000000E+00  0.00000000E+00
  0.00000000E+00  0.00000000E+00  0.00000000E+00
  0.00000000E+00  0.00000000E+00  0.00000000E+00
  0.00000000E+00  0.00000000E+00  0.00000000E+00
  0.00000000E+00  0.00000000E+00  0.00000000E+00
  0.00000000E+00  0.00000000E+00  0.00000000E+00
  0.00000000E+00  0.00000000E+00  0.00000000E+00
  0.00000000E+00  0.00000000E+00  0.00000000E+00
  0.00000000E+00  0.00000000E+00  0.00000000E+00
  0.00000000E+00  0.00000000E+00  0.00000000E+00
  0.00000000E+00  0.00000000E+00  0.00000000E+00
  0.00000000E+00  0.00000000E+00  0.00000000E+00
  0.00000000E+00  0.00000000E+00  0.00000000E+00
  0.00000000E+00  0.00000000E+00  0.00000000E+00
  0.00000000E+00  0.00000000E+00  0.00000000E+00
  0.00000000E+00  0.00000000E+00  0.00000000E+00
  0.00000000E+00  0.00000000E+00  0.00000000E+00
  0.00000000E+00  0.00000000E+00  0.00000000E+00
  0.00000000E+00  0.00000000E+00  0.00000000E+00
  0.00000000E+00  0.00000000E+00  0.00000000E+00
  0.00000000E+00  0.00000000E+00  0.00000000E+00
  0.00000000E+00  0.00000000E+00  0.00000000E+00
  0.00000000E+00  0.00000000E+00  0.00000000E+00
  0.00000000E+00  0.00000000E+00  0.00000000E+00
  0.00000000E+00  0.00000000E+00  0.00000000E+00
  0.00000000E+00  0.00000000E+00  0.00000000E+00
  0.00000000E+00  0.00000000E+00  0.00000000E+00
  0.00000000E+00  0.00000000E+00  0.00000000E+00
  0.00000000E+00  0.00000000E+00  0.00000000E+00
  0.00000000E+00  0.00000000E+00  0.00000000E+00
  0.00000000E+00  0.00000000E+00  0.00000000E+00
  0.00000000E+00  0.00000000E+00  0.00000000E+00
  0.00000000E+00  0.00000000E+00  0.00000000E+00
  0.00000000E+00  0.00000000E+00  0.00000000E+00
  0.00000000E+00  0.00000000E+00  0.00000000E+00
  0.00000000E+00  0.00000000E+00  0.00000000E+00
  0.00000000E+00  0.00000000E+00  0.00000000E+00
  0.00000000E+00  0.00000000E+00  0.00000000E+00
  0.00000000E+00  0.00000000E+00  0.00000000E+00
  0.00000000E+00  0.00000000E+00  0.00000000E+00
  0.00000000E+00  0.00000000E+00  0.00000000E+00
  0.00000000E+00  0.00000000E+00  0.00000000E+00
  0.00000000E+00  0.00000000E+00  0.00000000E+00
  0.00000000E+00  0.00000000E+00  0.00000000E+00
  0.00000000E+00  0.00000000E+00  0.00000000E+00
  0.00000000E+00  0.00000000E+00  0.00000000E+00
  0.00000000E+00  0.00000000E+00  0.00000000E+00
  0.00000000E+00  0.00000000E+00  0.00000000E+00
  0.00000000E+00  0.00000000E+00  0.00000000E+00
  0.00000000E+00  0.00000000E+00  0.00000000E+00
  0.00000000E+00  0.00000000E+00  0.00000000E+00
  0.00000000E+00  0.00000000E+00  0.00000000E+00
  0.00000000E+00  0.00000000E+00  0.00000000E+00
  0.00000000E+00  0.00000000E+00  0.00000000E+00
  0.00000000E+00  0.00000000E+00  0.00000000E+00
  0.00000000E+00  0.00000000E+00  0.00000000E+00
  0.00000000E+00  0.00000000E+00  0.00000000E+00
  0.00000000E+00  0.00000000E+00  0.00000000E+00
  0.00000000E+00  0.00000000E+00  0.00000000E+00
  0.00000000E+00  0.00000000E+00  0.00000000E+00
  0.00000000E+00  0.00000000E+00  0.00000000E+00
  0.00000000E+00  0.00000000E+00  0.00000000E+00
  0.00000000E+00  0.00000000E+00  0.00000000E+00
  0.00000000E+00  0.00000000E+00  0.00000000E+00
  0.00000000E+00  0.00000000E+00  0.00000000E+00
  0.00000000E+00  0.00000000E+00  0.00000000E+00
  0.00000000E+00  0.00000000E+00  0.00000000E+00
  0.00000000E+00  0.00000000E+00  0.00000000E+00
  0.00000000E+00  0.00000000E+00  0.00000000E+00
  0.00000000E+00  0.00000000E+00  0.00000000E+00
  0.00000000E+00  0.00000000E+00  0.00000000E+00
  0.00000000E+00  0.00000000E+00  0.00000000E+00
  0.00000000E+00  0.00000000E+00  0.00000000E+00
  0.00000000E+00  0.00000000E+00  0.00000000E+00
  0.00000000E+00  0.00000000E+00  0.00000000E+00
  0.00000000E+00  0.00000000E+00  0.00000000E+00
  0.00000000E+00  0.00000000E+00  0.00000000E+00
  0.00000000E+00  0.00000000E+00  0.00000000E+00
  0.00000000E+00  0.00000000E+00  0.00000000E+00
  0.00000000E+00  0.00000000E+00  0.00000000E+00
  0.00000000E+00  0.00000000E+00  0.00000000E+00
  0.00000000E+00  0.00000000E+00  0.00000000E+00
  0.00000000E+00  0.00000000E+00  0.00000000E+00
  0.00000000E+00  0.00000000E+00  0.00000000E+00
  0.00000000E+00  0.00000000E+00  0.00000000E+00
  0.00000000E+00  0.00000000E+00  0.00000000E+00
  0.00000000E+00  0.00000000E+00  0.00000000E+00
  0.00000000E+00  0.00000000E+00  0.00000000E+00
  0.00000000E+00  0.00000000E+00  0.00000000E+00
  0.00000000E+00  0.00000000E+00  0.00000000E+00
  0.00000000E+00  0.00000000E+00  0.00000000E+00
  0.00000000E+00  0.00000000E+00  0.00000000E+00
  0.00000000E+00  0.00000000E+00  0.00000000E+00
  0.00000000E+00  0.00000000E+00  0.00000000E+00
  0.00000000E+00  0.00000000E+00  0.00000000E+00
  0.00000000E+00  0.00000000E+00  0.00000000E+00
  0.00000000E+00  0.00000000E+00  0.00000000E+00
  0.00000000E+00  0.00000000E+00  0.00000000E+00
  0.00000000E+00  0.00000000E+00  0.00000000E+00
  0.00000000E+00  0.00000000E+00  0.00000000E+00
  0.00000000E+00  0.00000000E+00  0.00000000E+00
  0.00000000E+00  0.00000000E+00  0.00000000E+00
  0.00000000E+00  0.00000000E+00  0.00000000E+00
  0.00000000E+00  0.00000000E+00  0.00000000E+00
  0.00000000E+00  0.00000000E+00  0.00000000E+00
  0.00000000E+00  0.00000000E+00  0.00000000E+00
  0.00000000E+00  0.00000000E+00  0.00000000E+00
  0.00000000E+00  0.00000000E+00  0.00000000E+00
  0.00000000E+00  0.00000000E+00  0.00000000E+00
  0.00000000E+00  0.00000000E+00  0.00000000E+00
  0.00000000E+00  0.00000000E+00  0.00000000E+00
  0.00000000E+00  0.00000000E+00  0.00000000E+00
  0.00000000E+00  0.00000000E+00  0.00000000E+00
  0.00000000E+00  0.00000000E+00  0.00000000E+00
  0.00000000E+00  0.00000000E+00  0.00000000E+00
  0.00000000E+00  0.00000000E+00  0.00000000E+00
  0.00000000E+00  0.00000000E+00  0.00000000E+00
  0.00000000E+00  0.00000000E+00  0.00000000E+00
  0.00000000E+00  0.00000000E+00  0.00000000E+00
  0.00000000E+00  0.00000000E+00  0.00000000E+00
  0.00000000E+00  0.00000000E+00  0.00000000E+00
  0.00000000E+00  0.00000000E+00  0.00000000E+00
  0.00000000E+00  0.00000000E+00  0.00000000E+00
  0.00000000E+00  0.00000000E+00  0.00000000E+00
  0.00000000E+00  0.00000000E+00  0.00000000E+00
  0.00000000E+00  0.00000000E+00  0.00000000E+00
  0.00000000E+00  0.00000000E+00  0.00000000E+00
  0.00000000E+00  0.00000000E+00  0.00000000E+00
  0.00000000E+00  0.00000000E+00  0.00000000E+00
  0.00000000E+00  0.00000000E+00  0.00000000E+00
  0.00000000E+00  0.00000000E+00  0.00000000E+00
  0.00000000E+00  0.00000000E+00  0.00000000E+00
  0.00000000E+00  0.00000000E+00  0.00000000E+00
  0.00000000E+00  0.00000000E+00  0.00000000E+00
  0.00000000E+00  0.00000000E+00  0.00000000E+00
  0.00000000E+00  0.00000000E+00  0.00000000E+00
  0.00000000E+00  0.00000000E+00  0.00000000E+00
  0.00000000E+00  0.00000000E+00  0.00000000E+00
  0.00000000E+00  0.00000000E+00  0.00000000E+00
  0.00000000E+00  0.00000000E+00  0.00000000E+00
  0.00000000E+00  0.00000000E+00  0.00000000E+00
  0.00000000E+00  0.00000000E+00  0.00000000E+00
  0.00000000E+00  0.00000000E+00  0.00000000E+00
  0.00000000E+00  0.00000000E+00  0.00000000E+00
  0.00000000E+00  0.00000000E+00  0.00000000E+00
  0.00000000E+00  0.00000000E+00  0.00000000E+00
  0.00000000E+00  0.00000000E+00  0.00000000E+00
  0.00000000E+00  0.00000000E+00  0.00000000E+00
  0.00000000E+00  0.00000000E+00  0.00000000E+00
  0.00000000E+00  0.00000000E+00  0.00000000E+00
  0.00000000E+00  0.00000000E+00  0.00000000E+00
  0.00000000E+00  0.00000000E+00  0.00000000E+00
  0.00000000E+00  0.00000000E+00  0.00000000E+00
  0.00000000E+00  0.00000000E+00  0.00000000E+00
  0.00000000E+00  0.00000000E+00  0.00000000E+00
  0.00000000E+00  0.00000000E+00  0.00000000E+00
  0.00000000E+00  0.00000000E+00  0.00000000E+00
  0.00000000E+00  0.00000000E+00  0.00000000E+00
  0.00000000E+00  0.00000000E+00  0.00000000E+00
  0.00000000E+00  0.00000000E+00  0.00000000E+00
  0.00000000E+00  0.00000000E+00  0.00000000E+00
  0.00000000E+00  0.00000000E+00  0.00000000E+00
  0.00000000E+00  0.00000000E+00  0.00000000E+00
  0.00000000E+00  0.00000000E+00  0.00000000E+00
  0.00000000E+00  0.00000000E+00  0.00000000E+00
  0.00000000E+00  0.00000000E+00  0.00000000E+00
  0.00000000E+00  0.00000000E+00  0.00000000E+00
  0.00000000E+00  0.00000000E+00  0.00000000E+00
  0.00000000E+00  0.00000000E+00  0.00000000E+00
  0.00000000E+00  0.00000000E+00  0.00000000E+00
  0.00000000E+00  0.00000000E+00  0.00000000E+00
  0.00000000E+00  0.00000000E+00  0.00000000E+00
  0.00000000E+00  0.00000000E+00  0.00000000E+00
  0.00000000E+00  0.00000000E+00  0.00000000E+00
  0.00000000E+00  0.00000000E+00  0.00000000E+00
  0.00000000E+00  0.00000000E+00  0.00000000E+00
  0.00000000E+00  0.00000000E+00  0.00000000E+00
  0.00000000E+00  0.00000000E+00  0.00000000E+00
  0.00000000E+00  0.00000000E+00  0.00000000E+00
  0.00000000E+00  0.00000000E+00  0.00000000E+00
  0.00000000E+00  0.00000000E+00  0.00000000E+00
  0.00000000E+00  0.00000000E+00  0.00000000E+00
  0.00000000E+00  0.00000000E+00  0.00000000E+00
  0.00000000E+00  0.00000000E+00  0.00000000E+00
  0.00000000E+00  0.00000000E+00  0.00000000E+00
  0.00000000E+00  0.00000000E+00  0.00000000E+00
  0.00000000E+00  0.00000000E+00  0.00000000E+00
  0.00000000E+00  0.00000000E+00  0.00000000E+00
  0.00000000E+00  0.00000000E+00  0.00000000E+00
  0.00000000E+00  0.00000000E+00  0.00000000E+00
  0.00000000E+00  0.00000000E+00  0.00000000E+00
  0.00000000E+00  0.00000000E+00  0.00000000E+00
  0.00000000E+00  0.00000000E+00  0.00000000E+00
  0.00000000E+00  0.00000000E+00  0.00000000E+00
  0.00000000E+00  0.00000000E+00  0.00000000E+00
  0.00000000E+00  0.00000000E+00  0.00000000E+00
  0.00000000E+00  0.00000000E+00  0.00000000E+00
  0.00000000E+00  0.00000000E+00  0.00000000E+00
  0.00000000E+00  0.00000000E+00  0.00000000E+00
  0.00000000E+00  0.00000000E+00  0.00000000E+00
  0.00000000E+00  0.00000000E+00  0.00000000E+00
  0.00000000E+00  0.00000000E+00  0.00000000E+00
  0.00000000E+00  0.00000000E+00  0.00000000E+00
  0.00000000E+00  0.00000000E+00  0.00000000E+00
  0.00000000E+00  0.00000000E+00  0.00000000E+00
  0.00000000E+00  0.00000000E+00  0.00000000E+00
  0.00000000E+00  0.00000000E+00  0.00000000E+00
  0.00000000E+00  0.00000000E+00  0.00000000E+00
  0.00000000E+00  0.00000000E+00  0.00000000E+00
  0.00000000E+00  0.00000000E+00  0.00000000E+00
  0.00000000E+00  0.00000000E+00  0.00000000E+00
  0.00000000E+00  0.00000000E+00  0.00000000E+00
  0.00000000E+00  0.00000000E+00  0.00000000E+00
  0.00000000E+00  0.00000000E+00  0.00000000E+00
  0.00000000E+00  0.00000000E+00  0.00000000E+00
  0.00000000E+00  0.00000000E+00  0.00000000E+00
