Generated by VASPKIT code               
   1.00000000000000     
    14.5743604271153107    1.5337245980692349    0.0000000000000000
    -5.9254888745279333   10.1658278027005142    0.0000000000000000
     0.0000000000000017    0.0000000000000024   21.9455990149750946
   C 
   132
Direct
  0.2012555261189918  0.9358807062221770  0.4667701750888302
  0.2012199245323626  0.9359226073273166  0.5334858495640451
  0.2374524284990687  0.0608572199908605  0.5540119701167991
  0.2375231696213835  0.0607623036805911  0.4461863902287907
  0.2542574278839478  0.1352525505814503  0.5000778041303556
  0.1982082986799170  0.0899439857974390  0.3931846345867074
  0.1225124648199946  0.9924966314964551  0.3583096781142781
  0.1284329147833028  0.8426960791336755  0.4343616324807931
  0.0892427999472107  0.8690466704074105  0.3787059348611529
  0.0502905604488036  0.7430236198318688  0.4669836372654745
  0.1283402834747422  0.8427880292380220  0.5658887408379628
  0.0502462171768857  0.7430682614497818  0.5332533597840781
  0.0890496822154400  0.8692397472362844  0.6214767852431330
  0.1980446582521913  0.0901169560132749  0.6069466929559968
  0.1222874692834715  0.9927288284842520  0.6418170978574315
  0.1746584817590195  0.1969311696837072  0.6066009592550587
  0.2276041679785691  0.2346721622659381  0.5000229346055257
  0.1892945566340429  0.2661155315395579  0.5538157845757291
  0.1748310566395652  0.1967578239199163  0.3934229843824423
  0.1893847172957886  0.2660390760068992  0.4461717995815401
  0.0513514016833359  0.0399495710821790  0.3364557470872088
  0.0840211243610553  0.1676156131018453  0.3574225409621332
  0.9489183402107950  0.9597851574834695  0.3364341222252913
  0.9844757419072280  0.7861803694859296  0.3780271111597513
  0.9642356133621924  0.7063994904557859  0.4319588249163666
  0.9162174689433868  0.8321556626241554  0.3574656847275147
  0.8675457902406580  0.6571246715331445  0.4630488056756672
  0.9641227645778471  0.7065133438642338  0.5682129739184879
  0.9842755898885187  0.7863865061619781  0.6221051500570952
  0.8674893321018367  0.6571829357543507  0.5370632103452303
  0.9159811508857046  0.8323874266368197  0.6425666370576050
  0.0510836145415843  0.0402157605728352  0.6635554401211200
  0.0837840258380322  0.1678448201507517  0.6425239939453751
  0.9486507485231260  0.9600519178121805  0.6635335002226287
  0.0155245475465380  0.2138185718821261  0.6219622433548418
  0.1324542352428770  0.3428716860917741  0.5369424506808124
  0.1325130777069866  0.3428190394133956  0.4629283461235028
  0.0357640766857123  0.2935975503071220  0.5680303763093756
  0.0157278835185936  0.2136177263247772  0.3778842023370035
  0.0358794418698135  0.2934910150771686  0.4317766700852248
  0.8777150008543534  0.0072724738578554  0.3581721511204734
  0.9109531377966138  0.1307625718211995  0.3785121412382889
  0.8253434225270949  0.8030674334275579  0.3933889128451741
  0.8107059424569381  0.7338824903005352  0.4461732004301293
  0.8019584066577429  0.9098854024610076  0.3930426139737724
  0.8106168434401223  0.7339641259466179  0.5538180533045821
  0.8251715142011568  0.8032444433826329  0.6065657517861469
  0.7723980705885072  0.7653263423937425  0.4999661100086804
  0.8774888419149568  0.0075045496958085  0.6416793836699093
  0.9107570244209620  0.1309531858959560  0.6212829468162023
  0.8017931746547070  0.9100589280632813  0.6068041663589974
  0.9497103189969440  0.2569763824618653  0.5330052016362739
  0.9497555380169251  0.2569347171351722  0.4667351537521704
  0.8716624868034549  0.1572152655708769  0.4340991686772951
  0.8715689742114692  0.1573057837322312  0.5656273962575215
  0.7625501567639186  0.9391435202755242  0.4459765701958709
  0.7457437340304587  0.8647518120712107  0.4999108909951729
  0.7624785123173594  0.9392381764389425  0.5538022935730454
  0.7987812665074577  0.0640788227048821  0.4665025570679547
  0.7987457330705814  0.0641192305932417  0.5332172618387310
  0.2786867337125069  0.6327595118873014  0.6220232338077363
  0.7211471144492005  0.3672049916500332  0.6221424985913259
  0.3362944230620347  0.5619168877344842  0.6200817592667132
  0.6635456031757400  0.4380440481734800  0.6201641808358377
  0.3036433020946140  0.4857327072099571  0.5655494292685687
  0.6962752455648834  0.5142498056759379  0.5656390336059925
  0.2085872258486979  0.5930637256972094  0.5683305805062682
  0.7913395676219195  0.4069469322471641  0.5684847542599583
  0.2097553703383197  0.4811142527099010  0.5373258075942144
  0.7901997543769248  0.5188969906833458  0.5374645632420781
  0.2240979482486269  0.6963088574810089  0.5330467875322344
  0.7758577633131191  0.3036975098213618  0.5332066444498765
  0.3331151282314383  0.7639952965653728  0.6194929084156142
  0.6667219829105909  0.2359713830155908  0.6195973586253717
  0.2995595188760897  0.8019091433487190  0.5637243459865841
  0.7003484396906050  0.1980932729649191  0.5638536869758519
  0.4390633379915397  0.8262164250770423  0.6226206351459870
  0.5607607153644494  0.1737248475459253  0.6226755034094703
  0.4424919804459473  0.6126204240653654  0.6228020565761374
  0.5573455878924376  0.3873301619157869  0.6228318684412703
  0.4892189277172322  0.7448587882506019  0.6190497030233646
  0.5106210762762284  0.2550857158512639  0.6190663843479627
  0.3842370115657991  0.4956130025844607  0.5320706660466006
  0.6157242751607516  0.5043829693064579  0.5321205842164266
  0.4789302451730630  0.5531368018328436  0.5690406264476014
  0.5209819193668040  0.4468348167168207  0.5690479033619064
  0.3842777404645695  0.4956210296393977  0.4678874867581749
  0.6157602590945928  0.5043841121617039  0.4679376579088030
  0.2098020829331909  0.4811045543457038  0.4625351310666898
  0.7902419122158127  0.5188814218850832  0.4626743595780101
  0.3037288948094326  0.4857546382571027  0.4343650613115769
  0.6963529921027439  0.5142617603640044  0.4344547017717182
  0.2241422592581915  0.6963015995185057  0.4667972562595062
  0.7758981629902351  0.3036850121988661  0.4669582612058118
  0.2086655298053922  0.5930590871797082  0.4315177826654553
  0.7914050972124939  0.4069287842947589  0.4316715974809486
  0.2996543620210380  0.8019089182671555  0.4361549875386780
  0.7004339212518242  0.1980845688371388  0.4362833292515887
  0.3800501452570927  0.8851034462907538  0.5322119206258633
  0.6199105915195767  0.1148964636156114  0.5323016643980928
  0.4750507711029337  0.9249568065394939  0.5692763459923397
  0.5248557807885250  0.0750152862421297  0.5693064774450639
  0.3800879383496272  0.8851010780211988  0.4677095955829189
  0.6199446936599633  0.1148929690820825  0.4678000270189071
  0.5486819833094279  0.7758792741970476  0.5630702157567685
  0.4512468665919965  0.2241012624582099  0.5630515933017035
  0.5422734419868387  0.6686883979390564  0.5320591046406178
  0.4576900815270898  0.3313037267878874  0.5320384134712814
  0.5374938654667364  0.8734515737021423  0.5319462167165168
  0.4624684849188497  0.1265406528914920  0.5319402636750116
  0.4790223028430298  0.5531689666431071  0.4309629484348396
  0.5210662381389621  0.4468596274310868  0.4309705096291941
  0.5423106729952332  0.6686983356801145  0.4679752419340811
  0.4577245281245487  0.3313115310455047  0.4679550072816996
  0.3364641820604088  0.5619650687799436  0.3798416373702092
  0.6636948776474465  0.4380722035850518  0.3799243425013501
  0.2788606263170021  0.6328024755068279  0.3778617217901242
  0.7213020449288561  0.3672288021052217  0.3779815271666704
  0.3332857131692568  0.7640359687391881  0.3804112933566539
  0.6668724961604353  0.2359935333029740  0.3805155078245251
  0.4426639082841636  0.6126787767999612  0.3771782518086628
  0.5574971654984636  0.3873697557017908  0.3772081511692937
  0.4751441286582585  0.9249847824748521  0.4307079077771939
  0.5249430692240223  0.0750409557447090  0.4307380392662071
  0.5375302927403885  0.8734596339451589  0.4680750715981545
  0.4625024620151637  0.1265478068526142  0.4680688102431421
  0.5487557897625329  0.7759032046447937  0.4369629941795397
  0.4513127478788672  0.2241178153546086  0.4369450326003717
  0.4392462018291107  0.8262815980590764  0.3773369756980048
  0.5609242533849301  0.1737749956475369  0.3773918429445878
  0.4893879670837580  0.7449218019124196  0.3809462062126421
  0.5107693982351850  0.2551322109617934  0.3809632214350963
 
  0.00000000E+00  0.00000000E+00  0.00000000E+00
  0.00000000E+00  0.00000000E+00  0.00000000E+00
  0.00000000E+00  0.00000000E+00  0.00000000E+00
  0.00000000E+00  0.00000000E+00  0.00000000E+00
  0.00000000E+00  0.00000000E+00  0.00000000E+00
  0.00000000E+00  0.00000000E+00  0.00000000E+00
  0.00000000E+00  0.00000000E+00  0.00000000E+00
  0.00000000E+00  0.00000000E+00  0.00000000E+00
  0.00000000E+00  0.00000000E+00  0.00000000E+00
  0.00000000E+00  0.00000000E+00  0.00000000E+00
  0.00000000E+00  0.00000000E+00  0.00000000E+00
  0.00000000E+00  0.00000000E+00  0.00000000E+00
  0.00000000E+00  0.00000000E+00  0.00000000E+00
  0.00000000E+00  0.00000000E+00  0.00000000E+00
  0.00000000E+00  0.00000000E+00  0.00000000E+00
  0.00000000E+00  0.00000000E+00  0.00000000E+00
  0.00000000E+00  0.00000000E+00  0.00000000E+00
  0.00000000E+00  0.00000000E+00  0.00000000E+00
  0.00000000E+00  0.00000000E+00  0.00000000E+00
  0.00000000E+00  0.00000000E+00  0.00000000E+00
  0.00000000E+00  0.00000000E+00  0.00000000E+00
  0.00000000E+00  0.00000000E+00  0.00000000E+00
  0.00000000E+00  0.00000000E+00  0.00000000E+00
  0.00000000E+00  0.00000000E+00  0.00000000E+00
  0.00000000E+00  0.00000000E+00  0.00000000E+00
  0.00000000E+00  0.00000000E+00  0.00000000E+00
  0.00000000E+00  0.00000000E+00  0.00000000E+00
  0.00000000E+00  0.00000000E+00  0.00000000E+00
  0.00000000E+00  0.00000000E+00  0.00000000E+00
  0.00000000E+00  0.00000000E+00  0.00000000E+00
  0.00000000E+00  0.00000000E+00  0.00000000E+00
  0.00000000E+00  0.00000000E+00  0.00000000E+00
  0.00000000E+00  0.00000000E+00  0.00000000E+00
  0.00000000E+00  0.00000000E+00  0.00000000E+00
  0.00000000E+00  0.00000000E+00  0.00000000E+00
  0.00000000E+00  0.00000000E+00  0.00000000E+00
  0.00000000E+00  0.00000000E+00  0.00000000E+00
  0.00000000E+00  0.00000000E+00  0.00000000E+00
  0.00000000E+00  0.00000000E+00  0.00000000E+00
  0.00000000E+00  0.00000000E+00  0.00000000E+00
  0.00000000E+00  0.00000000E+00  0.00000000E+00
  0.00000000E+00  0.00000000E+00  0.00000000E+00
  0.00000000E+00  0.00000000E+00  0.00000000E+00
  0.00000000E+00  0.00000000E+00  0.00000000E+00
  0.00000000E+00  0.00000000E+00  0.00000000E+00
  0.00000000E+00  0.00000000E+00  0.00000000E+00
  0.00000000E+00  0.00000000E+00  0.00000000E+00
  0.00000000E+00  0.00000000E+00  0.00000000E+00
  0.00000000E+00  0.00000000E+00  0.00000000E+00
  0.00000000E+00  0.00000000E+00  0.00000000E+00
  0.00000000E+00  0.00000000E+00  0.00000000E+00
  0.00000000E+00  0.00000000E+00  0.00000000E+00
  0.00000000E+00  0.00000000E+00  0.00000000E+00
  0.00000000E+00  0.00000000E+00  0.00000000E+00
  0.00000000E+00  0.00000000E+00  0.00000000E+00
  0.00000000E+00  0.00000000E+00  0.00000000E+00
  0.00000000E+00  0.00000000E+00  0.00000000E+00
  0.00000000E+00  0.00000000E+00  0.00000000E+00
  0.00000000E+00  0.00000000E+00  0.00000000E+00
  0.00000000E+00  0.00000000E+00  0.00000000E+00
  0.00000000E+00  0.00000000E+00  0.00000000E+00
  0.00000000E+00  0.00000000E+00  0.00000000E+00
  0.00000000E+00  0.00000000E+00  0.00000000E+00
  0.00000000E+00  0.00000000E+00  0.00000000E+00
  0.00000000E+00  0.00000000E+00  0.00000000E+00
  0.00000000E+00  0.00000000E+00  0.00000000E+00
  0.00000000E+00  0.00000000E+00  0.00000000E+00
  0.00000000E+00  0.00000000E+00  0.00000000E+00
  0.00000000E+00  0.00000000E+00  0.00000000E+00
  0.00000000E+00  0.00000000E+00  0.00000000E+00
  0.00000000E+00  0.00000000E+00  0.00000000E+00
  0.00000000E+00  0.00000000E+00  0.00000000E+00
  0.00000000E+00  0.00000000E+00  0.00000000E+00
  0.00000000E+00  0.00000000E+00  0.00000000E+00
  0.00000000E+00  0.00000000E+00  0.00000000E+00
  0.00000000E+00  0.00000000E+00  0.00000000E+00
  0.00000000E+00  0.00000000E+00  0.00000000E+00
  0.00000000E+00  0.00000000E+00  0.00000000E+00
  0.00000000E+00  0.00000000E+00  0.00000000E+00
  0.00000000E+00  0.00000000E+00  0.00000000E+00
  0.00000000E+00  0.00000000E+00  0.00000000E+00
  0.00000000E+00  0.00000000E+00  0.00000000E+00
  0.00000000E+00  0.00000000E+00  0.00000000E+00
  0.00000000E+00  0.00000000E+00  0.00000000E+00
  0.00000000E+00  0.00000000E+00  0.00000000E+00
  0.00000000E+00  0.00000000E+00  0.00000000E+00
  0.00000000E+00  0.00000000E+00  0.00000000E+00
  0.00000000E+00  0.00000000E+00  0.00000000E+00
  0.00000000E+00  0.00000000E+00  0.00000000E+00
  0.00000000E+00  0.00000000E+00  0.00000000E+00
  0.00000000E+00  0.00000000E+00  0.00000000E+00
  0.00000000E+00  0.00000000E+00  0.00000000E+00
  0.00000000E+00  0.00000000E+00  0.00000000E+00
  0.00000000E+00  0.00000000E+00  0.00000000E+00
  0.00000000E+00  0.00000000E+00  0.00000000E+00
  0.00000000E+00  0.00000000E+00  0.00000000E+00
  0.00000000E+00  0.00000000E+00  0.00000000E+00
  0.00000000E+00  0.00000000E+00  0.00000000E+00
  0.00000000E+00  0.00000000E+00  0.00000000E+00
  0.00000000E+00  0.00000000E+00  0.00000000E+00
  0.00000000E+00  0.00000000E+00  0.00000000E+00
  0.00000000E+00  0.00000000E+00  0.00000000E+00
  0.00000000E+00  0.00000000E+00  0.00000000E+00
  0.00000000E+00  0.00000000E+00  0.00000000E+00
  0.00000000E+00  0.00000000E+00  0.00000000E+00
  0.00000000E+00  0.00000000E+00  0.00000000E+00
  0.00000000E+00  0.00000000E+00  0.00000000E+00
  0.00000000E+00  0.00000000E+00  0.00000000E+00
  0.00000000E+00  0.00000000E+00  0.00000000E+00
  0.00000000E+00  0.00000000E+00  0.00000000E+00
  0.00000000E+00  0.00000000E+00  0.00000000E+00
  0.00000000E+00  0.00000000E+00  0.00000000E+00
  0.00000000E+00  0.00000000E+00  0.00000000E+00
  0.00000000E+00  0.00000000E+00  0.00000000E+00
  0.00000000E+00  0.00000000E+00  0.00000000E+00
  0.00000000E+00  0.00000000E+00  0.00000000E+00
  0.00000000E+00  0.00000000E+00  0.00000000E+00
  0.00000000E+00  0.00000000E+00  0.00000000E+00
  0.00000000E+00  0.00000000E+00  0.00000000E+00
  0.00000000E+00  0.00000000E+00  0.00000000E+00
  0.00000000E+00  0.00000000E+00  0.00000000E+00
  0.00000000E+00  0.00000000E+00  0.00000000E+00
  0.00000000E+00  0.00000000E+00  0.00000000E+00
  0.00000000E+00  0.00000000E+00  0.00000000E+00
  0.00000000E+00  0.00000000E+00  0.00000000E+00
  0.00000000E+00  0.00000000E+00  0.00000000E+00
  0.00000000E+00  0.00000000E+00  0.00000000E+00
  0.00000000E+00  0.00000000E+00  0.00000000E+00
  0.00000000E+00  0.00000000E+00  0.00000000E+00
  0.00000000E+00  0.00000000E+00  0.00000000E+00
  0.00000000E+00  0.00000000E+00  0.00000000E+00
  0.00000000E+00  0.00000000E+00  0.00000000E+00
