Generated by VASPKIT code               
   1.00000000000000     
    26.2294044437974740    0.0384826368493639    0.0000000000000000
   -13.0818187588966985   22.7593125175269755    0.0000000000000000
     0.0000000000000012    0.0000000000000022   21.9749991037900330
  C             
   336
Direct
  0.3911965899203481  0.6901677640097517  0.6497232683063351
  0.6092568950875447  0.3102740722610940  0.6497742933427700
  0.3622089924564695  0.7250430254152167  0.6504274845154181
  0.6380924960897568  0.2752533835386226  0.6504899450957341
  0.2992439217015350  0.6851125880827814  0.6521181651867428
  0.7010854533120466  0.3150640240572462  0.6521224831137061
  0.3461395712965237  0.6286550218873833  0.6509958807840522
  0.6544342851193152  0.3717410669126122  0.6509676872077744
  0.2892899728756672  0.6255260770507791  0.6524457521291104
  0.7112085537219143  0.3747067746209661  0.6523989269790628
  0.3535291306539609  0.5875000310464178  0.6174287799458782
  0.6471622184845800  0.4129513018571998  0.6173612700075146
  0.4062242142514367  0.6062533582300339  0.5811974864854932
  0.5944616423991974  0.3942896220640146  0.5811780350133481
  0.4419425107119073  0.7082203780296956  0.6148611439862040
  0.5585127557818673  0.2923081683720682  0.6149281740640871
  0.4495082396060386  0.6655079024710463  0.5798960235673322
  0.5510665451738302  0.3350734803502025  0.5799258006702199
  0.4655879230497042  0.7618254461633223  0.5793060506854304
  0.5347202924765149  0.2386600845543576  0.5794351620803544
  0.3850541878665102  0.7767158819978580  0.6162180000628914
  0.6151061035506373  0.2235398543174311  0.6163255116020782
  0.4377299837415424  0.7954551075007390  0.5800018388146969
  0.5624240814294940  0.2048906644684959  0.5801453953052366
  0.3458072519524612  0.7903911037567461  0.5824041144211045
  0.6542354637496246  0.2096963390169304  0.5825146166713150
  0.2614023423362821  0.6983234632012661  0.6196411703103664
  0.7388103928267007  0.3016821193143922  0.6196537015148903
  0.2851332945025772  0.7519738020092985  0.5841030767239952
  0.7149376183350453  0.2479947316282027  0.5841703169941023
  0.2123036039075287  0.6524520453092714  0.5861481454187306
  0.7879552134550590  0.3474515132172214  0.5861171877869890
  0.2418509185204818  0.5813309371724483  0.6203250989130872
  0.7586827431387416  0.4188045759240829  0.6202406869722223
  0.2026073759206596  0.5950401622834072  0.5865336909318217
  0.7977998665112134  0.4049220530344915  0.5864442002211335
  0.3043178993152228  0.5417666738825373  0.5839395358993220
  0.6963998128697133  0.4585837854548881  0.5838284575524229
  0.2495552432739355  0.5386884410828433  0.5853816653143403
  0.7510898299056522  0.4615045489626663  0.5852612469919208
  0.3895383728626223  0.5721330811778400  0.5253289383228604
  0.6111716570578922  0.4283660452626655  0.5252867851125519
  0.3265821177632581  0.5324568935102334  0.5270530844363560
  0.6741498727472794  0.4679258064853882  0.5269473618717879
  0.4168542382549960  0.5983065082591983  0.4703271164507982
  0.5837834946863275  0.4021818320860941  0.4703131127262813
  0.4776669379220172  0.6926960073850402  0.5227529464979290
  0.5228470635160717  0.3078824410331585  0.5228139713857067
  0.4876761061360712  0.7522056752030889  0.5223977912444976
  0.5126666502154987  0.2483130795193441  0.5225194449890134
  0.4617205206624038  0.6598123585167313  0.4690264126490908
  0.5388175593210327  0.3407177460054684  0.4690736635694530
  0.4812193652298195  0.7764963632890817  0.4682913279474212
  0.5189995178933490  0.2239200569590361  0.4684302328288009
  0.4309732309183281  0.8206288459563909  0.5237704833608601
  0.5690688821774437  0.1796117265234594  0.5239330315799964
  0.3741555668803623  0.8173773758835855  0.5252951413075115
  0.6258205013997428  0.1827079718921795  0.5254320941573494
  0.4523572763795284  0.8114228295091025  0.4690010308251606
  0.5477185687952775  0.1888591091045077  0.4691553934620999
  0.3409578330540474  0.8050880967635113  0.4719675992424180
  0.6589757516762148  0.1948830359994715  0.4720896823150415
  0.2506996973413249  0.7391999383126339  0.5286739905531387
  0.7493223563679815  0.2606393987200120  0.5287221176824096
  0.2058389230410631  0.6777056873710969  0.5299530834677539
  0.7942902060604550  0.3220979582165228  0.5299334798005569
  0.2780167876153448  0.7653724223406555  0.4736928104950848
  0.7219406859685483  0.2344704431544435  0.4737638998180475
  0.1897763097634327  0.6447967483619402  0.4762414821840753
  0.8103977295972544  0.3549587356672820  0.4761986765868938
  0.1861134282110432  0.5609037385169958  0.5307188707172849
  0.8143328082907050  0.4390094663160652  0.5306011374524773
  0.2151542389695321  0.5261307585478077  0.5300196746865307
  0.7854312940802062  0.4739149930981022  0.5298760402530994
  0.1796547436900757  0.5852170198430251  0.4766091976826036
  0.8206791060962462  0.4145976276235603  0.4765144712983560
  0.2933916407787235  0.5202501478178376  0.4737630111576074
  0.7072977024701418  0.4800181505271904  0.4736369075697986
  0.2365624760117332  0.5169510972934843  0.4752768593994888
  0.7640538985365386  0.4831419166844042  0.4751444646961513
  0.3823932451658328  0.5855791813203145  0.4149242685905088
  0.6181918420437137  0.4147702841087226  0.4148875090755492
  0.3217333708556427  0.5472347914343851  0.4166541675887034
  0.6788718540214211  0.4529942402902001  0.4165671845772853
  0.4552162891847679  0.6850918667916145  0.4128580275345095
  0.5451803421835779  0.3153317265117907  0.4129184418973706
  0.4648344806756632  0.7424711803795382  0.4124435929303034
  0.5354126295800185  0.2578922945721983  0.4125561086311441
  0.4060995261835615  0.6392391302983765  0.3793986864456218
  0.5943403033490102  0.3610763341309682  0.3794110835633639
  0.4179784273964063  0.7988948402510787  0.4135905222693536
  0.5820410285007960  0.2012532970373116  0.4137231087528579
  0.3632115181686688  0.7958100901381937  0.4150759214739813
  0.6367415894141769  0.2041898634065561  0.4152004585039044
  0.4256509895937746  0.7562317214037040  0.3786387070235960
  0.5744802775081153  0.2439701952772665  0.3787441677159217
  0.2613370768539715  0.7312730245923166  0.4178273120736574
  0.7386567635805009  0.2685154959863569  0.4178732181400865
  0.2180249809467093  0.6720036222033829  0.4191449436603593
  0.7820753187919222  0.3277462082138601  0.4191273163719482
  0.3140169898317247  0.7500598184857545  0.3815983938182700
  0.6859706684810553  0.2498235175238591  0.3816735185282144
  0.2018295087645527  0.5756242109376795  0.4197292146980623
  0.7985243116790862  0.4242241955376074  0.4196342808147629
  0.2297829146362924  0.5420908455875769  0.4190831759305485
  0.7707113492341551  0.4578883279907053  0.4189656998289342
  0.2824597509234098  0.5608508950423734  0.3828225035123907
  0.7180261272268322  0.4392195068799082  0.3827404925386341
  0.2255654128116443  0.6292826773570047  0.3841873777140155
  0.7746458211504365  0.3705187265566718  0.3841390224788450
  0.3682849124154733  0.6524525617425955  0.3468847363721145
  0.6320433346512800  0.3477049296871358  0.3468950934076566
  0.3782441521495013  0.7120424956587093  0.3465166759723123
  0.6219273067437110  0.2880561037344127  0.3465809245998107
  0.3213944755109511  0.7089117705547183  0.3480116627354096
  0.6787022340913152  0.2910274478097415  0.3480699139364373
  0.3053111644552294  0.6125086497055188  0.3486041182908743
  0.6950373262803667  0.3875214166741842  0.3485700985507665
  0.2763134932593383  0.6473860432368359  0.3493012874353228
  0.7238917331974846  0.3525085824908368  0.3492865092632124
  0.0593014553580089  0.3614946659182995  0.3838460852195089
  0.6356089844203271  0.6895496347925696  0.3809828460292694
  0.2994385055253854  0.9427985213347037  0.3792577476468368
  0.9407397377722946  0.6384556866163501  0.3838289087435445
  0.3632882265117501  0.3095382579901594  0.3807683117439308
  0.7005511877020891  0.0572028284393684  0.3792607186685926
  0.0125970909110713  0.3738741600541336  0.3831861231033878
  0.6259084884594135  0.6314932998559263  0.3824113522863196
  0.3582426178750325  0.9893937952184599  0.3786492503877963
  0.9874468824613789  0.6260818799829676  0.3831831806955390
  0.3733920047605800  0.3677404635485729  0.3821455093355725
  0.6417529071246937  0.0106040440425893  0.3786574694127857
  0.0188872219115609  0.4097299125189472  0.4381901563242367
  0.5890466564864035  0.6020324719631805  0.4367906383176969
  0.3885747101441829  0.9815234954001677  0.4321712165090646
  0.9811624483126645  0.5902401917969139  0.4381942919908458
  0.4104615049498437  0.3971353119560971  0.4364171701798042
  0.6114127257913190  0.0184680201589905  0.4321766455812315
  0.0949470696942495  0.3894364852659696  0.4392825996952879
  0.6049264586770711  0.6966963644363571  0.4344286752335193
  0.2926466966137589  0.9056173909234896  0.4332207646435090
  0.9050957624384256  0.6105294024910440  0.4392728881826269
  0.3939055993190168  0.3022444937067139  0.4341838909755728
  0.7073360288456589  0.0943797038811961  0.4332209771637295
  0.0700982251174702  0.4195339567071416  0.4711739791859176
  0.5760052394723919  0.6424148139594379  0.4673654327843041
  0.3478665656388934  0.9295226090479815  0.4641920168297523
  0.9299543863545375  0.5804533087318176  0.4711752034964771
  0.4232761168647609  0.3565752169038269  0.4669180365179301
  0.6521139504386574  0.0704716290983856  0.4641924216056045
  0.1052683143639270  0.3474983766297102  0.4705559816131318
  0.6442918733688551  0.7499400493499484  0.4655573303950578
  0.2408868536701140  0.8944234290888672  0.4659912286904562
  0.8947674313273185  0.6524692148928352  0.4705240094946664
  0.3543720198165002  0.2491038116603212  0.4653725427414416
  0.7590920104069938  0.1055811765675255  0.4659922704924881
  0.0472528014390928  0.3026488237998791  0.3826474513955589
  0.6935872267261575  0.7377655150629181  0.3807366412673141
  0.2526059610663215  0.9549253560515822  0.3804857608123287
  0.9527816384741564  0.6972978373267571  0.3826065002486047
  0.3051668771814350  0.2616033697425870  0.3807131334329186
  0.7473909355601408  0.0450875365076763  0.3804936636875329
  0.0753827861229483  0.2935348023716768  0.4372488675085419
  0.6993912599099609  0.7753631250078580  0.4339938037415744
  0.2162869869407745  0.9253514174316074  0.4351623708004210
  0.9246437901242659  0.7064233968713655  0.4372032543409205
  0.2991976928444127  0.2239932522098515  0.4340212969848365
  0.7837040792030323  0.0746649821082935  0.4351673223302636
  0.9884705084368983  0.2561251161186349  0.3807992895135007
  0.7419329773575752  0.7279555580847513  0.3819973779607004
  0.2645448643926269  0.0137227388954159  0.3812285215250641
  0.0115673525409412  0.7438265295656252  0.3807528613276607
  0.2570964852759375  0.2718278390688185  0.3820756970175596
  0.7354660164236830  0.9862931062552629  0.3812414147358194
  0.9538182661252885  0.3273172128447460  0.3813646475629383
  0.6742902208464552  0.6217157676471935  0.3837071004888276
  0.3701768663743419  0.0481711428815912  0.3793761530455398
  0.0462289152632482  0.6726377264324769  0.3813459421502822
  0.3252810185494089  0.3779282403310161  0.3835207161978264
  0.6298335462976593  0.9518337982173293  0.3793885416695835
  0.9417778440535649  0.2684729455713047  0.3802166037344210
  0.7322658211695956  0.6699646491837303  0.3835619431030127
  0.3233083104679880  0.0603307398934185  0.3806692287805342
  0.0582611685948775  0.7314810081263350  0.3801837716114332
  0.2671401500323481  0.3299565728959565  0.3834992129111705
  0.6767059329319107  0.9396776204542256  0.3806807700365797
  0.9633721504257007  0.3851165087475698  0.4687301088076850
  0.6149431886077202  0.5736918008931221  0.4701591972506667
  0.4195639611996866  0.0360543133675221  0.4643021276735977
  0.0366807228725285  0.6148728055671804  0.4687367064815868
  0.3849826380660829  0.4258811835711684  0.4697400188693699
  0.5804404464662445  0.9639470997069903  0.4643096629295023
  0.9231264336106392  0.3337810352559923  0.4353238451591863
  0.6679468105627466  0.5862702970033916  0.4389972900468230
  0.4078417430938113  0.0772123388098096  0.4333752852483871
  0.0769274486650689  0.6661941824281638  0.4353130129568219
  0.3319894675391168  0.4135753229632202  0.4387622975928783
  0.5921808436853099  0.9228001789913580  0.4333933083526726
  0.9618233916336435  0.3835760778623710  0.5342871469386654
  0.6145809668986736  0.5749127921328844  0.5357754152346477
  0.4204530230338422  0.0357752859487027  0.5298677604638812
  0.0382337646970563  0.6164256096247587  0.5342943606385425
  0.3854646475310248  0.4247790685140198  0.5353037776256065
  0.5795406696519001  0.9642265339964716  0.5298777407448639
  0.0685295628680456  0.4179626447231035  0.5366660088217872
  0.5756927442091061  0.6436234053600303  0.5328799406967567
  0.3487546422840016  0.9291927781937509  0.5297193474226722
  0.9315217399084269  0.5820352728006960  0.5366677524095498
  0.4237316409799792  0.3554995418292716  0.5324193166332895
  0.6512216656313116  0.0708087820164551  0.5297202243234009
  0.0158309397703158  0.4066651816489598  0.5675261056968994
  0.5883504815330182  0.6043992455773228  0.5663526796774261
  0.3903229257784335  0.9809623001098500  0.5615689762357143
  0.9842201422422476  0.5933441865171399  0.5675352572298304
  0.4114314663744801  0.3950137858672659  0.5657944384666304
  0.6096658360280306  0.0190423658471624  0.5615732008165991
  0.1037166026698142  0.3459128719982978  0.5360381957614400
  0.6439288298730165  0.7511303239998954  0.5310906217909962
  0.2418173333332163  0.8941156666105917  0.5315036856321340
  0.8963191303830241  0.6540701962549849  0.5360119949121969
  0.3548760380673102  0.2480296415212845  0.5308869649219520
  0.7581700316960858  0.1059017406380002  0.5315076328158881
  0.0918600698072977  0.3862805846434841  0.5683638552815277
  0.6041577188038765  0.6990226518858884  0.5636977155542273
  0.2943973888748553  0.9049583255974165  0.5623834716371606
  0.9081887655448494  0.6137198050311420  0.5683517695746483
  0.3949274416464785  0.3001609376042343  0.5633014433471445
  0.7055845482736811  0.0950480293698014  0.5623831211384767
  0.0722752215720245  0.2903696196710334  0.5664254344794202
  0.6986546246298063  0.7777144529414406  0.5633642568202305
  0.2180274700760106  0.9247117195118949  0.5643439081244633
  0.9277610570697196  0.7096240924343892  0.5663872158636778
  0.3002048741830268  0.2219025575639069  0.5632136370663211
  0.7819677245283208  0.0753177725432663  0.5643504542245387
  0.0335815934598011  0.2407040728778812  0.4674662150455332
  0.7519977110737467  0.7889412129617773  0.4665953424415067
  0.2054149948089911  0.9662222402180950  0.4679140024182784
  0.9664465801993566  0.7592575839417628  0.4674054498676432
  0.2467405924001673  0.2107966023029731  0.4666683657960268
  0.7945838524830408  0.0338014521241483  0.4679224246612471
  0.9795705576972004  0.2176153974851768  0.4342442363224271
  0.7782173619997070  0.7593514979615279  0.4361200632066500
  0.2356487995947125  0.0211521503304107  0.4362672776060264
  0.0204587626431948  0.7823372212738839  0.4341917555412264
  0.2207963306345974  0.2406643818857306  0.4362658500038881
  0.7643706833343251  0.9788728121001098  0.4362809292019865
  0.0320012697155711  0.2390868325031170  0.5330160194027505
  0.7516455474129167  0.7901468511441597  0.5321755683022662
  0.2063304580366755  0.9659039094183847  0.5334645647047278
  0.9680283662123094  0.7608965128262799  0.5329618184173190
  0.2472087890585222  0.2097115394581620  0.5322084534740995
  0.7936766241468565  0.0341261030953643  0.5334747308636567
  0.9035390097608336  0.2378930205873812  0.4333704245818140
  0.7624685298555707  0.6648325452168986  0.4386501409571446
  0.3315262605287777  0.0970754015560133  0.4353907297224388
  0.0965023480501151  0.7620794384180977  0.4333352110362771
  0.2372472066780553  0.3354447056045258  0.4386637559098696
  0.6684973508364438  0.9029469203798518  0.4354055712026756
  0.8918387775702818  0.2783626040846788  0.4657074033576407
  0.7226484470205733  0.6128665151324009  0.4712916565985085
  0.3840114220268717  0.1077053126524512  0.4662522661189184
  0.1082086370665085  0.7216199886454799  0.4656895214781244
  0.2773694390337371  0.3874231396449893  0.4711019996613852
  0.6160168658239291  0.8923212499546204  0.4662698617756046
  0.9267403730146607  0.2061341133875677  0.4650215687613776
  0.7912207167055351  0.7202872417394993  0.4694633896388035
  0.2770825582811173  0.0730241956944536  0.4680527841100868
  0.0732944290315679  0.7938320988003918  0.4649709704145061
  0.2082019807495128  0.2800541462702957  0.4695236435483194
  0.7229415174517411  0.9270066738246455  0.4680708327376230
  0.9200775537449244  0.3307261633927248  0.5645186835969432
  0.6672495150236259  0.5886281673488724  0.5683589575849859
  0.4096273486747094  0.0767179406648861  0.5625891265979519
  0.0799787356223760  0.6692824666854762  0.5645175409616313
  0.3329558083052374  0.4114552345454571  0.5679523118032694
  0.5903895255633232  0.9232994558485682  0.5626005303040507
  0.8903124520592185  0.2768217724022595  0.5311678820837157
  0.7222634877301007  0.6140873908904615  0.5367988156363875
  0.3849399250303184  0.1074707424208186  0.5317548394002475
  0.1097383011699192  0.7231800920621911  0.5311498614547447
  0.2778718926679008  0.3863085477417253  0.5365874857083840
  0.6150806922056677  0.8925481624883611  0.5317744448985681
  0.0069236379482723  0.3681706370982794  0.6210291476952075
  0.6245934292400058  0.6358544692219362  0.6204906298262423
  0.3614209178770665  0.9883311111237688  0.6166004050042050
  0.9931250151224627  0.6318459085789864  0.6210256763964118
  0.3751614122977252  0.3638096317611890  0.6200394415425499
  0.6385789709034246  0.0116831289506328  0.6166157015988211
  0.0535896572725924  0.3557541096571329  0.6215545813246642
  0.6342828409125437  0.6938740102282734  0.6188380861749755
  0.3026268442928369  0.9417064728058298  0.6171157479153244
  0.9464552656915937  0.6442590862828281  0.6215383501825642
  0.3650956656468445  0.3056688985673200  0.6185139795540283
  0.6973640108111613  0.0583131416357421  0.6171292165086950
  0.0415434145483392  0.2969195935349461  0.6203402526133071
  0.6922377900562763  0.7421186202151403  0.6186118492984189
  0.2557835692285237  0.9538283672065281  0.6182791435568115
  0.9584962771449532  0.7030889395335200  0.6203087101225507
  0.3070008326610513  0.2577156640042427  0.6184139534760963
  0.7442144520875893  0.0462003986405633  0.6182911916002926
  0.9481448246293762  0.3216446027233386  0.6192050933194456
  0.6729634601382659  0.6260956139967226  0.6217254172389830
  0.3733615417238194  0.0471250729668114  0.6172759651056074
  0.0519073309119977  0.6783729359944540  0.6191949200614285
  0.3270674446289352  0.3739695183340522  0.6213818950661640
  0.6266533189400334  0.9528945744305597  0.6172944734074204
  0.9764180893211458  0.2145090516028576  0.5635051289994920
  0.7775176079898979  0.7617543014034726  0.5654971377511606
  0.2373991075153060  0.0205165029250430  0.5655125981041079
  0.0236146205951485  0.7854746836533093  0.5634461675873675
  0.2217644941539655  0.2385147702785138  0.5654728856948146
  0.7626219887302028  0.9795161512246956  0.5655309039131338
  0.9251642423599812  0.2045794657722385  0.5305456384008721
  0.7908664517432078  0.7215007201045966  0.5350452936030319
  0.2779691627126361  0.0726906654950940  0.5335706055056521
  0.0748738987743149  0.7954103685461366  0.5304927469887643
  0.2086661777643018  0.2789497932476068  0.5350669251187863
  0.7220576300363040  0.9273392172585718  0.5335954692124009
  0.9004460100038179  0.2348197185866546  0.5624575674177218
  0.7617133780978672  0.6672222565813913  0.5679743769022236
  0.3332411672121850  0.0964648853367108  0.5645293440401035
  0.0995975808700507  0.7651835354399320  0.5624171470402028
  0.2382412186044529  0.3332948860606936  0.5678259493051998
  0.6667809988350805  0.9035605269370226  0.5645510893578187
  0.9827508081988728  0.2504349540898200  0.6185347754483673
  0.7405987570274859  0.7323242554981545  0.6199046750624658
  0.2677061792636579  0.0126023092210933  0.6189751772789626
  0.0172915046260820  0.7495690317782551  0.6184913524681995
  0.2589431831740918  0.2679226400258740  0.6197830222869465
  0.7323041702222440  0.9874298038146245  0.6190005234700581
  0.9360685785082187  0.2627848636220626  0.6179281780789937
  0.7309432540611311  0.6743187360188582  0.6214251705706511
  0.3264817323332804  0.0592125194438347  0.6184033441148634
  0.0639746179047089  0.7372269588192431  0.6178944035379595
  0.2689671073971707  0.3260290660415989  0.6212608544294216
  0.6735357473271784  0.9408136933071027  0.6184350686061060
 
  0.00000000E+00  0.00000000E+00  0.00000000E+00
  0.00000000E+00  0.00000000E+00  0.00000000E+00
  0.00000000E+00  0.00000000E+00  0.00000000E+00
  0.00000000E+00  0.00000000E+00  0.00000000E+00
  0.00000000E+00  0.00000000E+00  0.00000000E+00
  0.00000000E+00  0.00000000E+00  0.00000000E+00
  0.00000000E+00  0.00000000E+00  0.00000000E+00
  0.00000000E+00  0.00000000E+00  0.00000000E+00
  0.00000000E+00  0.00000000E+00  0.00000000E+00
  0.00000000E+00  0.00000000E+00  0.00000000E+00
  0.00000000E+00  0.00000000E+00  0.00000000E+00
  0.00000000E+00  0.00000000E+00  0.00000000E+00
  0.00000000E+00  0.00000000E+00  0.00000000E+00
  0.00000000E+00  0.00000000E+00  0.00000000E+00
  0.00000000E+00  0.00000000E+00  0.00000000E+00
  0.00000000E+00  0.00000000E+00  0.00000000E+00
  0.00000000E+00  0.00000000E+00  0.00000000E+00
  0.00000000E+00  0.00000000E+00  0.00000000E+00
  0.00000000E+00  0.00000000E+00  0.00000000E+00
  0.00000000E+00  0.00000000E+00  0.00000000E+00
  0.00000000E+00  0.00000000E+00  0.00000000E+00
  0.00000000E+00  0.00000000E+00  0.00000000E+00
  0.00000000E+00  0.00000000E+00  0.00000000E+00
  0.00000000E+00  0.00000000E+00  0.00000000E+00
  0.00000000E+00  0.00000000E+00  0.00000000E+00
  0.00000000E+00  0.00000000E+00  0.00000000E+00
  0.00000000E+00  0.00000000E+00  0.00000000E+00
  0.00000000E+00  0.00000000E+00  0.00000000E+00
  0.00000000E+00  0.00000000E+00  0.00000000E+00
  0.00000000E+00  0.00000000E+00  0.00000000E+00
  0.00000000E+00  0.00000000E+00  0.00000000E+00
  0.00000000E+00  0.00000000E+00  0.00000000E+00
  0.00000000E+00  0.00000000E+00  0.00000000E+00
  0.00000000E+00  0.00000000E+00  0.00000000E+00
  0.00000000E+00  0.00000000E+00  0.00000000E+00
  0.00000000E+00  0.00000000E+00  0.00000000E+00
  0.00000000E+00  0.00000000E+00  0.00000000E+00
  0.00000000E+00  0.00000000E+00  0.00000000E+00
  0.00000000E+00  0.00000000E+00  0.00000000E+00
  0.00000000E+00  0.00000000E+00  0.00000000E+00
  0.00000000E+00  0.00000000E+00  0.00000000E+00
  0.00000000E+00  0.00000000E+00  0.00000000E+00
  0.00000000E+00  0.00000000E+00  0.00000000E+00
  0.00000000E+00  0.00000000E+00  0.00000000E+00
  0.00000000E+00  0.00000000E+00  0.00000000E+00
  0.00000000E+00  0.00000000E+00  0.00000000E+00
  0.00000000E+00  0.00000000E+00  0.00000000E+00
  0.00000000E+00  0.00000000E+00  0.00000000E+00
  0.00000000E+00  0.00000000E+00  0.00000000E+00
  0.00000000E+00  0.00000000E+00  0.00000000E+00
  0.00000000E+00  0.00000000E+00  0.00000000E+00
  0.00000000E+00  0.00000000E+00  0.00000000E+00
  0.00000000E+00  0.00000000E+00  0.00000000E+00
  0.00000000E+00  0.00000000E+00  0.00000000E+00
  0.00000000E+00  0.00000000E+00  0.00000000E+00
  0.00000000E+00  0.00000000E+00  0.00000000E+00
  0.00000000E+00  0.00000000E+00  0.00000000E+00
  0.00000000E+00  0.00000000E+00  0.00000000E+00
  0.00000000E+00  0.00000000E+00  0.00000000E+00
  0.00000000E+00  0.00000000E+00  0.00000000E+00
  0.00000000E+00  0.00000000E+00  0.00000000E+00
  0.00000000E+00  0.00000000E+00  0.00000000E+00
  0.00000000E+00  0.00000000E+00  0.00000000E+00
  0.00000000E+00  0.00000000E+00  0.00000000E+00
  0.00000000E+00  0.00000000E+00  0.00000000E+00
  0.00000000E+00  0.00000000E+00  0.00000000E+00
  0.00000000E+00  0.00000000E+00  0.00000000E+00
  0.00000000E+00  0.00000000E+00  0.00000000E+00
  0.00000000E+00  0.00000000E+00  0.00000000E+00
  0.00000000E+00  0.00000000E+00  0.00000000E+00
  0.00000000E+00  0.00000000E+00  0.00000000E+00
  0.00000000E+00  0.00000000E+00  0.00000000E+00
  0.00000000E+00  0.00000000E+00  0.00000000E+00
  0.00000000E+00  0.00000000E+00  0.00000000E+00
  0.00000000E+00  0.00000000E+00  0.00000000E+00
  0.00000000E+00  0.00000000E+00  0.00000000E+00
  0.00000000E+00  0.00000000E+00  0.00000000E+00
  0.00000000E+00  0.00000000E+00  0.00000000E+00
  0.00000000E+00  0.00000000E+00  0.00000000E+00
  0.00000000E+00  0.00000000E+00  0.00000000E+00
  0.00000000E+00  0.00000000E+00  0.00000000E+00
  0.00000000E+00  0.00000000E+00  0.00000000E+00
  0.00000000E+00  0.00000000E+00  0.00000000E+00
  0.00000000E+00  0.00000000E+00  0.00000000E+00
  0.00000000E+00  0.00000000E+00  0.00000000E+00
  0.00000000E+00  0.00000000E+00  0.00000000E+00
  0.00000000E+00  0.00000000E+00  0.00000000E+00
  0.00000000E+00  0.00000000E+00  0.00000000E+00
  0.00000000E+00  0.00000000E+00  0.00000000E+00
  0.00000000E+00  0.00000000E+00  0.00000000E+00
  0.00000000E+00  0.00000000E+00  0.00000000E+00
  0.00000000E+00  0.00000000E+00  0.00000000E+00
  0.00000000E+00  0.00000000E+00  0.00000000E+00
  0.00000000E+00  0.00000000E+00  0.00000000E+00
  0.00000000E+00  0.00000000E+00  0.00000000E+00
  0.00000000E+00  0.00000000E+00  0.00000000E+00
  0.00000000E+00  0.00000000E+00  0.00000000E+00
  0.00000000E+00  0.00000000E+00  0.00000000E+00
  0.00000000E+00  0.00000000E+00  0.00000000E+00
  0.00000000E+00  0.00000000E+00  0.00000000E+00
  0.00000000E+00  0.00000000E+00  0.00000000E+00
  0.00000000E+00  0.00000000E+00  0.00000000E+00
  0.00000000E+00  0.00000000E+00  0.00000000E+00
  0.00000000E+00  0.00000000E+00  0.00000000E+00
  0.00000000E+00  0.00000000E+00  0.00000000E+00
  0.00000000E+00  0.00000000E+00  0.00000000E+00
  0.00000000E+00  0.00000000E+00  0.00000000E+00
  0.00000000E+00  0.00000000E+00  0.00000000E+00
  0.00000000E+00  0.00000000E+00  0.00000000E+00
  0.00000000E+00  0.00000000E+00  0.00000000E+00
  0.00000000E+00  0.00000000E+00  0.00000000E+00
  0.00000000E+00  0.00000000E+00  0.00000000E+00
  0.00000000E+00  0.00000000E+00  0.00000000E+00
  0.00000000E+00  0.00000000E+00  0.00000000E+00
  0.00000000E+00  0.00000000E+00  0.00000000E+00
  0.00000000E+00  0.00000000E+00  0.00000000E+00
  0.00000000E+00  0.00000000E+00  0.00000000E+00
  0.00000000E+00  0.00000000E+00  0.00000000E+00
  0.00000000E+00  0.00000000E+00  0.00000000E+00
  0.00000000E+00  0.00000000E+00  0.00000000E+00
  0.00000000E+00  0.00000000E+00  0.00000000E+00
  0.00000000E+00  0.00000000E+00  0.00000000E+00
  0.00000000E+00  0.00000000E+00  0.00000000E+00
  0.00000000E+00  0.00000000E+00  0.00000000E+00
  0.00000000E+00  0.00000000E+00  0.00000000E+00
  0.00000000E+00  0.00000000E+00  0.00000000E+00
  0.00000000E+00  0.00000000E+00  0.00000000E+00
  0.00000000E+00  0.00000000E+00  0.00000000E+00
  0.00000000E+00  0.00000000E+00  0.00000000E+00
  0.00000000E+00  0.00000000E+00  0.00000000E+00
  0.00000000E+00  0.00000000E+00  0.00000000E+00
  0.00000000E+00  0.00000000E+00  0.00000000E+00
  0.00000000E+00  0.00000000E+00  0.00000000E+00
  0.00000000E+00  0.00000000E+00  0.00000000E+00
  0.00000000E+00  0.00000000E+00  0.00000000E+00
  0.00000000E+00  0.00000000E+00  0.00000000E+00
  0.00000000E+00  0.00000000E+00  0.00000000E+00
  0.00000000E+00  0.00000000E+00  0.00000000E+00
  0.00000000E+00  0.00000000E+00  0.00000000E+00
  0.00000000E+00  0.00000000E+00  0.00000000E+00
  0.00000000E+00  0.00000000E+00  0.00000000E+00
  0.00000000E+00  0.00000000E+00  0.00000000E+00
  0.00000000E+00  0.00000000E+00  0.00000000E+00
  0.00000000E+00  0.00000000E+00  0.00000000E+00
  0.00000000E+00  0.00000000E+00  0.00000000E+00
  0.00000000E+00  0.00000000E+00  0.00000000E+00
  0.00000000E+00  0.00000000E+00  0.00000000E+00
  0.00000000E+00  0.00000000E+00  0.00000000E+00
  0.00000000E+00  0.00000000E+00  0.00000000E+00
  0.00000000E+00  0.00000000E+00  0.00000000E+00
  0.00000000E+00  0.00000000E+00  0.00000000E+00
  0.00000000E+00  0.00000000E+00  0.00000000E+00
  0.00000000E+00  0.00000000E+00  0.00000000E+00
  0.00000000E+00  0.00000000E+00  0.00000000E+00
  0.00000000E+00  0.00000000E+00  0.00000000E+00
  0.00000000E+00  0.00000000E+00  0.00000000E+00
  0.00000000E+00  0.00000000E+00  0.00000000E+00
  0.00000000E+00  0.00000000E+00  0.00000000E+00
  0.00000000E+00  0.00000000E+00  0.00000000E+00
  0.00000000E+00  0.00000000E+00  0.00000000E+00
  0.00000000E+00  0.00000000E+00  0.00000000E+00
  0.00000000E+00  0.00000000E+00  0.00000000E+00
  0.00000000E+00  0.00000000E+00  0.00000000E+00
  0.00000000E+00  0.00000000E+00  0.00000000E+00
  0.00000000E+00  0.00000000E+00  0.00000000E+00
  0.00000000E+00  0.00000000E+00  0.00000000E+00
  0.00000000E+00  0.00000000E+00  0.00000000E+00
  0.00000000E+00  0.00000000E+00  0.00000000E+00
  0.00000000E+00  0.00000000E+00  0.00000000E+00
  0.00000000E+00  0.00000000E+00  0.00000000E+00
  0.00000000E+00  0.00000000E+00  0.00000000E+00
  0.00000000E+00  0.00000000E+00  0.00000000E+00
  0.00000000E+00  0.00000000E+00  0.00000000E+00
  0.00000000E+00  0.00000000E+00  0.00000000E+00
  0.00000000E+00  0.00000000E+00  0.00000000E+00
  0.00000000E+00  0.00000000E+00  0.00000000E+00
  0.00000000E+00  0.00000000E+00  0.00000000E+00
  0.00000000E+00  0.00000000E+00  0.00000000E+00
  0.00000000E+00  0.00000000E+00  0.00000000E+00
  0.00000000E+00  0.00000000E+00  0.00000000E+00
  0.00000000E+00  0.00000000E+00  0.00000000E+00
  0.00000000E+00  0.00000000E+00  0.00000000E+00
  0.00000000E+00  0.00000000E+00  0.00000000E+00
  0.00000000E+00  0.00000000E+00  0.00000000E+00
  0.00000000E+00  0.00000000E+00  0.00000000E+00
  0.00000000E+00  0.00000000E+00  0.00000000E+00
  0.00000000E+00  0.00000000E+00  0.00000000E+00
  0.00000000E+00  0.00000000E+00  0.00000000E+00
  0.00000000E+00  0.00000000E+00  0.00000000E+00
  0.00000000E+00  0.00000000E+00  0.00000000E+00
  0.00000000E+00  0.00000000E+00  0.00000000E+00
  0.00000000E+00  0.00000000E+00  0.00000000E+00
  0.00000000E+00  0.00000000E+00  0.00000000E+00
  0.00000000E+00  0.00000000E+00  0.00000000E+00
  0.00000000E+00  0.00000000E+00  0.00000000E+00
  0.00000000E+00  0.00000000E+00  0.00000000E+00
  0.00000000E+00  0.00000000E+00  0.00000000E+00
  0.00000000E+00  0.00000000E+00  0.00000000E+00
  0.00000000E+00  0.00000000E+00  0.00000000E+00
  0.00000000E+00  0.00000000E+00  0.00000000E+00
  0.00000000E+00  0.00000000E+00  0.00000000E+00
  0.00000000E+00  0.00000000E+00  0.00000000E+00
  0.00000000E+00  0.00000000E+00  0.00000000E+00
  0.00000000E+00  0.00000000E+00  0.00000000E+00
  0.00000000E+00  0.00000000E+00  0.00000000E+00
  0.00000000E+00  0.00000000E+00  0.00000000E+00
  0.00000000E+00  0.00000000E+00  0.00000000E+00
  0.00000000E+00  0.00000000E+00  0.00000000E+00
  0.00000000E+00  0.00000000E+00  0.00000000E+00
  0.00000000E+00  0.00000000E+00  0.00000000E+00
  0.00000000E+00  0.00000000E+00  0.00000000E+00
  0.00000000E+00  0.00000000E+00  0.00000000E+00
  0.00000000E+00  0.00000000E+00  0.00000000E+00
  0.00000000E+00  0.00000000E+00  0.00000000E+00
  0.00000000E+00  0.00000000E+00  0.00000000E+00
  0.00000000E+00  0.00000000E+00  0.00000000E+00
  0.00000000E+00  0.00000000E+00  0.00000000E+00
  0.00000000E+00  0.00000000E+00  0.00000000E+00
  0.00000000E+00  0.00000000E+00  0.00000000E+00
  0.00000000E+00  0.00000000E+00  0.00000000E+00
  0.00000000E+00  0.00000000E+00  0.00000000E+00
  0.00000000E+00  0.00000000E+00  0.00000000E+00
  0.00000000E+00  0.00000000E+00  0.00000000E+00
  0.00000000E+00  0.00000000E+00  0.00000000E+00
  0.00000000E+00  0.00000000E+00  0.00000000E+00
  0.00000000E+00  0.00000000E+00  0.00000000E+00
  0.00000000E+00  0.00000000E+00  0.00000000E+00
  0.00000000E+00  0.00000000E+00  0.00000000E+00
  0.00000000E+00  0.00000000E+00  0.00000000E+00
  0.00000000E+00  0.00000000E+00  0.00000000E+00
  0.00000000E+00  0.00000000E+00  0.00000000E+00
  0.00000000E+00  0.00000000E+00  0.00000000E+00
  0.00000000E+00  0.00000000E+00  0.00000000E+00
  0.00000000E+00  0.00000000E+00  0.00000000E+00
  0.00000000E+00  0.00000000E+00  0.00000000E+00
  0.00000000E+00  0.00000000E+00  0.00000000E+00
  0.00000000E+00  0.00000000E+00  0.00000000E+00
  0.00000000E+00  0.00000000E+00  0.00000000E+00
  0.00000000E+00  0.00000000E+00  0.00000000E+00
  0.00000000E+00  0.00000000E+00  0.00000000E+00
  0.00000000E+00  0.00000000E+00  0.00000000E+00
  0.00000000E+00  0.00000000E+00  0.00000000E+00
  0.00000000E+00  0.00000000E+00  0.00000000E+00
  0.00000000E+00  0.00000000E+00  0.00000000E+00
  0.00000000E+00  0.00000000E+00  0.00000000E+00
  0.00000000E+00  0.00000000E+00  0.00000000E+00
  0.00000000E+00  0.00000000E+00  0.00000000E+00
  0.00000000E+00  0.00000000E+00  0.00000000E+00
  0.00000000E+00  0.00000000E+00  0.00000000E+00
  0.00000000E+00  0.00000000E+00  0.00000000E+00
  0.00000000E+00  0.00000000E+00  0.00000000E+00
  0.00000000E+00  0.00000000E+00  0.00000000E+00
  0.00000000E+00  0.00000000E+00  0.00000000E+00
  0.00000000E+00  0.00000000E+00  0.00000000E+00
  0.00000000E+00  0.00000000E+00  0.00000000E+00
  0.00000000E+00  0.00000000E+00  0.00000000E+00
  0.00000000E+00  0.00000000E+00  0.00000000E+00
  0.00000000E+00  0.00000000E+00  0.00000000E+00
  0.00000000E+00  0.00000000E+00  0.00000000E+00
  0.00000000E+00  0.00000000E+00  0.00000000E+00
  0.00000000E+00  0.00000000E+00  0.00000000E+00
  0.00000000E+00  0.00000000E+00  0.00000000E+00
  0.00000000E+00  0.00000000E+00  0.00000000E+00
  0.00000000E+00  0.00000000E+00  0.00000000E+00
  0.00000000E+00  0.00000000E+00  0.00000000E+00
  0.00000000E+00  0.00000000E+00  0.00000000E+00
  0.00000000E+00  0.00000000E+00  0.00000000E+00
  0.00000000E+00  0.00000000E+00  0.00000000E+00
  0.00000000E+00  0.00000000E+00  0.00000000E+00
  0.00000000E+00  0.00000000E+00  0.00000000E+00
  0.00000000E+00  0.00000000E+00  0.00000000E+00
  0.00000000E+00  0.00000000E+00  0.00000000E+00
  0.00000000E+00  0.00000000E+00  0.00000000E+00
  0.00000000E+00  0.00000000E+00  0.00000000E+00
  0.00000000E+00  0.00000000E+00  0.00000000E+00
  0.00000000E+00  0.00000000E+00  0.00000000E+00
  0.00000000E+00  0.00000000E+00  0.00000000E+00
  0.00000000E+00  0.00000000E+00  0.00000000E+00
  0.00000000E+00  0.00000000E+00  0.00000000E+00
  0.00000000E+00  0.00000000E+00  0.00000000E+00
  0.00000000E+00  0.00000000E+00  0.00000000E+00
  0.00000000E+00  0.00000000E+00  0.00000000E+00
  0.00000000E+00  0.00000000E+00  0.00000000E+00
  0.00000000E+00  0.00000000E+00  0.00000000E+00
  0.00000000E+00  0.00000000E+00  0.00000000E+00
  0.00000000E+00  0.00000000E+00  0.00000000E+00
  0.00000000E+00  0.00000000E+00  0.00000000E+00
  0.00000000E+00  0.00000000E+00  0.00000000E+00
  0.00000000E+00  0.00000000E+00  0.00000000E+00
  0.00000000E+00  0.00000000E+00  0.00000000E+00
  0.00000000E+00  0.00000000E+00  0.00000000E+00
  0.00000000E+00  0.00000000E+00  0.00000000E+00
  0.00000000E+00  0.00000000E+00  0.00000000E+00
  0.00000000E+00  0.00000000E+00  0.00000000E+00
  0.00000000E+00  0.00000000E+00  0.00000000E+00
  0.00000000E+00  0.00000000E+00  0.00000000E+00
  0.00000000E+00  0.00000000E+00  0.00000000E+00
  0.00000000E+00  0.00000000E+00  0.00000000E+00
  0.00000000E+00  0.00000000E+00  0.00000000E+00
  0.00000000E+00  0.00000000E+00  0.00000000E+00
  0.00000000E+00  0.00000000E+00  0.00000000E+00
  0.00000000E+00  0.00000000E+00  0.00000000E+00
  0.00000000E+00  0.00000000E+00  0.00000000E+00
  0.00000000E+00  0.00000000E+00  0.00000000E+00
  0.00000000E+00  0.00000000E+00  0.00000000E+00
  0.00000000E+00  0.00000000E+00  0.00000000E+00
  0.00000000E+00  0.00000000E+00  0.00000000E+00
  0.00000000E+00  0.00000000E+00  0.00000000E+00
  0.00000000E+00  0.00000000E+00  0.00000000E+00
  0.00000000E+00  0.00000000E+00  0.00000000E+00
  0.00000000E+00  0.00000000E+00  0.00000000E+00
  0.00000000E+00  0.00000000E+00  0.00000000E+00
  0.00000000E+00  0.00000000E+00  0.00000000E+00
  0.00000000E+00  0.00000000E+00  0.00000000E+00
  0.00000000E+00  0.00000000E+00  0.00000000E+00
  0.00000000E+00  0.00000000E+00  0.00000000E+00
  0.00000000E+00  0.00000000E+00  0.00000000E+00
  0.00000000E+00  0.00000000E+00  0.00000000E+00
  0.00000000E+00  0.00000000E+00  0.00000000E+00
  0.00000000E+00  0.00000000E+00  0.00000000E+00
  0.00000000E+00  0.00000000E+00  0.00000000E+00
  0.00000000E+00  0.00000000E+00  0.00000000E+00
  0.00000000E+00  0.00000000E+00  0.00000000E+00
  0.00000000E+00  0.00000000E+00  0.00000000E+00
  0.00000000E+00  0.00000000E+00  0.00000000E+00
  0.00000000E+00  0.00000000E+00  0.00000000E+00
  0.00000000E+00  0.00000000E+00  0.00000000E+00
  0.00000000E+00  0.00000000E+00  0.00000000E+00
  0.00000000E+00  0.00000000E+00  0.00000000E+00
  0.00000000E+00  0.00000000E+00  0.00000000E+00
  0.00000000E+00  0.00000000E+00  0.00000000E+00
  0.00000000E+00  0.00000000E+00  0.00000000E+00
  0.00000000E+00  0.00000000E+00  0.00000000E+00
  0.00000000E+00  0.00000000E+00  0.00000000E+00
  0.00000000E+00  0.00000000E+00  0.00000000E+00
  0.00000000E+00  0.00000000E+00  0.00000000E+00
