Generated by VASPKIT code               
   1.00000000000000     
    14.1367578761147463    0.6780741804662399    0.0000000000000000
    -6.4678161256099092   11.2708472729670053    0.0000000000000000
     0.0000000000000015    0.0000000000000024   21.9901632257091819
   C 
   132
Direct
  0.5566202446122821  0.4298398308623434  0.3790627660921323
  0.6646325024052594  0.5210571950090083  0.3787345509619737
  0.6800108583441126  0.5936663115862771  0.4325106111133705
  0.5097529592620171  0.4443471491619150  0.4343293716655370
  0.5890010131437055  0.5430403842260134  0.4672983804969662
  0.4387695109317905  0.3500982387996187  0.4670614947679135
  0.4119988711729306  0.2371261110646053  0.4460587975088650
  0.5319499345304329  0.3184120412278469  0.3582013840298182
  0.4572745531447413  0.2197059125661523  0.3927949897689691
  0.6154360081308031  0.2925832157053245  0.3367578405322859
  0.7447828269112609  0.4965807398014225  0.3575784305595705
  0.7209061682429452  0.3811084821319714  0.3370255063404536
  0.8423040728477202  0.5403968234722093  0.3937770363312303
  0.7820167694120360  0.6585583598693359  0.4630105497736564
  0.8540952005647809  0.6061818194261406  0.4457942411991478
  0.7820669914942148  0.6585211710263084  0.5370182220846578
  0.5890421660490608  0.5430140282090131  0.5328187634520241
  0.6801072930628419  0.5936048339571653  0.5675625893773837
  0.4388093411267645  0.3500701334551041  0.5330631736892582
  0.5098454690627915  0.4442926748695877  0.5657920157560030
  0.4003322914213109  0.1695973864637383  0.5000241259120531
  0.4120666942779787  0.2370736081024065  0.5540210206167606
  0.4341642796678614  0.0866129638519752  0.4999838742843252
  0.4935665001220632  0.1331975357735509  0.3928315837330597
  0.5921637609195366  0.1777472627916475  0.3582973386700234
  0.4829768812551621  0.0700627425348110  0.4461306616987283
  0.6735779829484637  0.1540848123382585  0.3790275023489505
  0.8044203258048497  0.3554341643149181  0.3588441224024660
  0.8780391975316127  0.4540065214605840  0.3937076543392273
  0.7818175778264598  0.2442953925440479  0.3790533907232224
  0.9237960984011575  0.4366511616624351  0.4465263176374099
  0.8971887097854261  0.5849228474995718  0.4999485312952667
  0.8541711234248633  0.6061291730918785  0.5541449404230605
  0.9325690948424832  0.5025313471819295  0.4999074127921010
  0.8424536624915839  0.5402932919111574  0.6061349090062458
  0.6648066950913059  0.5209465078665418  0.6213101842677689
  0.5567941948052939  0.4297316479084469  0.6210142217278648
  0.7449889078491456  0.4964465823459133  0.6423842398852910
  0.4574275652134482  0.2196085339800161  0.6072363825422057
  0.5321536322851442  0.3182826876046218  0.6418302839902111
  0.4830575106238424  0.0700145380354436  0.5537914843998091
  0.4937252931646791  0.1331008965385410  0.6071181330146451
  0.5671175865244689  0.0470739715570440  0.4671222491260954
  0.6597353590960601  0.0856266316833802  0.4338606986971789
  0.5671690163233969  0.0470517475505297  0.5327171494610216
  0.8316466029291327  0.2298563706658985  0.4339537830362411
  0.9027355293172288  0.3243570087047272  0.4668861088241158
  0.7559461800579700  0.1324571092629932  0.4678180535485539
  0.9238526509051508  0.4365917731763754  0.5532531620405564
  0.8781797951617499  0.4539022384659284  0.6061193960619756
  0.9027747659381719  0.3243283287240988  0.5328439001490139
  0.7211415970350480  0.3809555836535823  0.6628914555668920
  0.6156721777020352  0.2924314088331702  0.6631915621638258
  0.5923699712666541  0.1776171598072799  0.6416027993777940
  0.8046171032829772  0.3552976710258661  0.6409872604233243
  0.6598305339059251  0.0855786195070063  0.5659276503087308
  0.7559849668945509  0.1324419708529526  0.5319216313327139
  0.8317350813283576  0.2297877568050602  0.5657833559822908
  0.6737546419008766  0.1539753624931155  0.6207940493088284
  0.7819918919378049  0.2441842390960251  0.6207340118842445
  0.3530834119553655  0.5794936096582987  0.6200550075045334
  0.9169536275673016  0.9385014267956806  0.6196473506434199
  0.4140806490382365  0.7012049705421078  0.6201707978120969
  0.9867705300319890  0.8892259868205799  0.6197432518995315
  0.4845174817373631  0.7332407494189918  0.5657265979676688
  0.9596806898247205  0.8142728650022428  0.5655798854830044
  0.3839354173134031  0.5368618998946935  0.5647691076923279
  0.8431389407537185  0.8892810276682548  0.5669143546680278
  0.4644827203355602  0.6320726865554086  0.5327224797359273
  0.8555242826005880  0.7925671372365513  0.5370910666648788
  0.2922959785583458  0.4586306707025770  0.5326654179767396
  0.8482551348223032  0.9820466351477234  0.5330646370514822
  0.2408460912822746  0.5278739946208055  0.6203597012325774
  0.9587469005247642  0.0611870517604352  0.6199726782393037
  0.2026400020475184  0.4506011360035933  0.5658944733665037
  0.9187501770960780  0.0873578115405122  0.5648173755815448
  0.1901176201054390  0.5999634977937253  0.6197043570111144
  0.0715841052194448  0.1333830621655703  0.6197397664102000
  0.3620413746165854  0.7720872252307249  0.6199780708772811
  0.0988540082205134  0.9593146473150697  0.6204879231989463
  0.2498639945998241  0.7218740876105900  0.6201141669416793
  0.1400886633202789  0.0818194317108045  0.6196244629943053
  0.4742252292875895  0.8211918752892747  0.5327468095672383
  0.0515012066107567  0.8408774704525505  0.5326146678141324
  0.3979232732511821  0.8439589076418921  0.5646768529181589
  0.1391969760083168  0.9275440418503259  0.5658387931383719
  0.4741908839361494  0.8211434005177484  0.4672036004766916
  0.0514704352958925  0.8409061455657628  0.4673434823246739
  0.4644496010423155  0.6320258500855562  0.4673005640745321
  0.8554826199065186  0.7925980521207132  0.4629630741609200
  0.4844506991346262  0.7331380908993416  0.4342546858323865
  0.9596079442205802  0.8143264021955127  0.4344173098363635
  0.2922663078134430  0.4585837773256045  0.4674477992465334
  0.8482310369810395  0.9820717709796533  0.4670998317278245
  0.3838756629783276  0.5367555423786002  0.4352986824825206
  0.8430699821997688  0.8893438541692211  0.4332012143854791
  0.2025772054737254  0.4505007528653375  0.4342369316511352
  0.9186907782791210  0.0874109685819603  0.4353624573766000
  0.1315171206120845  0.4794147605982304  0.5326421746621784
  0.0036043356569898  0.1789092693942459  0.5324221066726058
  0.1231123460840587  0.5698850193029473  0.5644872429519383
  0.0986390735459911  0.2103510087823099  0.5657528329714520
  0.1314908753493766  0.4793680481184558  0.4674932175099769
  0.0035642868269918  0.1789407661575518  0.4677515993700248
  0.2172217853538603  0.7667195358858069  0.5656817638633882
  0.2073966020815390  0.1240588470154363  0.5644868752083727
  0.3097768586124490  0.8409382628539815  0.5325671505835663
  0.2065456776389432  0.0286654786451751  0.5325760834730267
  0.1387680125390438  0.6716120174401117  0.5326620344100796
  0.1846886063557651  0.2051928859314607  0.5324677331249441
  0.3978584018331468  0.8438609790750239  0.4352779555380260
  0.1391253542551902  0.9276070077329767  0.4341182700545508
  0.3097451440239503  0.8408969142015479  0.4674035628299308
  0.2065121899887102  0.0286931601294064  0.4673914408295192
  0.4139573093655854  0.7010152689648618  0.3798339431043705
  0.9866422752880232  0.8893338044795457  0.3802790518992639
  0.3529611721436219  0.5793053489421304  0.3800029076546940
  0.9168315946848179  0.9386172324362134  0.3804490933674501
  0.2407226116538490  0.5276826712663565  0.3797344393790620
  0.9586238833126096  0.0613003594412928  0.3801623351722050
  0.3619181202443621  0.7718993959240107  0.3800107371807171
  0.0987272241224884  0.9594312387404974  0.3795079042032405
  0.1230496928036880  0.5697790042768706  0.4356155865702596
  0.0985648594703947  0.2104011970276576  0.4343771695945551
  0.1387438928260435  0.6715650287128592  0.4674034767749807
  0.1846526174136889  0.2052149857756747  0.4676068310798212
  0.2171597233387076  0.7666054709698070  0.4343371049552001
  0.2073315509389464  0.1241186275342188  0.4355300754510579
  0.1899941831553394  0.5997706753736448  0.3803735391002798
  0.0714582667525753  0.1334975571474336  0.3803629565339307
  0.2497414116455979  0.7216780790300852  0.3799147604908175
  0.1399631103768854  0.0819315644833310  0.3804107886849155
 
  0.00000000E+00  0.00000000E+00  0.00000000E+00
  0.00000000E+00  0.00000000E+00  0.00000000E+00
  0.00000000E+00  0.00000000E+00  0.00000000E+00
  0.00000000E+00  0.00000000E+00  0.00000000E+00
  0.00000000E+00  0.00000000E+00  0.00000000E+00
  0.00000000E+00  0.00000000E+00  0.00000000E+00
  0.00000000E+00  0.00000000E+00  0.00000000E+00
  0.00000000E+00  0.00000000E+00  0.00000000E+00
  0.00000000E+00  0.00000000E+00  0.00000000E+00
  0.00000000E+00  0.00000000E+00  0.00000000E+00
  0.00000000E+00  0.00000000E+00  0.00000000E+00
  0.00000000E+00  0.00000000E+00  0.00000000E+00
  0.00000000E+00  0.00000000E+00  0.00000000E+00
  0.00000000E+00  0.00000000E+00  0.00000000E+00
  0.00000000E+00  0.00000000E+00  0.00000000E+00
  0.00000000E+00  0.00000000E+00  0.00000000E+00
  0.00000000E+00  0.00000000E+00  0.00000000E+00
  0.00000000E+00  0.00000000E+00  0.00000000E+00
  0.00000000E+00  0.00000000E+00  0.00000000E+00
  0.00000000E+00  0.00000000E+00  0.00000000E+00
  0.00000000E+00  0.00000000E+00  0.00000000E+00
  0.00000000E+00  0.00000000E+00  0.00000000E+00
  0.00000000E+00  0.00000000E+00  0.00000000E+00
  0.00000000E+00  0.00000000E+00  0.00000000E+00
  0.00000000E+00  0.00000000E+00  0.00000000E+00
  0.00000000E+00  0.00000000E+00  0.00000000E+00
  0.00000000E+00  0.00000000E+00  0.00000000E+00
  0.00000000E+00  0.00000000E+00  0.00000000E+00
  0.00000000E+00  0.00000000E+00  0.00000000E+00
  0.00000000E+00  0.00000000E+00  0.00000000E+00
  0.00000000E+00  0.00000000E+00  0.00000000E+00
  0.00000000E+00  0.00000000E+00  0.00000000E+00
  0.00000000E+00  0.00000000E+00  0.00000000E+00
  0.00000000E+00  0.00000000E+00  0.00000000E+00
  0.00000000E+00  0.00000000E+00  0.00000000E+00
  0.00000000E+00  0.00000000E+00  0.00000000E+00
  0.00000000E+00  0.00000000E+00  0.00000000E+00
  0.00000000E+00  0.00000000E+00  0.00000000E+00
  0.00000000E+00  0.00000000E+00  0.00000000E+00
  0.00000000E+00  0.00000000E+00  0.00000000E+00
  0.00000000E+00  0.00000000E+00  0.00000000E+00
  0.00000000E+00  0.00000000E+00  0.00000000E+00
  0.00000000E+00  0.00000000E+00  0.00000000E+00
  0.00000000E+00  0.00000000E+00  0.00000000E+00
  0.00000000E+00  0.00000000E+00  0.00000000E+00
  0.00000000E+00  0.00000000E+00  0.00000000E+00
  0.00000000E+00  0.00000000E+00  0.00000000E+00
  0.00000000E+00  0.00000000E+00  0.00000000E+00
  0.00000000E+00  0.00000000E+00  0.00000000E+00
  0.00000000E+00  0.00000000E+00  0.00000000E+00
  0.00000000E+00  0.00000000E+00  0.00000000E+00
  0.00000000E+00  0.00000000E+00  0.00000000E+00
  0.00000000E+00  0.00000000E+00  0.00000000E+00
  0.00000000E+00  0.00000000E+00  0.00000000E+00
  0.00000000E+00  0.00000000E+00  0.00000000E+00
  0.00000000E+00  0.00000000E+00  0.00000000E+00
  0.00000000E+00  0.00000000E+00  0.00000000E+00
  0.00000000E+00  0.00000000E+00  0.00000000E+00
  0.00000000E+00  0.00000000E+00  0.00000000E+00
  0.00000000E+00  0.00000000E+00  0.00000000E+00
  0.00000000E+00  0.00000000E+00  0.00000000E+00
  0.00000000E+00  0.00000000E+00  0.00000000E+00
  0.00000000E+00  0.00000000E+00  0.00000000E+00
  0.00000000E+00  0.00000000E+00  0.00000000E+00
  0.00000000E+00  0.00000000E+00  0.00000000E+00
  0.00000000E+00  0.00000000E+00  0.00000000E+00
  0.00000000E+00  0.00000000E+00  0.00000000E+00
  0.00000000E+00  0.00000000E+00  0.00000000E+00
  0.00000000E+00  0.00000000E+00  0.00000000E+00
  0.00000000E+00  0.00000000E+00  0.00000000E+00
  0.00000000E+00  0.00000000E+00  0.00000000E+00
  0.00000000E+00  0.00000000E+00  0.00000000E+00
  0.00000000E+00  0.00000000E+00  0.00000000E+00
  0.00000000E+00  0.00000000E+00  0.00000000E+00
  0.00000000E+00  0.00000000E+00  0.00000000E+00
  0.00000000E+00  0.00000000E+00  0.00000000E+00
  0.00000000E+00  0.00000000E+00  0.00000000E+00
  0.00000000E+00  0.00000000E+00  0.00000000E+00
  0.00000000E+00  0.00000000E+00  0.00000000E+00
  0.00000000E+00  0.00000000E+00  0.00000000E+00
  0.00000000E+00  0.00000000E+00  0.00000000E+00
  0.00000000E+00  0.00000000E+00  0.00000000E+00
  0.00000000E+00  0.00000000E+00  0.00000000E+00
  0.00000000E+00  0.00000000E+00  0.00000000E+00
  0.00000000E+00  0.00000000E+00  0.00000000E+00
  0.00000000E+00  0.00000000E+00  0.00000000E+00
  0.00000000E+00  0.00000000E+00  0.00000000E+00
  0.00000000E+00  0.00000000E+00  0.00000000E+00
  0.00000000E+00  0.00000000E+00  0.00000000E+00
  0.00000000E+00  0.00000000E+00  0.00000000E+00
  0.00000000E+00  0.00000000E+00  0.00000000E+00
  0.00000000E+00  0.00000000E+00  0.00000000E+00
  0.00000000E+00  0.00000000E+00  0.00000000E+00
  0.00000000E+00  0.00000000E+00  0.00000000E+00
  0.00000000E+00  0.00000000E+00  0.00000000E+00
  0.00000000E+00  0.00000000E+00  0.00000000E+00
  0.00000000E+00  0.00000000E+00  0.00000000E+00
  0.00000000E+00  0.00000000E+00  0.00000000E+00
  0.00000000E+00  0.00000000E+00  0.00000000E+00
  0.00000000E+00  0.00000000E+00  0.00000000E+00
  0.00000000E+00  0.00000000E+00  0.00000000E+00
  0.00000000E+00  0.00000000E+00  0.00000000E+00
  0.00000000E+00  0.00000000E+00  0.00000000E+00
  0.00000000E+00  0.00000000E+00  0.00000000E+00
  0.00000000E+00  0.00000000E+00  0.00000000E+00
  0.00000000E+00  0.00000000E+00  0.00000000E+00
  0.00000000E+00  0.00000000E+00  0.00000000E+00
  0.00000000E+00  0.00000000E+00  0.00000000E+00
  0.00000000E+00  0.00000000E+00  0.00000000E+00
  0.00000000E+00  0.00000000E+00  0.00000000E+00
  0.00000000E+00  0.00000000E+00  0.00000000E+00
  0.00000000E+00  0.00000000E+00  0.00000000E+00
  0.00000000E+00  0.00000000E+00  0.00000000E+00
  0.00000000E+00  0.00000000E+00  0.00000000E+00
  0.00000000E+00  0.00000000E+00  0.00000000E+00
  0.00000000E+00  0.00000000E+00  0.00000000E+00
  0.00000000E+00  0.00000000E+00  0.00000000E+00
  0.00000000E+00  0.00000000E+00  0.00000000E+00
  0.00000000E+00  0.00000000E+00  0.00000000E+00
  0.00000000E+00  0.00000000E+00  0.00000000E+00
  0.00000000E+00  0.00000000E+00  0.00000000E+00
  0.00000000E+00  0.00000000E+00  0.00000000E+00
  0.00000000E+00  0.00000000E+00  0.00000000E+00
  0.00000000E+00  0.00000000E+00  0.00000000E+00
  0.00000000E+00  0.00000000E+00  0.00000000E+00
  0.00000000E+00  0.00000000E+00  0.00000000E+00
  0.00000000E+00  0.00000000E+00  0.00000000E+00
  0.00000000E+00  0.00000000E+00  0.00000000E+00
  0.00000000E+00  0.00000000E+00  0.00000000E+00
  0.00000000E+00  0.00000000E+00  0.00000000E+00
  0.00000000E+00  0.00000000E+00  0.00000000E+00
  0.00000000E+00  0.00000000E+00  0.00000000E+00
