Generated by VASPKIT code               
   1.00000000000000     
    29.5970778951814566   -0.1948073661105542    0.0000000000000000
   -14.9651219414908692   25.7588921479748691    0.0000000000000000
     0.0000000000000013    0.0000000000000024   21.9823590675642144
  C             
   264
Direct
  0.4673343148967331  0.7472267236227047  0.4513077650851860
  0.5326691173645937  0.2527718371125287  0.4513102774336360
  0.4464940797210931  0.7068079498323673  0.4049471365467798
  0.5535077335883656  0.2931893836335196  0.4049486917018715
  0.4112622570986146  0.7142998103292718  0.3658313522138831
  0.5887406900996967  0.2856979372780388  0.3658345508695428
  0.4443385563595678  0.7790571067454638  0.4406973323534145
  0.5556658432185049  0.2209421883867297  0.4407026349270918
  0.4101697561613010  0.7594826558625438  0.3880457873158826
  0.5898343574785457  0.2405161311605879  0.3880505844214004
  0.4298619283647305  0.7980097397047000  0.4904090627421133
  0.5701434229550899  0.2019918306160808  0.4904137786697130
  0.4387258325246877  0.7877552802508617  0.5522778467358218
  0.5612784049914864  0.2122470733192705  0.5522821213150358
  0.4754474531549217  0.7365800723496220  0.5113081528088774
  0.5245546115242561  0.2634179064416834  0.5113110635543154
  0.4614262226956700  0.7576137046516417  0.5629170157692440
  0.5385763184355065  0.2423867390947405  0.5629204650830758
  0.4620449285496198  0.6844458038788984  0.5275977060006920
  0.5379560697298744  0.3155528941371041  0.5275970679289481
  0.4333416729793214  0.6564312612166352  0.4209227186056023
  0.5666579205000055  0.3435654759918319  0.4209215552569343
  0.4403531153928852  0.6457020716067310  0.4832636958638799
  0.5596459923601046  0.3542943403139411  0.4832625925495545
  0.3856894449426114  0.6118592673560281  0.3980263663078656
  0.6143098393917963  0.3881384371975975  0.3980253878108829
  0.3650901290325417  0.6712911601390590  0.3436423766919058
  0.6349121249129591  0.3287069830004450  0.3436441454730166
  0.3521136382529274  0.6187818474991488  0.3598464865090927
  0.6478861303524884  0.3812162175060992  0.3598469454297533
  0.3166194629766920  0.6722833147365640  0.3424450521793101
  0.6833834609235937  0.3277166411148241  0.3424501199109334
  0.3633457024344075  0.7603650268546731  0.3867808814374131
  0.6366594882540172  0.2396358212688829  0.3867868503056406
  0.3157972594223198  0.7162794105212424  0.3634601547468134
  0.6842079551791425  0.2837230541722798  0.3634655646633904
  0.3809790914033693  0.7976562062192940  0.4893461899181549
  0.6190273529127285  0.2023466902695741  0.4893528307060027
  0.3488704277819868  0.7806593369219937  0.4385598579861442
  0.6511357688221648  0.2193431279498177  0.4385663333480615
  0.3958091683332259  0.7822278430177243  0.5892886790443850
  0.6041950492230873  0.2177758497216757  0.5892944213280832
  0.3604109244969239  0.7890473457321350  0.5500535527241348
  0.6395947517806897  0.2109570380114960  0.5500599958580170
  0.3757106802306057  0.7454951561143164  0.6360012696822372
  0.6242928917474698  0.2545097236947057  0.6360057877350584
  0.4401859668496442  0.7188132923324243  0.6109637678208842
  0.5598148169093955  0.2811882889724088  0.6109662820618237
  0.4406164950819482  0.6733483326480458  0.5889070680404556
  0.5593837315656272  0.3266528570484303  0.5889075330897944
  0.3981703515918898  0.7127716844047859  0.6467867340595641
  0.6018314655550925  0.2872317550945109  0.6467892351007236
  0.3990940549735270  0.6237603812552575  0.6036907733207292
  0.6009054419608467  0.3762417142167873  0.6036905547226543
  0.3967923492325721  0.5955096756800834  0.4986065565131363
  0.6032066660707189  0.4044885210799719  0.4986041002857485
  0.3637651823019011  0.5736866101762668  0.4463496379452440
  0.6362343515005748  0.4263131881451494  0.4463477772028328
  0.3772027927465024  0.5838315560348469  0.5572930441122477
  0.6227960477015763  0.4161691172220538  0.5572911134095608
  0.3099485487062743  0.5418130624253215  0.4545184876628451
  0.6900494914307937  0.4581872604808028  0.4545162441402297
  0.2957733757608832  0.5870845698130451  0.3686901980867875
  0.7042257724980889  0.4129149463180968  0.3686905192029536
  0.2740398134086297  0.6203920762323714  0.3578842627282471
  0.7259613077404121  0.3796090017130522  0.3578873927933932
  0.2751994755052430  0.5493118087639155  0.4150159066337598
  0.7247997571029297  0.4506895051336191  0.4150151998496546
  0.2328126701780729  0.6149704059400906  0.3940947133993645
  0.7671889199118348  0.3850325253794153  0.3940974663379425
  0.2723823456363442  0.7104314302920013  0.4006214883826029
  0.7276224543029672  0.2895712782497605  0.4006277694207996
  0.2928721699125911  0.7507960401802672  0.4469304952486352
  0.7071344634386643  0.2492088895848631  0.4469374462392570
  0.2320757890553020  0.6606386671551027  0.4157747196624974
  0.7679280242155889  0.3393667228988053  0.4157804281650233
  0.3064247085642978  0.7607471268297822  0.5589174700724678
  0.6935813781632567  0.2392587538981426  0.5589239563360971
  0.2722785706586862  0.7407632112349147  0.5062309032940637
  0.7277276073640232  0.2592424099110371  0.5062379357546128
  0.3192853330865763  0.7144613069558294  0.6447963763749954
  0.6807178378246684  0.2855453987378012  0.6448002102018247
  0.2854551547008387  0.7220301761562037  0.6070355514937830
  0.7145489430878589  0.2779767761682582  0.6070411473549678
  0.3554626743744496  0.6611888888528084  0.6623498165910973
  0.6445380846021674  0.3388160096780229  0.6623518114343874
  0.3560581574321119  0.6171840320296391  0.6413330611350040
  0.6439412928083467  0.3828191495545794  0.6413335843862336
  0.3068338088310581  0.6622400493137718  0.6610508237013588
  0.6931670870242806  0.3377665948278321  0.6610537825796639
  0.3215785230057241  0.5511226645797028  0.5666494255116168
  0.6784191104517625  0.4488794298849565  0.5666481411669033
  0.2885534971527387  0.5309242270057021  0.5158241802167064
  0.7114432038818007  0.4690777795160024  0.5158221415855905
  0.3081536514432648  0.5722260485634809  0.6184351189571121
  0.6918445592810847  0.4277779510196041  0.6184345717753242
  0.2324089325802579  0.5434955705495749  0.4525072292039797
  0.7675903921191657  0.4565081909039940  0.4525076186112612
  0.2130443516677342  0.5767714985294465  0.4424449724673780
  0.7869563735400065  0.4232329641456206  0.4424469292567610
  0.2403936776065682  0.5319818158670290  0.5146127717314772
  0.7596045561872381  0.4680230438657966  0.5146129214780238
  0.2121788287634361  0.6504718098339654  0.4774582335106559
  0.7878240883596194  0.3495342747292493  0.4774632462694162
  0.2303206696743852  0.6892421780071946  0.5218097169681056
  0.7696851821651868  0.3107654915098323  0.5218149153003374
  0.2382190157484313  0.6775906780959260  0.5838065883469059
  0.7617846602610798  0.3224179572528740  0.5838115314021696
  0.2018441586451336  0.5995059772782637  0.4936628091113992
  0.7981565337351851  0.4004999464560847  0.4936655077794303
  0.2609910428326945  0.6191987127693287  0.6388099271126831
  0.7390090820849136  0.3808079041028506  0.6388123417550177
  0.2616176621487260  0.5732748654920614  0.6171583893040692
  0.7383823605027201  0.4267314186088394  0.6171586088989108
  0.2279237275770123  0.5532418429837545  0.5641767713529275
  0.7720752811087109  0.4467641075330864  0.5641766780321669
  0.2268442837168030  0.6274153232442640  0.5992539296831764
  0.7731571360516964  0.3725920678595022  0.5992579380754600
  0.2077419200542664  0.5874907374735443  0.5529430466546479
  0.7922573455365952  0.4125157619362101  0.5529468879810087
  0.9472623766570190  0.9880051102245765  0.3813425748975721
  0.5877406214922598  0.0940238396340034  0.4339948139573894
  0.8992070962412999  0.4736662275589223  0.4487925847651518
  0.5315813467024065  0.4309047110062406  0.4422402190502110
  0.9588244893416222  0.9474448961903433  0.3813461681314307
  0.6091821779624369  0.0895548296030582  0.4897142960363702
  0.8995529539093819  0.4976169738651193  0.5043831302362424
  0.5083764708988776  0.4063603249171555  0.4978904456770114
  0.9327898975964594  0.9142189544867225  0.4355475413069460
  0.6050317328920576  0.0379252581369012  0.4897956694399733
  0.9457516640427315  0.5506809234922521  0.5043684354323380
  0.4535922503382270  0.3948781174727695  0.4978334497753545
  0.9139691757810644  0.9804434979650217  0.4355751099728807
  0.5707003117158377  0.0457551226699428  0.3984763744441474
  0.9452938731095091  0.5116923662779036  0.4131583235668152
  0.4918908892676981  0.4353691548477508  0.4066497454128079
  0.9047734990733027  0.9345466687669123  0.4673208882069030
  0.5827052808918217  0.0123717139947869  0.4329714512799063
  0.9727013358737515  0.5590467749579753  0.4475508856038511
  0.4440294788582255  0.4122673388872263  0.4410578962762173
  0.9348072052342509  0.0289842798975817  0.4673211366504032
  0.5185591951417765  0.0273797029384359  0.3758599114143169
  0.9719073521708111  0.4860576093884924  0.3907039414349366
  0.5153254893761740  0.4875932538294547  0.3839693957954515
  0.9884429254458466  0.0405702063465944  0.3813391166019664
  0.5454527668190852  0.1029487224549674  0.4340384183999801
  0.8989109109852464  0.4261593814902523  0.4488379698412826
  0.5782823315609500  0.4797271313379549  0.4422006833869999
  0.9811488815138940  0.0662048496362726  0.4355502406436811
  0.5020309312751666  0.0617583451800459  0.3986551601035509
  0.9444679497771623  0.4336071903073956  0.4132474105706268
  0.5682157466228516  0.5158842040553924  0.4064562066323976
  0.0411749581963817  0.0525522198490941  0.3813457335602937
  0.5245111937480432  0.1079110200625200  0.4896716117609585
  0.8985384901332716  0.4022747285791351  0.5044280654651315
  0.6017351777274529  0.5043973752957606  0.4978453431726242
  0.0115568843998046  0.9594279500486267  0.3813408045999583
  0.5876491611365016  0.0938892240201956  0.5453516870437030
  0.8992460876380092  0.4736709830648414  0.5598238224910779
  0.5315206174598436  0.4307456935864571  0.5534897057724572
  0.0527374834939503  0.0119929210433566  0.3813444877259806
  0.5452965346700932  0.1026991434117574  0.5452187628131148
  0.8986070011547552  0.4258941693650076  0.5600049661501680
  0.5781556386401268  0.4798337546139502  0.5533042756730383
  0.9699342979382999  0.9055233116560856  0.4673090467776092
  0.5827702971509270  0.0123639632890305  0.5466311563796918
  0.9726930628202216  0.5591286458691701  0.5612188038383732
  0.4438545679692898  0.4121203573374220  0.5546427653962767
  0.0188497944454063  0.9337931842818579  0.4355512300883246
  0.5707293356861043  0.0457598588285693  0.5810751413146076
  0.9452552421107961  0.5116645096166510  0.5954629172292892
  0.4918222214257459  0.4353518232673743  0.5888332421673913
  0.9699317575248442  0.9055226167395770  0.5328519876870137
  0.5456675474385301  0.9575025999950448  0.5464894497258164
  0.0288953188128750  0.5870955870712712  0.5611818534955053
  0.4132306312285591  0.4369440865907895  0.5546581506626463
  0.9047696997785487  0.9345443761394441  0.5328438222406877
  0.5455954483709758  0.9575137908897161  0.4330500152260183
  0.0289222744630549  0.5869969307647666  0.4476073220771187
  0.4133768236732233  0.4371331898345741  0.4409893623040995
  0.9327879355803573  0.9142172205643779  0.5646185338787186
  0.5324783644772071  0.9299660482457407  0.4897389302338352
  0.0560190472342623  0.6056864016825696  0.5044023429311353
  0.3936945549628585  0.4438955916250112  0.4978058350174560
  0.9348079266556329  0.0289865608200119  0.5328413850800817
  0.4814374564396237  0.9726280839720122  0.3758595909359628
  0.0280962207648248  0.5139432389682544  0.3907044466489569
  0.4846488074829877  0.5123865258597793  0.3839737422273086
  0.9139632480574644  0.9804429652382537  0.5645862541866309
  0.4979681702510866  0.9382492553588984  0.3986461894452236
  0.0555335613944919  0.5663952680080963  0.4132473263494666
  0.4317622106642299  0.4840955943025659  0.4064739843776577
  0.9811502108238523  0.0662086530348322  0.5646110165806246
  0.4292981252636457  0.9542507294348653  0.3984774137590422
  0.0547068431563848  0.4883072869123651  0.4131604470486887
  0.5080886659836097  0.5646117034736862  0.4066442032410835
  0.0300645634633990  0.0944748672907890  0.4673079566660875
  0.4544030333290324  0.0424907816928057  0.4330620793877332
  0.9710786618911929  0.4130052930272679  0.4476105283495726
  0.5866091345406336  0.5628537683468501  0.4409655842817654
  0.0672083747346928  0.0857785098779314  0.4355466165026793
  0.4675229991410321  0.0700335667977024  0.4897557792525380
  0.9439803153698116  0.3943161217642127  0.5044014064716024
  0.6063030124400824  0.5560969231325955  0.4977805711828600
  0.0300658208821181  0.0944761558274427  0.5328504256147243
  0.4172934379533224  0.9876308130476847  0.4329790773428873
  0.0272979073360307  0.4409532564046315  0.4475543591266081
  0.5559545278883905  0.5877170688200634  0.4410396918840632
  0.0860290872379839  0.0195537329523751  0.4355767164982987
  0.5019592045507475  0.0617013273952221  0.5808719129531981
  0.9444249402141209  0.4335305834260303  0.5953820474268916
  0.5681833857026362  0.5159580421871041  0.5889844492890424
  0.0651912390622873  0.9710137371645207  0.4673229704287456
  0.5185657172666073  0.0273873704965366  0.6036645422881346
  0.9718847057877636  0.4860195053251727  0.6177315405928420
  0.5153262505087765  0.4876008607146846  0.6113914827623801
  0.0952248676375940  0.0654516852992332  0.4673209624987487
  0.4543332788053085  0.0424918766223710  0.5465029269931134
  0.9711022056006912  0.4129066767723177  0.5611813316222789
  0.5867789055767488  0.5630570045997040  0.5546356641529842
  0.0188471678527007  0.9337907045477823  0.5646126073395040
  0.4980447924296565  0.9382918636545355  0.5808607013430227
  0.0555715849901056  0.5664727641011864  0.5953856241390005
  0.4318297453944255  0.4840442702737536  0.5890011037032163
  0.0651902114323804  0.9710125341319484  0.5328435881050387
  0.4814363367893938  0.9726018445661569  0.6036610182701534
  0.0281105722732642  0.5139819370118217  0.6177348703509603
  0.4846909895163620  0.5124074997925012  0.6113925415901335
  0.9588231281201534  0.9474475562908863  0.6188190401538660
  0.4754902800745394  0.8920871180970401  0.4896559596067493
  0.1014611516862635  0.5977312667257899  0.5044322918159452
  0.3982587424729919  0.4955915309084106  0.4978665398496873
  0.9472582010034397  0.9880055397239248  0.6188118928234034
  0.4545462109819408  0.8970547012189360  0.4340258367317743
  0.1010897100700963  0.5738429813391773  0.4488401511466564
  0.4217025768592880  0.5202576629777681  0.4422147088569757
  0.9884425825158299  0.0405737059156629  0.6188152469652203
  0.4122579728509843  0.9059808687245134  0.4339855291049876
  0.1007938732082247  0.5263339509252262  0.4487964253393224
  0.4684053286273665  0.5690812673101435  0.4422392827190836
  0.0115548333124696  0.9594258062923052  0.6188164735185799
  0.4547071826576221  0.8972966692114003  0.5452065074201474
  0.1013921287657640  0.5741112311334258  0.5600126291495366
  0.4218489713032185  0.5201643907297513  0.5533211930681570
  0.0672096367943205  0.0857816068038588  0.5646186278200345
  0.3949693545367987  0.9620724898009803  0.4898016828223557
  0.0542459970453253  0.4493175779918822  0.5043734172434463
  0.5464032782080116  0.6051134203934614  0.4978172069692581
  0.0952282257427800  0.0654544650518452  0.5328445498940796
  0.4172302190965286  0.9876273717895434  0.5466373438378490
  0.0273042426090612  0.4408723153321596  0.5612230385323186
  0.5561523269953913  0.5878788292091980  0.5546235845878570
  0.0860336100951618  0.0195556966409130  0.5645888276099631
  0.4292731304845852  0.9542311534010768  0.5810730466697758
  0.0547404053757981  0.4883354920780852  0.5954698344699463
  0.5081909988080132  0.5646523491308705  0.5888240973784635
  0.0411743272627487  0.0525525226964765  0.6188185276758904
  0.3908178939863320  0.9104460400796391  0.4897106362785044
  0.1004473220960237  0.5023824210664821  0.5043910934492044
  0.4916207132058781  0.5936339277787279  0.4978872980862929
  0.0527392436555860  0.0119937281388362  0.6188122262827966
  0.4123521228989608  0.9061075811024688  0.5453467843080340
  0.1007531507878787  0.5263305002262355  0.5598328816590262
  0.4684865590020375  0.5692557870911743  0.5534940335681851
 
  0.00000000E+00  0.00000000E+00  0.00000000E+00
  0.00000000E+00  0.00000000E+00  0.00000000E+00
  0.00000000E+00  0.00000000E+00  0.00000000E+00
  0.00000000E+00  0.00000000E+00  0.00000000E+00
  0.00000000E+00  0.00000000E+00  0.00000000E+00
  0.00000000E+00  0.00000000E+00  0.00000000E+00
  0.00000000E+00  0.00000000E+00  0.00000000E+00
  0.00000000E+00  0.00000000E+00  0.00000000E+00
  0.00000000E+00  0.00000000E+00  0.00000000E+00
  0.00000000E+00  0.00000000E+00  0.00000000E+00
  0.00000000E+00  0.00000000E+00  0.00000000E+00
  0.00000000E+00  0.00000000E+00  0.00000000E+00
  0.00000000E+00  0.00000000E+00  0.00000000E+00
  0.00000000E+00  0.00000000E+00  0.00000000E+00
  0.00000000E+00  0.00000000E+00  0.00000000E+00
  0.00000000E+00  0.00000000E+00  0.00000000E+00
  0.00000000E+00  0.00000000E+00  0.00000000E+00
  0.00000000E+00  0.00000000E+00  0.00000000E+00
  0.00000000E+00  0.00000000E+00  0.00000000E+00
  0.00000000E+00  0.00000000E+00  0.00000000E+00
  0.00000000E+00  0.00000000E+00  0.00000000E+00
  0.00000000E+00  0.00000000E+00  0.00000000E+00
  0.00000000E+00  0.00000000E+00  0.00000000E+00
  0.00000000E+00  0.00000000E+00  0.00000000E+00
  0.00000000E+00  0.00000000E+00  0.00000000E+00
  0.00000000E+00  0.00000000E+00  0.00000000E+00
  0.00000000E+00  0.00000000E+00  0.00000000E+00
  0.00000000E+00  0.00000000E+00  0.00000000E+00
  0.00000000E+00  0.00000000E+00  0.00000000E+00
  0.00000000E+00  0.00000000E+00  0.00000000E+00
  0.00000000E+00  0.00000000E+00  0.00000000E+00
  0.00000000E+00  0.00000000E+00  0.00000000E+00
  0.00000000E+00  0.00000000E+00  0.00000000E+00
  0.00000000E+00  0.00000000E+00  0.00000000E+00
  0.00000000E+00  0.00000000E+00  0.00000000E+00
  0.00000000E+00  0.00000000E+00  0.00000000E+00
  0.00000000E+00  0.00000000E+00  0.00000000E+00
  0.00000000E+00  0.00000000E+00  0.00000000E+00
  0.00000000E+00  0.00000000E+00  0.00000000E+00
  0.00000000E+00  0.00000000E+00  0.00000000E+00
  0.00000000E+00  0.00000000E+00  0.00000000E+00
  0.00000000E+00  0.00000000E+00  0.00000000E+00
  0.00000000E+00  0.00000000E+00  0.00000000E+00
  0.00000000E+00  0.00000000E+00  0.00000000E+00
  0.00000000E+00  0.00000000E+00  0.00000000E+00
  0.00000000E+00  0.00000000E+00  0.00000000E+00
  0.00000000E+00  0.00000000E+00  0.00000000E+00
  0.00000000E+00  0.00000000E+00  0.00000000E+00
  0.00000000E+00  0.00000000E+00  0.00000000E+00
  0.00000000E+00  0.00000000E+00  0.00000000E+00
  0.00000000E+00  0.00000000E+00  0.00000000E+00
  0.00000000E+00  0.00000000E+00  0.00000000E+00
  0.00000000E+00  0.00000000E+00  0.00000000E+00
  0.00000000E+00  0.00000000E+00  0.00000000E+00
  0.00000000E+00  0.00000000E+00  0.00000000E+00
  0.00000000E+00  0.00000000E+00  0.00000000E+00
  0.00000000E+00  0.00000000E+00  0.00000000E+00
  0.00000000E+00  0.00000000E+00  0.00000000E+00
  0.00000000E+00  0.00000000E+00  0.00000000E+00
  0.00000000E+00  0.00000000E+00  0.00000000E+00
  0.00000000E+00  0.00000000E+00  0.00000000E+00
  0.00000000E+00  0.00000000E+00  0.00000000E+00
  0.00000000E+00  0.00000000E+00  0.00000000E+00
  0.00000000E+00  0.00000000E+00  0.00000000E+00
  0.00000000E+00  0.00000000E+00  0.00000000E+00
  0.00000000E+00  0.00000000E+00  0.00000000E+00
  0.00000000E+00  0.00000000E+00  0.00000000E+00
  0.00000000E+00  0.00000000E+00  0.00000000E+00
  0.00000000E+00  0.00000000E+00  0.00000000E+00
  0.00000000E+00  0.00000000E+00  0.00000000E+00
  0.00000000E+00  0.00000000E+00  0.00000000E+00
  0.00000000E+00  0.00000000E+00  0.00000000E+00
  0.00000000E+00  0.00000000E+00  0.00000000E+00
  0.00000000E+00  0.00000000E+00  0.00000000E+00
  0.00000000E+00  0.00000000E+00  0.00000000E+00
  0.00000000E+00  0.00000000E+00  0.00000000E+00
  0.00000000E+00  0.00000000E+00  0.00000000E+00
  0.00000000E+00  0.00000000E+00  0.00000000E+00
  0.00000000E+00  0.00000000E+00  0.00000000E+00
  0.00000000E+00  0.00000000E+00  0.00000000E+00
  0.00000000E+00  0.00000000E+00  0.00000000E+00
  0.00000000E+00  0.00000000E+00  0.00000000E+00
  0.00000000E+00  0.00000000E+00  0.00000000E+00
  0.00000000E+00  0.00000000E+00  0.00000000E+00
  0.00000000E+00  0.00000000E+00  0.00000000E+00
  0.00000000E+00  0.00000000E+00  0.00000000E+00
  0.00000000E+00  0.00000000E+00  0.00000000E+00
  0.00000000E+00  0.00000000E+00  0.00000000E+00
  0.00000000E+00  0.00000000E+00  0.00000000E+00
  0.00000000E+00  0.00000000E+00  0.00000000E+00
  0.00000000E+00  0.00000000E+00  0.00000000E+00
  0.00000000E+00  0.00000000E+00  0.00000000E+00
  0.00000000E+00  0.00000000E+00  0.00000000E+00
  0.00000000E+00  0.00000000E+00  0.00000000E+00
  0.00000000E+00  0.00000000E+00  0.00000000E+00
  0.00000000E+00  0.00000000E+00  0.00000000E+00
  0.00000000E+00  0.00000000E+00  0.00000000E+00
  0.00000000E+00  0.00000000E+00  0.00000000E+00
  0.00000000E+00  0.00000000E+00  0.00000000E+00
  0.00000000E+00  0.00000000E+00  0.00000000E+00
  0.00000000E+00  0.00000000E+00  0.00000000E+00
  0.00000000E+00  0.00000000E+00  0.00000000E+00
  0.00000000E+00  0.00000000E+00  0.00000000E+00
  0.00000000E+00  0.00000000E+00  0.00000000E+00
  0.00000000E+00  0.00000000E+00  0.00000000E+00
  0.00000000E+00  0.00000000E+00  0.00000000E+00
  0.00000000E+00  0.00000000E+00  0.00000000E+00
  0.00000000E+00  0.00000000E+00  0.00000000E+00
  0.00000000E+00  0.00000000E+00  0.00000000E+00
  0.00000000E+00  0.00000000E+00  0.00000000E+00
  0.00000000E+00  0.00000000E+00  0.00000000E+00
  0.00000000E+00  0.00000000E+00  0.00000000E+00
  0.00000000E+00  0.00000000E+00  0.00000000E+00
  0.00000000E+00  0.00000000E+00  0.00000000E+00
  0.00000000E+00  0.00000000E+00  0.00000000E+00
  0.00000000E+00  0.00000000E+00  0.00000000E+00
  0.00000000E+00  0.00000000E+00  0.00000000E+00
  0.00000000E+00  0.00000000E+00  0.00000000E+00
  0.00000000E+00  0.00000000E+00  0.00000000E+00
  0.00000000E+00  0.00000000E+00  0.00000000E+00
  0.00000000E+00  0.00000000E+00  0.00000000E+00
  0.00000000E+00  0.00000000E+00  0.00000000E+00
  0.00000000E+00  0.00000000E+00  0.00000000E+00
  0.00000000E+00  0.00000000E+00  0.00000000E+00
  0.00000000E+00  0.00000000E+00  0.00000000E+00
  0.00000000E+00  0.00000000E+00  0.00000000E+00
  0.00000000E+00  0.00000000E+00  0.00000000E+00
  0.00000000E+00  0.00000000E+00  0.00000000E+00
  0.00000000E+00  0.00000000E+00  0.00000000E+00
  0.00000000E+00  0.00000000E+00  0.00000000E+00
  0.00000000E+00  0.00000000E+00  0.00000000E+00
  0.00000000E+00  0.00000000E+00  0.00000000E+00
  0.00000000E+00  0.00000000E+00  0.00000000E+00
  0.00000000E+00  0.00000000E+00  0.00000000E+00
  0.00000000E+00  0.00000000E+00  0.00000000E+00
  0.00000000E+00  0.00000000E+00  0.00000000E+00
  0.00000000E+00  0.00000000E+00  0.00000000E+00
  0.00000000E+00  0.00000000E+00  0.00000000E+00
  0.00000000E+00  0.00000000E+00  0.00000000E+00
  0.00000000E+00  0.00000000E+00  0.00000000E+00
  0.00000000E+00  0.00000000E+00  0.00000000E+00
  0.00000000E+00  0.00000000E+00  0.00000000E+00
  0.00000000E+00  0.00000000E+00  0.00000000E+00
  0.00000000E+00  0.00000000E+00  0.00000000E+00
  0.00000000E+00  0.00000000E+00  0.00000000E+00
  0.00000000E+00  0.00000000E+00  0.00000000E+00
  0.00000000E+00  0.00000000E+00  0.00000000E+00
  0.00000000E+00  0.00000000E+00  0.00000000E+00
  0.00000000E+00  0.00000000E+00  0.00000000E+00
  0.00000000E+00  0.00000000E+00  0.00000000E+00
  0.00000000E+00  0.00000000E+00  0.00000000E+00
  0.00000000E+00  0.00000000E+00  0.00000000E+00
  0.00000000E+00  0.00000000E+00  0.00000000E+00
  0.00000000E+00  0.00000000E+00  0.00000000E+00
  0.00000000E+00  0.00000000E+00  0.00000000E+00
  0.00000000E+00  0.00000000E+00  0.00000000E+00
  0.00000000E+00  0.00000000E+00  0.00000000E+00
  0.00000000E+00  0.00000000E+00  0.00000000E+00
  0.00000000E+00  0.00000000E+00  0.00000000E+00
  0.00000000E+00  0.00000000E+00  0.00000000E+00
  0.00000000E+00  0.00000000E+00  0.00000000E+00
  0.00000000E+00  0.00000000E+00  0.00000000E+00
  0.00000000E+00  0.00000000E+00  0.00000000E+00
  0.00000000E+00  0.00000000E+00  0.00000000E+00
  0.00000000E+00  0.00000000E+00  0.00000000E+00
  0.00000000E+00  0.00000000E+00  0.00000000E+00
  0.00000000E+00  0.00000000E+00  0.00000000E+00
  0.00000000E+00  0.00000000E+00  0.00000000E+00
  0.00000000E+00  0.00000000E+00  0.00000000E+00
  0.00000000E+00  0.00000000E+00  0.00000000E+00
  0.00000000E+00  0.00000000E+00  0.00000000E+00
  0.00000000E+00  0.00000000E+00  0.00000000E+00
  0.00000000E+00  0.00000000E+00  0.00000000E+00
  0.00000000E+00  0.00000000E+00  0.00000000E+00
  0.00000000E+00  0.00000000E+00  0.00000000E+00
  0.00000000E+00  0.00000000E+00  0.00000000E+00
  0.00000000E+00  0.00000000E+00  0.00000000E+00
  0.00000000E+00  0.00000000E+00  0.00000000E+00
  0.00000000E+00  0.00000000E+00  0.00000000E+00
  0.00000000E+00  0.00000000E+00  0.00000000E+00
  0.00000000E+00  0.00000000E+00  0.00000000E+00
  0.00000000E+00  0.00000000E+00  0.00000000E+00
  0.00000000E+00  0.00000000E+00  0.00000000E+00
  0.00000000E+00  0.00000000E+00  0.00000000E+00
  0.00000000E+00  0.00000000E+00  0.00000000E+00
  0.00000000E+00  0.00000000E+00  0.00000000E+00
  0.00000000E+00  0.00000000E+00  0.00000000E+00
  0.00000000E+00  0.00000000E+00  0.00000000E+00
  0.00000000E+00  0.00000000E+00  0.00000000E+00
  0.00000000E+00  0.00000000E+00  0.00000000E+00
  0.00000000E+00  0.00000000E+00  0.00000000E+00
  0.00000000E+00  0.00000000E+00  0.00000000E+00
  0.00000000E+00  0.00000000E+00  0.00000000E+00
  0.00000000E+00  0.00000000E+00  0.00000000E+00
  0.00000000E+00  0.00000000E+00  0.00000000E+00
  0.00000000E+00  0.00000000E+00  0.00000000E+00
  0.00000000E+00  0.00000000E+00  0.00000000E+00
  0.00000000E+00  0.00000000E+00  0.00000000E+00
  0.00000000E+00  0.00000000E+00  0.00000000E+00
  0.00000000E+00  0.00000000E+00  0.00000000E+00
  0.00000000E+00  0.00000000E+00  0.00000000E+00
  0.00000000E+00  0.00000000E+00  0.00000000E+00
  0.00000000E+00  0.00000000E+00  0.00000000E+00
  0.00000000E+00  0.00000000E+00  0.00000000E+00
  0.00000000E+00  0.00000000E+00  0.00000000E+00
  0.00000000E+00  0.00000000E+00  0.00000000E+00
  0.00000000E+00  0.00000000E+00  0.00000000E+00
  0.00000000E+00  0.00000000E+00  0.00000000E+00
  0.00000000E+00  0.00000000E+00  0.00000000E+00
  0.00000000E+00  0.00000000E+00  0.00000000E+00
  0.00000000E+00  0.00000000E+00  0.00000000E+00
  0.00000000E+00  0.00000000E+00  0.00000000E+00
  0.00000000E+00  0.00000000E+00  0.00000000E+00
  0.00000000E+00  0.00000000E+00  0.00000000E+00
  0.00000000E+00  0.00000000E+00  0.00000000E+00
  0.00000000E+00  0.00000000E+00  0.00000000E+00
  0.00000000E+00  0.00000000E+00  0.00000000E+00
  0.00000000E+00  0.00000000E+00  0.00000000E+00
  0.00000000E+00  0.00000000E+00  0.00000000E+00
  0.00000000E+00  0.00000000E+00  0.00000000E+00
  0.00000000E+00  0.00000000E+00  0.00000000E+00
  0.00000000E+00  0.00000000E+00  0.00000000E+00
  0.00000000E+00  0.00000000E+00  0.00000000E+00
  0.00000000E+00  0.00000000E+00  0.00000000E+00
  0.00000000E+00  0.00000000E+00  0.00000000E+00
  0.00000000E+00  0.00000000E+00  0.00000000E+00
  0.00000000E+00  0.00000000E+00  0.00000000E+00
  0.00000000E+00  0.00000000E+00  0.00000000E+00
  0.00000000E+00  0.00000000E+00  0.00000000E+00
  0.00000000E+00  0.00000000E+00  0.00000000E+00
  0.00000000E+00  0.00000000E+00  0.00000000E+00
  0.00000000E+00  0.00000000E+00  0.00000000E+00
  0.00000000E+00  0.00000000E+00  0.00000000E+00
  0.00000000E+00  0.00000000E+00  0.00000000E+00
  0.00000000E+00  0.00000000E+00  0.00000000E+00
  0.00000000E+00  0.00000000E+00  0.00000000E+00
  0.00000000E+00  0.00000000E+00  0.00000000E+00
  0.00000000E+00  0.00000000E+00  0.00000000E+00
  0.00000000E+00  0.00000000E+00  0.00000000E+00
  0.00000000E+00  0.00000000E+00  0.00000000E+00
  0.00000000E+00  0.00000000E+00  0.00000000E+00
  0.00000000E+00  0.00000000E+00  0.00000000E+00
  0.00000000E+00  0.00000000E+00  0.00000000E+00
  0.00000000E+00  0.00000000E+00  0.00000000E+00
  0.00000000E+00  0.00000000E+00  0.00000000E+00
  0.00000000E+00  0.00000000E+00  0.00000000E+00
  0.00000000E+00  0.00000000E+00  0.00000000E+00
  0.00000000E+00  0.00000000E+00  0.00000000E+00
  0.00000000E+00  0.00000000E+00  0.00000000E+00
  0.00000000E+00  0.00000000E+00  0.00000000E+00
  0.00000000E+00  0.00000000E+00  0.00000000E+00
  0.00000000E+00  0.00000000E+00  0.00000000E+00
  0.00000000E+00  0.00000000E+00  0.00000000E+00
  0.00000000E+00  0.00000000E+00  0.00000000E+00
  0.00000000E+00  0.00000000E+00  0.00000000E+00
  0.00000000E+00  0.00000000E+00  0.00000000E+00
  0.00000000E+00  0.00000000E+00  0.00000000E+00
  0.00000000E+00  0.00000000E+00  0.00000000E+00
  0.00000000E+00  0.00000000E+00  0.00000000E+00
  0.00000000E+00  0.00000000E+00  0.00000000E+00
  0.00000000E+00  0.00000000E+00  0.00000000E+00
  0.00000000E+00  0.00000000E+00  0.00000000E+00
  0.00000000E+00  0.00000000E+00  0.00000000E+00
  0.00000000E+00  0.00000000E+00  0.00000000E+00
