Generated by VASPKIT code               
   1.00000000000000     
    15.9252162497572378   -2.5549846957408047    0.0000000000000000
    -2.6271258002274216   16.2009959015381177    0.0000000000000000
     0.0000000000000011    0.0000000000000011   21.9309676232947623
   C 
   192
Direct
  0.5930234278206651  0.3417159072529690  0.4668467397225452
  0.8623480562841038  0.0272438148446423  0.3790219014425663
  0.5930413254725986  0.3417264320321259  0.5331411284231949
  0.9301428832360183  0.1094961463647502  0.3785952663569331
  0.6607731645160367  0.4141258981297470  0.5541243177356194
  0.9190751201143017  0.1536269648714545  0.4334795235547951
  0.6607526528048032  0.4141023223667997  0.4458352521747321
  0.8127298601665796  0.0230207008544976  0.4341082880368883
  0.7141465716153010  0.4562767375828523  0.4999757259359363
  0.8467052633898751  0.1010405195072845  0.4679725570927409
  0.6479328342157153  0.4574228926671599  0.3941772936511488
  0.7798518884774904  0.9475592091961973  0.4667936945335222
  0.5672333629528670  0.4272876632823787  0.3604365767070484
  0.7945714624669619  0.8711285600268325  0.4456494890195816
  0.5156537281685927  0.3109608377719372  0.4342704932013672
  0.8793433615956913  0.9533961275500500  0.3584132357437875
  0.5016104572281146  0.3533067987797206  0.3798644179919289
  0.8443530219550128  0.8742543077242979  0.3925713245469876
  0.4353924074082529  0.2808376279839362  0.4681122112998844
  0.9667164114721816  0.9597423797239469  0.3376621677700543
  0.5156970904140148  0.3109799744097384  0.5657471116100601
  0.0143695901866265  0.1159821336233874  0.3583561309459300
  0.4354126407844367  0.2808447190447850  0.5319344925299856
  0.0332244188421148  0.0399615306615776  0.3376238770788347
  0.5016925454647594  0.3533499286420686  0.6201541408553736
  0.0899155953237444  0.1681953451023870  0.3925031383027018
  0.6480014950245480  0.4574630952118289  0.6057836105476210
  0.9914003722186326  0.1987966881201515  0.4667567606159608
  0.5673280949891699  0.4273404386065183  0.6395537406927675
  0.0780086200568189  0.2085919743322475  0.4460235637346758
  0.6753585486157009  0.5519077372207351  0.6059052728049734
  0.9914074117349532  0.1989269348825594  0.5330282034975858
  0.7405272731083598  0.5563899372161627  0.4999482609767259
  0.8467213842941228  0.1010947838732533  0.5319044100380981
  0.7119941512102135  0.5961470560182293  0.5538155317626046
  0.9191048285339515  0.1537285938341016  0.5663458337304830
  0.6752861625652903  0.5518683562386381  0.3940258474580249
  0.7798684698622820  0.9476187386056895  0.5332303512880959
  0.7119398918068914  0.5961250085044153  0.4461018640901967
  0.8127563403610251  0.0231334568603601  0.5658428193425981
  0.5437924737278168  0.5013729443088700  0.3399176548387780
  0.8062159163983686  0.8262294028844830  0.5000720192199647
  0.6114225302327440  0.5782524320446680  0.3601857417361604
  0.7945914947623726  0.8712249118693385  0.5544520957710616
  0.4560942417836413  0.4985639300847549  0.3399328838511483
  0.8697179175848851  0.7865145411837825  0.5000957541115814
  0.4108997370050946  0.3498695647226085  0.3794610124137245
  0.9100506787218612  0.8316146770274586  0.3926711878483293
  0.3707943961748597  0.3043635856985990  0.4336716555870632
  0.9855790331176282  0.8837612217557644  0.3584779700042267
  0.3884780224789072  0.4216949671692854  0.3602351984130017
  0.9219738421485459  0.7913046358131296  0.4462277376427690
  0.3122396265438636  0.3330674878152111  0.4669404378638084
  0.0698086017586795  0.8902865179657667  0.3787247249554789
  0.3708389483625379  0.3043826281833679  0.5663945357777094
  0.1206080306628768  0.0463464139339995  0.3583799202963712
  0.4109821136488661  0.3499119426709741  0.6205885090764641
  0.1556128308001034  0.1255530986317928  0.3924621167504327
  0.3122645514652704  0.3330778246778594  0.5331418952615531
  0.1376094043395310  0.9725398689729130  0.3790673734393751
  0.3885753032277174  0.4217468830784428  0.6398156563691175
  0.2054095362256250  0.1287739528781270  0.4455455878119293
  0.5439036132771721  0.5014357523015034  0.6600685305905829
  0.1302837275251889  0.2134845759757433  0.4999019867437107
  0.6115197983272671  0.5783044300670778  0.6397661745085352
  0.0780275052554381  0.2086948667360261  0.5537700120636060
  0.4562054011827565  0.4986268055152678  0.6600837393410663
  0.1937848358461055  0.1737698200800372  0.4999257419625274
  0.5890979543755264  0.6501302577222263  0.6205403808075988
  0.0899507783091407  0.1683844954287629  0.6073264980258802
  0.6877583462001757  0.6669323371165338  0.5330611148994394
  0.9301930495064833  0.1097127302103957  0.6212730129334876
  0.6877334624259088  0.6669218600885941  0.4668593931392098
  0.8623919582704613  0.0274592759997305  0.6209303206365404
  0.6292034387242252  0.6956361357767945  0.5663297176449782
  0.0144223032083993  0.1162380936771542  0.6415197536123857
  0.5890155956692568  0.6500878767686759  0.3794129885722661
  0.8443883805853390  0.8744462008517870  0.6075356606463842
  0.6291589164319752  0.6956169349944035  0.4336069130227092
  0.8793934547483951  0.9536527731570916  0.6416178442839363
  0.4326696044807969  0.5726592481680907  0.3604478046792697
  0.9219926907642650  0.7914074781810264  0.5539740923536465
  0.4983053644607550  0.6466496035470535  0.3798472311758859
  0.9100858425278637  0.8318038161662813  0.6074945036430509
  0.3246390051708423  0.4480917656870125  0.3940962083413779
  0.0085938120622371  0.8010729411859955  0.4669695371576568
  0.2880035747063819  0.4038527770406929  0.4461859800249307
  0.0808967930273667  0.8462705643865878  0.4336517789952898
  0.3519962545632084  0.5425367233453344  0.3942178306050214
  0.0086009614845985  0.8012023361456879  0.5332408400171347
  0.2880579632524417  0.4038749073678772  0.5538995535274495
  0.1872454056524677  0.9768657801286464  0.4341548838696606
  0.3247115895715239  0.4481311071210806  0.6059756069728321
  0.2201327177872127  0.0523803098508701  0.4667673642622339
  0.2594710895035147  0.4436099176269712  0.5000532611087583
  0.1532802018772720  0.8989043117689679  0.4680933661476107
  0.4327644364918424  0.5727120540953475  0.6395646894840872
  0.2054296913040636  0.1288704539593067  0.5543483487001910
  0.4983875155757402  0.6466929627064893  0.6201370553639849
  0.1556482815180934  0.1257450455920495  0.6074263632857669
  0.3520650347500940  0.5425769421991934  0.6058240734947427
  0.2201494417839635  0.0524398859172597  0.5332040817127741
  0.5646054909808098  0.7191621685035261  0.5318890308221684
  0.0332849829309035  0.0402568407646700  0.6623356755127097
  0.5645850580172732  0.7191549072235648  0.4680670846051876
  0.9667769451406830  0.9600376714211868  0.6623738544963146
  0.4843005228022601  0.6890194522867693  0.4342543578566750
  0.9856317311718625  0.8840171986323210  0.6416416056325421
  0.4843438020240879  0.6890390034870633  0.5657309191766751
  0.1206581341574126  0.0466031230636760  0.6415845497555299
  0.3392246951249231  0.5858737116866429  0.4458769471432972
  0.0809263048689338  0.8463724130306114  0.5665182413535823
  0.2858518204977168  0.5437230067990582  0.5000258065226426
  0.1532962887983500  0.8989586960580949  0.5320251859417484
  0.3392454822032102  0.5858974370335361  0.5541663729030072
  0.1872716104927749  0.9769786087264711  0.5658894932907711
  0.4069565391553817  0.6582732970356575  0.4668603259432513
  0.0698586239750775  0.8905031026395481  0.6214024044828401
  0.4069743701414844  0.6582838921902331  0.5331546702257360
  0.1376532911091755  0.9727554639081329  0.6209759009829907
  0.4153142577110789  0.8155966456465326  0.5000097330515504
  0.1624051366818831  0.4372643457641153  0.5000958157768838
  0.3884923969857692  0.8396482843197209  0.5576214029418649
  0.1109550381165416  0.4105300114482557  0.5572223701937898
  0.4668213330182588  0.8816213961230404  0.5954516625395184
  0.1067024127761071  0.4840637900538531  0.5914982596343379
  0.5083097803786436  0.8467655546921622  0.5000045452218846
  0.1877731491108455  0.5376523071553478  0.5000052814157848
  0.5395213349151522  0.8848177661739742  0.5582081216692283
  0.1474687722691671  0.5589246535363473  0.5580693183449096
  0.5395086000252886  0.8848072512051708  0.4417957527080666
  0.1474455747825625  0.5587035201079775  0.4418698895877129
  0.3884799094619452  0.8396382035703639  0.4423991782550507
  0.1108986736375150  0.4103188886282622  0.4430269886705274
  0.4668002605349753  0.8816039984012592  0.4045590711045127
  0.1066433673651436  0.4837088399615950  0.4085888549018523
  0.3368702872667902  0.8929961755138235  0.4426003489234794
  0.0276165809855285  0.3542867145260865  0.4437278098971800
  0.3368827196144440  0.8930065450783935  0.5574213194546527
  0.0276603924849232  0.3545112994398324  0.5566141893448494
  0.3143745963506205  0.9203500260703599  0.5000111947586363
  0.9852977405829232  0.3255369737887772  0.5001982829057768
  0.4613177924591977  0.9623064746722471  0.6178749589041190
  0.0187126038978804  0.4664900042314877  0.6173428628398732
  0.3807112244277176  0.9700075333019514  0.5951575098323502
  0.9687791390584127  0.3856113301264024  0.5938043621490559
  0.5387107010168440  0.0377172977059988  0.6178686954915020
  0.9813596492758546  0.5339728841463972  0.6172562831806135
  0.6139830817026556  0.9579448912832880  0.5581312136401934
  0.1089757349426595  0.6245458861619354  0.5575683038001826
  0.6193117167508828  0.0300119328116581  0.5951441550675917
  0.0312756712657209  0.6147607999658047  0.5935668095865128
  0.6139702600010791  0.9579339392680829  0.4418605971086793
  0.1089503329110488  0.6243237583710065  0.4422077740944409
  0.6535597741189005  0.9877754087533281  0.4999927128968463
  0.0992264318936998  0.6621591054813513  0.4998452268838874
  0.6192913129274732  0.0299945462522369  0.4048418330752129
  0.0312195425169923  0.6143884114300138  0.4061976685797865
  0.4612919723259604  0.9622847818417557  0.3821306829459458
  0.0186389736398348  0.4660266205356376  0.3827457345501511
  0.3806909278860229  0.9699901408726318  0.4048551994688994
  0.9687230507636218  0.3852388494253337  0.4064353280088727
  0.5386848780323555  0.0376955906940967  0.3821243581192084
  0.9812861362153783  0.5335096475039595  0.3826592192117453
  0.3464426986003041  0.0122268547046558  0.5000066375673453
  0.9007725985148595  0.3378405301654664  0.5001568683112468
  0.3860323476737429  0.0420681639430447  0.5581387648087685
  0.8910482777963721  0.3756758361656188  0.5577942502502262
  0.3860195830046489  0.0420572564969504  0.4418681121157654
  0.8910229043219183  0.3754537263368031  0.4424337996145097
  0.5332024710109412  0.1183981295866206  0.5954403107300942
  0.8933551611699933  0.5162909846415837  0.5914131262361287
  0.4604941244642996  0.1151947219626978  0.5582035904085835
  0.8525527658322044  0.4412961804117477  0.5581321346212090
  0.6631325288760630  0.1070060780277428  0.5573989818487929
  0.9723818562725675  0.6457126970129102  0.5562741870374869
  0.6856281346500229  0.0796520929885369  0.4999881376699541
  0.0147012707749874  0.6744628877905108  0.4998039440723835
  0.6631199800971567  0.1069956999593851  0.4425780413514740
  0.9723381667783182  0.6454885166810891  0.4433880374124796
  0.6115229627135648  0.1603639772398133  0.5576001841967523
  0.8890996686750321  0.5896809506561188  0.5569749690324567
  0.5331813643838212  0.1183808303575518  0.4045476263055466
  0.8932963093237684  0.5159361116013199  0.4085037998051741
  0.4604813926555276  0.1151843233887820  0.4417912248162055
  0.8525297700267320  0.4410750675489564  0.4419326541635546
  0.4916930940778209  0.1532362049213112  0.4999947811114595
  0.8122251690035015  0.4623472487756433  0.4999966392011228
  0.6115104557090408  0.1603539921902266  0.4423778851676147
  0.8890435532969109  0.5894698079400525  0.4427797680144221
  0.5846884906770540  0.1844054297122390  0.4999896094285786
  0.8375927728237956  0.5627348107107568  0.4999061530724166
 
  0.00000000E+00  0.00000000E+00  0.00000000E+00
  0.00000000E+00  0.00000000E+00  0.00000000E+00
  0.00000000E+00  0.00000000E+00  0.00000000E+00
  0.00000000E+00  0.00000000E+00  0.00000000E+00
  0.00000000E+00  0.00000000E+00  0.00000000E+00
  0.00000000E+00  0.00000000E+00  0.00000000E+00
  0.00000000E+00  0.00000000E+00  0.00000000E+00
  0.00000000E+00  0.00000000E+00  0.00000000E+00
  0.00000000E+00  0.00000000E+00  0.00000000E+00
  0.00000000E+00  0.00000000E+00  0.00000000E+00
  0.00000000E+00  0.00000000E+00  0.00000000E+00
  0.00000000E+00  0.00000000E+00  0.00000000E+00
  0.00000000E+00  0.00000000E+00  0.00000000E+00
  0.00000000E+00  0.00000000E+00  0.00000000E+00
  0.00000000E+00  0.00000000E+00  0.00000000E+00
  0.00000000E+00  0.00000000E+00  0.00000000E+00
  0.00000000E+00  0.00000000E+00  0.00000000E+00
  0.00000000E+00  0.00000000E+00  0.00000000E+00
  0.00000000E+00  0.00000000E+00  0.00000000E+00
  0.00000000E+00  0.00000000E+00  0.00000000E+00
  0.00000000E+00  0.00000000E+00  0.00000000E+00
  0.00000000E+00  0.00000000E+00  0.00000000E+00
  0.00000000E+00  0.00000000E+00  0.00000000E+00
  0.00000000E+00  0.00000000E+00  0.00000000E+00
  0.00000000E+00  0.00000000E+00  0.00000000E+00
  0.00000000E+00  0.00000000E+00  0.00000000E+00
  0.00000000E+00  0.00000000E+00  0.00000000E+00
  0.00000000E+00  0.00000000E+00  0.00000000E+00
  0.00000000E+00  0.00000000E+00  0.00000000E+00
  0.00000000E+00  0.00000000E+00  0.00000000E+00
  0.00000000E+00  0.00000000E+00  0.00000000E+00
  0.00000000E+00  0.00000000E+00  0.00000000E+00
  0.00000000E+00  0.00000000E+00  0.00000000E+00
  0.00000000E+00  0.00000000E+00  0.00000000E+00
  0.00000000E+00  0.00000000E+00  0.00000000E+00
  0.00000000E+00  0.00000000E+00  0.00000000E+00
  0.00000000E+00  0.00000000E+00  0.00000000E+00
  0.00000000E+00  0.00000000E+00  0.00000000E+00
  0.00000000E+00  0.00000000E+00  0.00000000E+00
  0.00000000E+00  0.00000000E+00  0.00000000E+00
  0.00000000E+00  0.00000000E+00  0.00000000E+00
  0.00000000E+00  0.00000000E+00  0.00000000E+00
  0.00000000E+00  0.00000000E+00  0.00000000E+00
  0.00000000E+00  0.00000000E+00  0.00000000E+00
  0.00000000E+00  0.00000000E+00  0.00000000E+00
  0.00000000E+00  0.00000000E+00  0.00000000E+00
  0.00000000E+00  0.00000000E+00  0.00000000E+00
  0.00000000E+00  0.00000000E+00  0.00000000E+00
  0.00000000E+00  0.00000000E+00  0.00000000E+00
  0.00000000E+00  0.00000000E+00  0.00000000E+00
  0.00000000E+00  0.00000000E+00  0.00000000E+00
  0.00000000E+00  0.00000000E+00  0.00000000E+00
  0.00000000E+00  0.00000000E+00  0.00000000E+00
  0.00000000E+00  0.00000000E+00  0.00000000E+00
  0.00000000E+00  0.00000000E+00  0.00000000E+00
  0.00000000E+00  0.00000000E+00  0.00000000E+00
  0.00000000E+00  0.00000000E+00  0.00000000E+00
  0.00000000E+00  0.00000000E+00  0.00000000E+00
  0.00000000E+00  0.00000000E+00  0.00000000E+00
  0.00000000E+00  0.00000000E+00  0.00000000E+00
  0.00000000E+00  0.00000000E+00  0.00000000E+00
  0.00000000E+00  0.00000000E+00  0.00000000E+00
  0.00000000E+00  0.00000000E+00  0.00000000E+00
  0.00000000E+00  0.00000000E+00  0.00000000E+00
  0.00000000E+00  0.00000000E+00  0.00000000E+00
  0.00000000E+00  0.00000000E+00  0.00000000E+00
  0.00000000E+00  0.00000000E+00  0.00000000E+00
  0.00000000E+00  0.00000000E+00  0.00000000E+00
  0.00000000E+00  0.00000000E+00  0.00000000E+00
  0.00000000E+00  0.00000000E+00  0.00000000E+00
  0.00000000E+00  0.00000000E+00  0.00000000E+00
  0.00000000E+00  0.00000000E+00  0.00000000E+00
  0.00000000E+00  0.00000000E+00  0.00000000E+00
  0.00000000E+00  0.00000000E+00  0.00000000E+00
  0.00000000E+00  0.00000000E+00  0.00000000E+00
  0.00000000E+00  0.00000000E+00  0.00000000E+00
  0.00000000E+00  0.00000000E+00  0.00000000E+00
  0.00000000E+00  0.00000000E+00  0.00000000E+00
  0.00000000E+00  0.00000000E+00  0.00000000E+00
  0.00000000E+00  0.00000000E+00  0.00000000E+00
  0.00000000E+00  0.00000000E+00  0.00000000E+00
  0.00000000E+00  0.00000000E+00  0.00000000E+00
  0.00000000E+00  0.00000000E+00  0.00000000E+00
  0.00000000E+00  0.00000000E+00  0.00000000E+00
  0.00000000E+00  0.00000000E+00  0.00000000E+00
  0.00000000E+00  0.00000000E+00  0.00000000E+00
  0.00000000E+00  0.00000000E+00  0.00000000E+00
  0.00000000E+00  0.00000000E+00  0.00000000E+00
  0.00000000E+00  0.00000000E+00  0.00000000E+00
  0.00000000E+00  0.00000000E+00  0.00000000E+00
  0.00000000E+00  0.00000000E+00  0.00000000E+00
  0.00000000E+00  0.00000000E+00  0.00000000E+00
  0.00000000E+00  0.00000000E+00  0.00000000E+00
  0.00000000E+00  0.00000000E+00  0.00000000E+00
  0.00000000E+00  0.00000000E+00  0.00000000E+00
  0.00000000E+00  0.00000000E+00  0.00000000E+00
  0.00000000E+00  0.00000000E+00  0.00000000E+00
  0.00000000E+00  0.00000000E+00  0.00000000E+00
  0.00000000E+00  0.00000000E+00  0.00000000E+00
  0.00000000E+00  0.00000000E+00  0.00000000E+00
  0.00000000E+00  0.00000000E+00  0.00000000E+00
  0.00000000E+00  0.00000000E+00  0.00000000E+00
  0.00000000E+00  0.00000000E+00  0.00000000E+00
  0.00000000E+00  0.00000000E+00  0.00000000E+00
  0.00000000E+00  0.00000000E+00  0.00000000E+00
  0.00000000E+00  0.00000000E+00  0.00000000E+00
  0.00000000E+00  0.00000000E+00  0.00000000E+00
  0.00000000E+00  0.00000000E+00  0.00000000E+00
  0.00000000E+00  0.00000000E+00  0.00000000E+00
  0.00000000E+00  0.00000000E+00  0.00000000E+00
  0.00000000E+00  0.00000000E+00  0.00000000E+00
  0.00000000E+00  0.00000000E+00  0.00000000E+00
  0.00000000E+00  0.00000000E+00  0.00000000E+00
  0.00000000E+00  0.00000000E+00  0.00000000E+00
  0.00000000E+00  0.00000000E+00  0.00000000E+00
  0.00000000E+00  0.00000000E+00  0.00000000E+00
  0.00000000E+00  0.00000000E+00  0.00000000E+00
  0.00000000E+00  0.00000000E+00  0.00000000E+00
  0.00000000E+00  0.00000000E+00  0.00000000E+00
  0.00000000E+00  0.00000000E+00  0.00000000E+00
  0.00000000E+00  0.00000000E+00  0.00000000E+00
  0.00000000E+00  0.00000000E+00  0.00000000E+00
  0.00000000E+00  0.00000000E+00  0.00000000E+00
  0.00000000E+00  0.00000000E+00  0.00000000E+00
  0.00000000E+00  0.00000000E+00  0.00000000E+00
  0.00000000E+00  0.00000000E+00  0.00000000E+00
  0.00000000E+00  0.00000000E+00  0.00000000E+00
  0.00000000E+00  0.00000000E+00  0.00000000E+00
  0.00000000E+00  0.00000000E+00  0.00000000E+00
  0.00000000E+00  0.00000000E+00  0.00000000E+00
  0.00000000E+00  0.00000000E+00  0.00000000E+00
  0.00000000E+00  0.00000000E+00  0.00000000E+00
  0.00000000E+00  0.00000000E+00  0.00000000E+00
  0.00000000E+00  0.00000000E+00  0.00000000E+00
  0.00000000E+00  0.00000000E+00  0.00000000E+00
  0.00000000E+00  0.00000000E+00  0.00000000E+00
  0.00000000E+00  0.00000000E+00  0.00000000E+00
  0.00000000E+00  0.00000000E+00  0.00000000E+00
  0.00000000E+00  0.00000000E+00  0.00000000E+00
  0.00000000E+00  0.00000000E+00  0.00000000E+00
  0.00000000E+00  0.00000000E+00  0.00000000E+00
  0.00000000E+00  0.00000000E+00  0.00000000E+00
  0.00000000E+00  0.00000000E+00  0.00000000E+00
  0.00000000E+00  0.00000000E+00  0.00000000E+00
  0.00000000E+00  0.00000000E+00  0.00000000E+00
  0.00000000E+00  0.00000000E+00  0.00000000E+00
  0.00000000E+00  0.00000000E+00  0.00000000E+00
  0.00000000E+00  0.00000000E+00  0.00000000E+00
  0.00000000E+00  0.00000000E+00  0.00000000E+00
  0.00000000E+00  0.00000000E+00  0.00000000E+00
  0.00000000E+00  0.00000000E+00  0.00000000E+00
  0.00000000E+00  0.00000000E+00  0.00000000E+00
  0.00000000E+00  0.00000000E+00  0.00000000E+00
  0.00000000E+00  0.00000000E+00  0.00000000E+00
  0.00000000E+00  0.00000000E+00  0.00000000E+00
  0.00000000E+00  0.00000000E+00  0.00000000E+00
  0.00000000E+00  0.00000000E+00  0.00000000E+00
  0.00000000E+00  0.00000000E+00  0.00000000E+00
  0.00000000E+00  0.00000000E+00  0.00000000E+00
  0.00000000E+00  0.00000000E+00  0.00000000E+00
  0.00000000E+00  0.00000000E+00  0.00000000E+00
  0.00000000E+00  0.00000000E+00  0.00000000E+00
  0.00000000E+00  0.00000000E+00  0.00000000E+00
  0.00000000E+00  0.00000000E+00  0.00000000E+00
  0.00000000E+00  0.00000000E+00  0.00000000E+00
  0.00000000E+00  0.00000000E+00  0.00000000E+00
  0.00000000E+00  0.00000000E+00  0.00000000E+00
  0.00000000E+00  0.00000000E+00  0.00000000E+00
  0.00000000E+00  0.00000000E+00  0.00000000E+00
  0.00000000E+00  0.00000000E+00  0.00000000E+00
  0.00000000E+00  0.00000000E+00  0.00000000E+00
  0.00000000E+00  0.00000000E+00  0.00000000E+00
  0.00000000E+00  0.00000000E+00  0.00000000E+00
  0.00000000E+00  0.00000000E+00  0.00000000E+00
  0.00000000E+00  0.00000000E+00  0.00000000E+00
  0.00000000E+00  0.00000000E+00  0.00000000E+00
  0.00000000E+00  0.00000000E+00  0.00000000E+00
  0.00000000E+00  0.00000000E+00  0.00000000E+00
  0.00000000E+00  0.00000000E+00  0.00000000E+00
  0.00000000E+00  0.00000000E+00  0.00000000E+00
  0.00000000E+00  0.00000000E+00  0.00000000E+00
  0.00000000E+00  0.00000000E+00  0.00000000E+00
  0.00000000E+00  0.00000000E+00  0.00000000E+00
  0.00000000E+00  0.00000000E+00  0.00000000E+00
  0.00000000E+00  0.00000000E+00  0.00000000E+00
  0.00000000E+00  0.00000000E+00  0.00000000E+00
  0.00000000E+00  0.00000000E+00  0.00000000E+00
  0.00000000E+00  0.00000000E+00  0.00000000E+00
  0.00000000E+00  0.00000000E+00  0.00000000E+00
  0.00000000E+00  0.00000000E+00  0.00000000E+00
  0.00000000E+00  0.00000000E+00  0.00000000E+00
  0.00000000E+00  0.00000000E+00  0.00000000E+00
