Generated by VASPKIT code               
   1.00000000000000     
    22.0400142608763971   -0.0242860226720706    0.0000000000000000
    -0.0242908097184208   22.0324677538570235    0.0000000000000000
     0.0000000000000014    0.0000000000000014   21.9770867682303148
  C             
   264
Direct
  0.6292302561741777  0.0507657960073268  0.5838378441621423
  0.9496345588634243  0.6291662928801206  0.5839122998758356
  0.5795605831640274  0.0759443209153686  0.6194182627235926
  0.9243981407982333  0.5794154852235083  0.6195179263763291
  0.5536005779949781  0.1247047837082350  0.5843316524671012
  0.8755748479411464  0.5532999574015952  0.5844598141418137
  0.6336655877720694  0.0840724804270034  0.5270384521360306
  0.9163322633289392  0.6334404493282731  0.5271135503296712
  0.5863690530093858  0.1288573440651730  0.5274963019150395
  0.8715921335972864  0.5859609771354279  0.5275952226138727
  0.6489826173717986  0.0557695861285612  0.4720552897638456
  0.9445672977437225  0.6488858430803291  0.4720950126785710
  0.6592268957140334  0.9912544751471324  0.4715781983522557
  0.0090777240243794  0.6593214467344529  0.4715404671821731
  0.6390463365349900  0.9883975607123545  0.5835012874920237
  0.0119852276179756  0.6391501188877942  0.5834748208797071
  0.6536680211193907  0.9585922343072230  0.5262906243840239
  0.0417614912837722  0.6538967684368602  0.5262271854052856
  0.5987829268696693  0.9492192220796584  0.6184157642583263
  0.0511143929815066  0.5989906083322902  0.6183778304933530
  0.5409704469899589  0.0383230157155741  0.6533510357125635
  0.9619539029498902  0.5409193179271302  0.6534184017426788
  0.5508633622819782  0.9733995485648885  0.6527810322502492
  0.0268733019663240  0.5509843716628575  0.6527762968185853
  0.4757144752444659  0.0488231885574755  0.6538513886093221
  0.9513264299200017  0.4756025454150933  0.6539028555253477
  0.4912889265234477  0.1349843619036110  0.5848829622573793
  0.8651821773706510  0.4909378359058342  0.5850151390681129
  0.4513140313895430  0.0966885574504059  0.6200968630808219
  0.9034074740455836  0.4510408487331945  0.6202119039424951
  0.4613820308648504  0.1486565579460198  0.5282318777022489
  0.8513769563130067  0.4609450782435515  0.5283958501943303
  0.5569792068164728  0.1440489518222829  0.4734854540210142
  0.8562291937436453  0.5565586559031274  0.4736815852589951
  0.4929819335657349  0.1548646699455195  0.4739280694033586
  0.8452089681677468  0.4925378007084284  0.4740887833193431
  0.6182271721928362  0.0719049083517143  0.4155245584389843
  0.9282995003490517  0.6180486684644741  0.4156165884702482
  0.5726758212688873  0.1155309885354135  0.4165092625606060
  0.8845977915257301  0.5723586945642520  0.4166516320254053
  0.6342625095506327  0.9676370808572512  0.4148353887491076
  0.0325444701683450  0.6344405799933046  0.4147465042004264
  0.6089346365568163  0.0174127851804380  0.3800132907435246
  0.9827017937104833  0.6089281057540786  0.3800076978353784
  0.6039180647900254  0.9121760633895823  0.4148848969759620
  0.0879167824335980  0.6042225933046484  0.4147425199706961
  0.6221006446635078  0.9015037904006102  0.5259772598550858
  0.0987779223473806  0.6224695444087933  0.5258843642870195
  0.5887713422973939  0.8952205825595355  0.5826819299543478
  0.1050381801304629  0.5891298232388797  0.5825990390801972
  0.5972030795622348  0.8802676171333995  0.4716525515447272
  0.1198425148113558  0.5975982685490455  0.4714986599384836
  0.5320021262703407  0.8672842597564638  0.5827364306680802
  0.1328471436829591  0.5324019747857549  0.5826256374955908
  0.4916683426136516  0.9441106726933781  0.6529649604365331
  0.0560322586706950  0.4918359783127694  0.6529208024847452
  0.4450574377685234  0.9905836605629700  0.6534532687483419
  0.0094850781352291  0.4450768936670576  0.6534464057792817
  0.4826399892652781  0.8916879524785585  0.6183922573519613
  0.1083803288094109  0.4829459989178911  0.6182943208996226
  0.3910653648404578  0.9825872154183117  0.6199867073574915
  0.0172982011488419  0.3910718935347346  0.6199923008149246
  0.3960819362674675  0.0878239366429923  0.5851151007546678
  0.9120832121173187  0.3957774047341932  0.5852574784302929
  0.4027969213048284  0.1197323839922963  0.5283474471530176
  0.8801574823788127  0.4024017311917180  0.5285013386715030
  0.3657374921468862  0.0323629197660896  0.5851646086680543
  0.9674555246942091  0.3655594180983829  0.5852534948201287
  0.3778993567922123  0.0984962099319644  0.4740227375506704
  0.9012220734286033  0.3775304544527552  0.4741156348380166
  0.4679978750972177  0.1327157405804794  0.4172635671776145
  0.8671528511106019  0.4675980230851481  0.4173743593676815
  0.5173600118514263  0.1083120483425973  0.3816077405724109
  0.8916196653095999  0.5170540001112974  0.3817056770276319
  0.4112286597532652  0.1047794181766130  0.4173180678356737
  0.8949618149761569  0.4108701759945100  0.4174009601889035
  0.5549425632733566  0.0094163398135605  0.3465467286663888
  0.9905149163111512  0.5549231049204142  0.3465535926913712
  0.5083316587852915  0.0558893274931876  0.3470350372890200
  0.9439677351908980  0.5081640199706530  0.3470791960533696
  0.5486859698849594  0.9033114428190360  0.3799031337857817
  0.0965925202732518  0.5489591504162779  0.3797880948279175
  0.5242855261827299  0.9511768115732149  0.3461486092001979
  0.0486735648127957  0.5243974521821356  0.3460971427947821
  0.5386179707327674  0.8513434427234227  0.4717681205532284
  0.1486230396692830  0.5390549199129140  0.4716041487795978
  0.5070180676261232  0.8451353307488711  0.5260719282472656
  0.1547910268902317  0.5074621988241664  0.5259112150817820
  0.5087110749531698  0.8650156386758291  0.4151170353192917
  0.1348178180887968  0.5090621632506689  0.4149848602491225
  0.4273241796964803  0.8844690117930256  0.5834907350820290
  0.1154022026695388  0.4276413039786275  0.5833483667771793
  0.3817728290136928  0.9280950923171806  0.5844754390493833
  0.0717004941769815  0.3819513305003311  0.5843834097851843
  0.4430207943576405  0.8559510483151243  0.5265145443776962
  0.1437708016086197  0.4434413429108927  0.5263184131441273
  0.3407731056237051  0.0087455260234789  0.5284217994157052
  0.9909222717193147  0.3406785516920451  0.5284595302423737
  0.3463319804933409  0.0414077655921071  0.4737093737236154
  0.9582385033419609  0.3461032303732867  0.4737728143069582
  0.3510173845082387  0.9442304138943748  0.5279447081478550
  0.0554326968032030  0.3511141559413968  0.5279049860658358
  0.4012170743574930  0.0507807779454879  0.3815842339177341
  0.9488856011202847  0.4010093899603486  0.3816221676880366
  0.4491366394417346  0.0266004521466170  0.3472189657683261
  0.9731266930013335  0.4490156265552185  0.3472237012794512
  0.4590295546964167  0.9616769843563058  0.3466489616908248
  0.0380460910747815  0.4590806809875370  0.3465815969201445
  0.3609536650185094  0.0116024396738668  0.4164987105218403
  0.9880147672369322  0.3608498793313730  0.4165251770263502
  0.4463994232670536  0.8752952165008034  0.4156683457613972
  0.1244251459681639  0.4467000410510395  0.4155401837077618
  0.4136309486117447  0.8711426559683970  0.4725036958132419
  0.1284078612123390  0.4140390203094398  0.4724047755327754
  0.3663344138223610  0.9159275197457092  0.4729615453737292
  0.0836677310385638  0.3665595490028533  0.4728864488941741
  0.4204394173145294  0.9240556795433610  0.3805817352525601
  0.0756018537402713  0.4205845143875109  0.3804820729387580
  0.3707697449677402  0.9492342045452414  0.4161621532946146
  0.0503654360056279  0.3708337058053811  0.4160876985346226
  0.3914428956733129  0.6719972050544776  0.6197706527900818
  0.6080868690417186  0.3278133234969514  0.6190331941003770
  0.3276275611726757  0.3923195931256904  0.6188786956107020
  0.6711998011871023  0.6083801052840063  0.6197740032553133
  0.3596782922001928  0.7278742878872807  0.6196963129484372
  0.6398456602019421  0.2719613433439146  0.6188228974712136
  0.2717021596630992  0.3604871643339462  0.6186176056401818
  0.7271195146406029  0.6402582018356391  0.6197273938167066
  0.3793930290786991  0.7616621341856187  0.5649337890591261
  0.6201592165838375  0.2382603341475465  0.5640333802668260
  0.2382441875960964  0.3799701736267037  0.5636265553686318
  0.7609721354403761  0.6204213495847120  0.5652053663061295
  0.4313326112609801  0.6711783881929708  0.5653071985165540
  0.5682544975084457  0.3287224186499891  0.5645191845292507
  0.3288911254910399  0.4321199526657683  0.5643169843400082
  0.6705144939409602  0.5683172418786518  0.5653988279710670
  0.4237816757772062  0.7266473709236039  0.5329971591627938
  0.5758443431934244  0.2731498696800614  0.5320908457851137
  0.2735480446504751  0.4242346926339181  0.5316826213461581
  0.7263689674438045  0.5756569124352930  0.5333791670795747
  0.4239661024413376  0.6150317919785280  0.5333185535173394
  0.5759723949364367  0.3849496229612763  0.5325147555504800
  0.3851993364480938  0.4244544894269540  0.5326065437083621
  0.6145080186620090  0.5756551817683006  0.5331720653736876
  0.3589831202493752  0.6165989258381553  0.6198948161127149
  0.6407106916179213  0.3832269236414507  0.6191236186124202
  0.3829234273260900  0.3598638233066365  0.6192946384819811
  0.6159885819974572  0.6408791799507545  0.6195622284139144
  0.3790336149223367  0.5812456584766225  0.5656591231338173
  0.6208085112211491  0.4186540511822394  0.5649419994234126
  0.4186930093461982  0.3797665389730137  0.5652870230320125
  0.5807207348114686  0.6206297689621858  0.5652183611863755
  0.2948258316706475  0.6175598203284002  0.6199285199474566
  0.7047727636268221  0.3821011342166166  0.6188734930297207
  0.3815900444991908  0.2957537826659258  0.6191890740461532
  0.6171994402411397  0.7050077482076810  0.6194505224743031
  0.2954331870878907  0.7288464900332805  0.6200590291191466
  0.7041403043264679  0.2708710877220742  0.6190432721962028
  0.2703716583647938  0.2962023641046598  0.6191043355905500
  0.7284219194585422  0.7045096525210035  0.6199169502287322
  0.2629757469801334  0.6735485275623179  0.6201402401034782
  0.7365701325421775  0.3260715991951278  0.6190122716652131
  0.3255251550216772  0.2639088793093320  0.6192311614216617
  0.6733035517796432  0.7369331929292051  0.6197705643055883
  0.3272754083132721  0.7837942473976311  0.5332041438664866
  0.6725884744321823  0.2163444552567433  0.5321398178201298
  0.2160674687811316  0.3276045239706834  0.5319554014452912
  0.7835300640727015  0.6725353897139381  0.5333751417865756
  0.2750349064145369  0.7641861346985046  0.5657847847133528
  0.7247053970604375  0.2354834345357348  0.5649529961241692
  0.2351699125053562  0.2755273687394337  0.5648528901126142
  0.7642196112364297  0.7249235719620370  0.5658509382373670
  0.3274115271055789  0.7836555470944411  0.4678601852266762
  0.6727245940423001  0.2162057518632500  0.4667958587593367
  0.2164699349399449  0.3274646082090961  0.4666248571848540
  0.7839325309317027  0.6723954762806361  0.4680445982209536
  0.4241556610108982  0.7268501342781051  0.4679091566500652
  0.5762183259630644  0.2733526313659078  0.4670028421661225
  0.2736310288294893  0.4243430867943263  0.4666208316521070
  0.7264519521554358  0.5757653057497699  0.4683173776145669
  0.3798407837208103  0.7617396660843339  0.4359666231037503
  0.6206069735687673  0.2383378686706202  0.4350662124325212
  0.2390278629563471  0.3795786474047728  0.4347946318449948
  0.7617558094361392  0.6200298251622786  0.4363734429047459
  0.4240276116585927  0.6150503781986325  0.4674852465585965
  0.5760339015841640  0.3849682129462272  0.4666814487819690
  0.3854919794975847  0.4243448205372071  0.4668279341983882
  0.6148006580596562  0.5755455136443629  0.4673934556793317
  0.4317455045629665  0.6712775839521260  0.4354808183040073
  0.5686673947666209  0.3288216143272726  0.4346928025228110
  0.3294855047504166  0.4316827572493630  0.4346011707995114
  0.6711088721889799  0.5678800496261954  0.4356830138137815
  0.3791914921210955  0.5813459509213387  0.4350580040533805
  0.6209663904623753  0.4187543423535842  0.4343408796062310
  0.4192792653568849  0.3793702315362011  0.4347816408816560
  0.5813069890198694  0.6202334631710108  0.4347129794258322
  0.3268523696949882  0.5604744956692483  0.5332026692681663
  0.6731572556298072  0.4393081321293461  0.5325120524682190
  0.4393815220985297  0.3273017696529796  0.5331002067553141
  0.5603623901809999  0.6727817473463976  0.5325720907503496
  0.2752556314206771  0.5836224192171588  0.5651563961130213
  0.7245574028683296  0.4161872696305282  0.5644439884543725
  0.4158774625264811  0.2758658761437752  0.5649545737282478
  0.5835838966245032  0.7244587647911547  0.5644959428692020
  0.3268427489946707  0.5606918658462300  0.4674879503223336
  0.6731476381936300  0.4395255067211248  0.4667973328721689
  0.4396376108421936  0.3272182570212848  0.4674279104216397
  0.5606184766621067  0.6726982350228595  0.4668997937011092
  0.2232941615603866  0.6745357966587674  0.5654489889668824
  0.7764031194179631  0.3251544286207687  0.5646730186914354
  0.3246864612049477  0.2239298197623051  0.5649233398050257
  0.6746169422338901  0.7765069992632698  0.5650450753901611
  0.2296588101598756  0.7308863201212744  0.5334119861180727
  0.7701654826107136  0.2690641008757602  0.5326122255395488
  0.2687102173914419  0.2300202137331042  0.5327204505049687
  0.7310404826996045  0.7701049773861670  0.5332555461491284
  0.2330804712756929  0.6198465805560043  0.5329824206025767
  0.7671767663488687  0.3802252578357079  0.5321221855993928
  0.3799897466727750  0.2329958059123827  0.5326356800128091
  0.6199397740252633  0.7668016851418253  0.5324448379554561
  0.2752946037420803  0.7645165634451592  0.4350470075920467
  0.7249650946704211  0.2358138649801546  0.4342152177954767
  0.2357803905608419  0.2750764239600096  0.4341490622443444
  0.7648300886224593  0.7244726288738474  0.4351471097499144
  0.2298345169183461  0.7309358975294398  0.4673877776350537
  0.7703411944427965  0.2691136786771898  0.4665880170313981
  0.2689595185914395  0.2298950206297054  0.4667444555436732
  0.7312897835951332  0.7699797871894827  0.4672795502799261
  0.3601543398763351  0.7280386558816772  0.3811771048328290
  0.6403217113611402  0.2721257150653259  0.3803036894139586
  0.2728804857986339  0.3597417945692129  0.3802726061166165
  0.7282978361077846  0.6395128373637300  0.3813823938292637
  0.3919131321203199  0.6721866785118928  0.3809668076864347
  0.6085571095257793  0.3280027961321317  0.3802293500444511
  0.3288001982617780  0.3916198933546391  0.3802259967724426
  0.6723724367713108  0.6076804096222745  0.3811213041487196
  0.3592893116168602  0.6167730780830225  0.3808763838498759
  0.6410168845651038  0.3834010751278837  0.3801051860043702
  0.3840114181531633  0.3591208192564259  0.3804377717940462
  0.6170765711084238  0.6401361793114324  0.3807053609203734
  0.2958596978454040  0.7291289105120277  0.3809567305603470
  0.7045668151797260  0.2711535088512216  0.3799409736862500
  0.2715780835653497  0.2954903446039773  0.3800830502562894
  0.7296283412406203  0.7037976353235794  0.3808956644842710
  0.2754426010651436  0.5838127290998576  0.4355560160480791
  0.7247443736598657  0.4163775802038105  0.4348436077067927
  0.4164161069694750  0.2755412359104648  0.4355040586714689
  0.5841225376029010  0.7241341269731010  0.4350454280131784
  0.2328232353944134  0.6197747394293388  0.4678778168904886
  0.7669195335487379  0.3801534173818240  0.4670175813611532
  0.3800602290742480  0.2331983156376082  0.4675551644362753
  0.6200102547774593  0.7670041970231255  0.4673643219881274
  0.2235968840706362  0.6748455685809193  0.4353269856762284
  0.7767058422656583  0.3254642005005169  0.4345510155327901
  0.3253830614538296  0.2234929999174221  0.4349549265394479
  0.6753135407898899  0.7760701812040881  0.4350766615027219
  0.2952272398558514  0.6178988652145220  0.3811265089535718
  0.7051741748934750  0.3824401820433457  0.3800714828872749
  0.3828005604942049  0.2949922519972231  0.3805494787646999
  0.6184099530044814  0.7042462217189800  0.3808109276730819
  0.2634298705827083  0.6739283997572454  0.3809877308414940
  0.7370242594921066  0.3264514703695108  0.3798597621894259
  0.3266964513073951  0.2630668075675546  0.3802294369199439
  0.6744748458528580  0.7360911238996801  0.3807688397063596
 
  0.00000000E+00  0.00000000E+00  0.00000000E+00
  0.00000000E+00  0.00000000E+00  0.00000000E+00
  0.00000000E+00  0.00000000E+00  0.00000000E+00
  0.00000000E+00  0.00000000E+00  0.00000000E+00
  0.00000000E+00  0.00000000E+00  0.00000000E+00
  0.00000000E+00  0.00000000E+00  0.00000000E+00
  0.00000000E+00  0.00000000E+00  0.00000000E+00
  0.00000000E+00  0.00000000E+00  0.00000000E+00
  0.00000000E+00  0.00000000E+00  0.00000000E+00
  0.00000000E+00  0.00000000E+00  0.00000000E+00
  0.00000000E+00  0.00000000E+00  0.00000000E+00
  0.00000000E+00  0.00000000E+00  0.00000000E+00
  0.00000000E+00  0.00000000E+00  0.00000000E+00
  0.00000000E+00  0.00000000E+00  0.00000000E+00
  0.00000000E+00  0.00000000E+00  0.00000000E+00
  0.00000000E+00  0.00000000E+00  0.00000000E+00
  0.00000000E+00  0.00000000E+00  0.00000000E+00
  0.00000000E+00  0.00000000E+00  0.00000000E+00
  0.00000000E+00  0.00000000E+00  0.00000000E+00
  0.00000000E+00  0.00000000E+00  0.00000000E+00
  0.00000000E+00  0.00000000E+00  0.00000000E+00
  0.00000000E+00  0.00000000E+00  0.00000000E+00
  0.00000000E+00  0.00000000E+00  0.00000000E+00
  0.00000000E+00  0.00000000E+00  0.00000000E+00
  0.00000000E+00  0.00000000E+00  0.00000000E+00
  0.00000000E+00  0.00000000E+00  0.00000000E+00
  0.00000000E+00  0.00000000E+00  0.00000000E+00
  0.00000000E+00  0.00000000E+00  0.00000000E+00
  0.00000000E+00  0.00000000E+00  0.00000000E+00
  0.00000000E+00  0.00000000E+00  0.00000000E+00
  0.00000000E+00  0.00000000E+00  0.00000000E+00
  0.00000000E+00  0.00000000E+00  0.00000000E+00
  0.00000000E+00  0.00000000E+00  0.00000000E+00
  0.00000000E+00  0.00000000E+00  0.00000000E+00
  0.00000000E+00  0.00000000E+00  0.00000000E+00
  0.00000000E+00  0.00000000E+00  0.00000000E+00
  0.00000000E+00  0.00000000E+00  0.00000000E+00
  0.00000000E+00  0.00000000E+00  0.00000000E+00
  0.00000000E+00  0.00000000E+00  0.00000000E+00
  0.00000000E+00  0.00000000E+00  0.00000000E+00
  0.00000000E+00  0.00000000E+00  0.00000000E+00
  0.00000000E+00  0.00000000E+00  0.00000000E+00
  0.00000000E+00  0.00000000E+00  0.00000000E+00
  0.00000000E+00  0.00000000E+00  0.00000000E+00
  0.00000000E+00  0.00000000E+00  0.00000000E+00
  0.00000000E+00  0.00000000E+00  0.00000000E+00
  0.00000000E+00  0.00000000E+00  0.00000000E+00
  0.00000000E+00  0.00000000E+00  0.00000000E+00
  0.00000000E+00  0.00000000E+00  0.00000000E+00
  0.00000000E+00  0.00000000E+00  0.00000000E+00
  0.00000000E+00  0.00000000E+00  0.00000000E+00
  0.00000000E+00  0.00000000E+00  0.00000000E+00
  0.00000000E+00  0.00000000E+00  0.00000000E+00
  0.00000000E+00  0.00000000E+00  0.00000000E+00
  0.00000000E+00  0.00000000E+00  0.00000000E+00
  0.00000000E+00  0.00000000E+00  0.00000000E+00
  0.00000000E+00  0.00000000E+00  0.00000000E+00
  0.00000000E+00  0.00000000E+00  0.00000000E+00
  0.00000000E+00  0.00000000E+00  0.00000000E+00
  0.00000000E+00  0.00000000E+00  0.00000000E+00
  0.00000000E+00  0.00000000E+00  0.00000000E+00
  0.00000000E+00  0.00000000E+00  0.00000000E+00
  0.00000000E+00  0.00000000E+00  0.00000000E+00
  0.00000000E+00  0.00000000E+00  0.00000000E+00
  0.00000000E+00  0.00000000E+00  0.00000000E+00
  0.00000000E+00  0.00000000E+00  0.00000000E+00
  0.00000000E+00  0.00000000E+00  0.00000000E+00
  0.00000000E+00  0.00000000E+00  0.00000000E+00
  0.00000000E+00  0.00000000E+00  0.00000000E+00
  0.00000000E+00  0.00000000E+00  0.00000000E+00
  0.00000000E+00  0.00000000E+00  0.00000000E+00
  0.00000000E+00  0.00000000E+00  0.00000000E+00
  0.00000000E+00  0.00000000E+00  0.00000000E+00
  0.00000000E+00  0.00000000E+00  0.00000000E+00
  0.00000000E+00  0.00000000E+00  0.00000000E+00
  0.00000000E+00  0.00000000E+00  0.00000000E+00
  0.00000000E+00  0.00000000E+00  0.00000000E+00
  0.00000000E+00  0.00000000E+00  0.00000000E+00
  0.00000000E+00  0.00000000E+00  0.00000000E+00
  0.00000000E+00  0.00000000E+00  0.00000000E+00
  0.00000000E+00  0.00000000E+00  0.00000000E+00
  0.00000000E+00  0.00000000E+00  0.00000000E+00
  0.00000000E+00  0.00000000E+00  0.00000000E+00
  0.00000000E+00  0.00000000E+00  0.00000000E+00
  0.00000000E+00  0.00000000E+00  0.00000000E+00
  0.00000000E+00  0.00000000E+00  0.00000000E+00
  0.00000000E+00  0.00000000E+00  0.00000000E+00
  0.00000000E+00  0.00000000E+00  0.00000000E+00
  0.00000000E+00  0.00000000E+00  0.00000000E+00
  0.00000000E+00  0.00000000E+00  0.00000000E+00
  0.00000000E+00  0.00000000E+00  0.00000000E+00
  0.00000000E+00  0.00000000E+00  0.00000000E+00
  0.00000000E+00  0.00000000E+00  0.00000000E+00
  0.00000000E+00  0.00000000E+00  0.00000000E+00
  0.00000000E+00  0.00000000E+00  0.00000000E+00
  0.00000000E+00  0.00000000E+00  0.00000000E+00
  0.00000000E+00  0.00000000E+00  0.00000000E+00
  0.00000000E+00  0.00000000E+00  0.00000000E+00
  0.00000000E+00  0.00000000E+00  0.00000000E+00
  0.00000000E+00  0.00000000E+00  0.00000000E+00
  0.00000000E+00  0.00000000E+00  0.00000000E+00
  0.00000000E+00  0.00000000E+00  0.00000000E+00
  0.00000000E+00  0.00000000E+00  0.00000000E+00
  0.00000000E+00  0.00000000E+00  0.00000000E+00
  0.00000000E+00  0.00000000E+00  0.00000000E+00
  0.00000000E+00  0.00000000E+00  0.00000000E+00
  0.00000000E+00  0.00000000E+00  0.00000000E+00
  0.00000000E+00  0.00000000E+00  0.00000000E+00
  0.00000000E+00  0.00000000E+00  0.00000000E+00
  0.00000000E+00  0.00000000E+00  0.00000000E+00
  0.00000000E+00  0.00000000E+00  0.00000000E+00
  0.00000000E+00  0.00000000E+00  0.00000000E+00
  0.00000000E+00  0.00000000E+00  0.00000000E+00
  0.00000000E+00  0.00000000E+00  0.00000000E+00
  0.00000000E+00  0.00000000E+00  0.00000000E+00
  0.00000000E+00  0.00000000E+00  0.00000000E+00
  0.00000000E+00  0.00000000E+00  0.00000000E+00
  0.00000000E+00  0.00000000E+00  0.00000000E+00
  0.00000000E+00  0.00000000E+00  0.00000000E+00
  0.00000000E+00  0.00000000E+00  0.00000000E+00
  0.00000000E+00  0.00000000E+00  0.00000000E+00
  0.00000000E+00  0.00000000E+00  0.00000000E+00
  0.00000000E+00  0.00000000E+00  0.00000000E+00
  0.00000000E+00  0.00000000E+00  0.00000000E+00
  0.00000000E+00  0.00000000E+00  0.00000000E+00
  0.00000000E+00  0.00000000E+00  0.00000000E+00
  0.00000000E+00  0.00000000E+00  0.00000000E+00
  0.00000000E+00  0.00000000E+00  0.00000000E+00
  0.00000000E+00  0.00000000E+00  0.00000000E+00
  0.00000000E+00  0.00000000E+00  0.00000000E+00
  0.00000000E+00  0.00000000E+00  0.00000000E+00
  0.00000000E+00  0.00000000E+00  0.00000000E+00
  0.00000000E+00  0.00000000E+00  0.00000000E+00
  0.00000000E+00  0.00000000E+00  0.00000000E+00
  0.00000000E+00  0.00000000E+00  0.00000000E+00
  0.00000000E+00  0.00000000E+00  0.00000000E+00
  0.00000000E+00  0.00000000E+00  0.00000000E+00
  0.00000000E+00  0.00000000E+00  0.00000000E+00
  0.00000000E+00  0.00000000E+00  0.00000000E+00
  0.00000000E+00  0.00000000E+00  0.00000000E+00
  0.00000000E+00  0.00000000E+00  0.00000000E+00
  0.00000000E+00  0.00000000E+00  0.00000000E+00
  0.00000000E+00  0.00000000E+00  0.00000000E+00
  0.00000000E+00  0.00000000E+00  0.00000000E+00
  0.00000000E+00  0.00000000E+00  0.00000000E+00
  0.00000000E+00  0.00000000E+00  0.00000000E+00
  0.00000000E+00  0.00000000E+00  0.00000000E+00
  0.00000000E+00  0.00000000E+00  0.00000000E+00
  0.00000000E+00  0.00000000E+00  0.00000000E+00
  0.00000000E+00  0.00000000E+00  0.00000000E+00
  0.00000000E+00  0.00000000E+00  0.00000000E+00
  0.00000000E+00  0.00000000E+00  0.00000000E+00
  0.00000000E+00  0.00000000E+00  0.00000000E+00
  0.00000000E+00  0.00000000E+00  0.00000000E+00
  0.00000000E+00  0.00000000E+00  0.00000000E+00
  0.00000000E+00  0.00000000E+00  0.00000000E+00
  0.00000000E+00  0.00000000E+00  0.00000000E+00
  0.00000000E+00  0.00000000E+00  0.00000000E+00
  0.00000000E+00  0.00000000E+00  0.00000000E+00
  0.00000000E+00  0.00000000E+00  0.00000000E+00
  0.00000000E+00  0.00000000E+00  0.00000000E+00
  0.00000000E+00  0.00000000E+00  0.00000000E+00
  0.00000000E+00  0.00000000E+00  0.00000000E+00
  0.00000000E+00  0.00000000E+00  0.00000000E+00
  0.00000000E+00  0.00000000E+00  0.00000000E+00
  0.00000000E+00  0.00000000E+00  0.00000000E+00
  0.00000000E+00  0.00000000E+00  0.00000000E+00
  0.00000000E+00  0.00000000E+00  0.00000000E+00
  0.00000000E+00  0.00000000E+00  0.00000000E+00
  0.00000000E+00  0.00000000E+00  0.00000000E+00
  0.00000000E+00  0.00000000E+00  0.00000000E+00
  0.00000000E+00  0.00000000E+00  0.00000000E+00
  0.00000000E+00  0.00000000E+00  0.00000000E+00
  0.00000000E+00  0.00000000E+00  0.00000000E+00
  0.00000000E+00  0.00000000E+00  0.00000000E+00
  0.00000000E+00  0.00000000E+00  0.00000000E+00
  0.00000000E+00  0.00000000E+00  0.00000000E+00
  0.00000000E+00  0.00000000E+00  0.00000000E+00
  0.00000000E+00  0.00000000E+00  0.00000000E+00
  0.00000000E+00  0.00000000E+00  0.00000000E+00
  0.00000000E+00  0.00000000E+00  0.00000000E+00
  0.00000000E+00  0.00000000E+00  0.00000000E+00
  0.00000000E+00  0.00000000E+00  0.00000000E+00
  0.00000000E+00  0.00000000E+00  0.00000000E+00
  0.00000000E+00  0.00000000E+00  0.00000000E+00
  0.00000000E+00  0.00000000E+00  0.00000000E+00
  0.00000000E+00  0.00000000E+00  0.00000000E+00
  0.00000000E+00  0.00000000E+00  0.00000000E+00
  0.00000000E+00  0.00000000E+00  0.00000000E+00
  0.00000000E+00  0.00000000E+00  0.00000000E+00
  0.00000000E+00  0.00000000E+00  0.00000000E+00
  0.00000000E+00  0.00000000E+00  0.00000000E+00
  0.00000000E+00  0.00000000E+00  0.00000000E+00
  0.00000000E+00  0.00000000E+00  0.00000000E+00
  0.00000000E+00  0.00000000E+00  0.00000000E+00
  0.00000000E+00  0.00000000E+00  0.00000000E+00
  0.00000000E+00  0.00000000E+00  0.00000000E+00
  0.00000000E+00  0.00000000E+00  0.00000000E+00
  0.00000000E+00  0.00000000E+00  0.00000000E+00
  0.00000000E+00  0.00000000E+00  0.00000000E+00
  0.00000000E+00  0.00000000E+00  0.00000000E+00
  0.00000000E+00  0.00000000E+00  0.00000000E+00
  0.00000000E+00  0.00000000E+00  0.00000000E+00
  0.00000000E+00  0.00000000E+00  0.00000000E+00
  0.00000000E+00  0.00000000E+00  0.00000000E+00
  0.00000000E+00  0.00000000E+00  0.00000000E+00
  0.00000000E+00  0.00000000E+00  0.00000000E+00
  0.00000000E+00  0.00000000E+00  0.00000000E+00
  0.00000000E+00  0.00000000E+00  0.00000000E+00
  0.00000000E+00  0.00000000E+00  0.00000000E+00
  0.00000000E+00  0.00000000E+00  0.00000000E+00
  0.00000000E+00  0.00000000E+00  0.00000000E+00
  0.00000000E+00  0.00000000E+00  0.00000000E+00
  0.00000000E+00  0.00000000E+00  0.00000000E+00
  0.00000000E+00  0.00000000E+00  0.00000000E+00
  0.00000000E+00  0.00000000E+00  0.00000000E+00
  0.00000000E+00  0.00000000E+00  0.00000000E+00
  0.00000000E+00  0.00000000E+00  0.00000000E+00
  0.00000000E+00  0.00000000E+00  0.00000000E+00
  0.00000000E+00  0.00000000E+00  0.00000000E+00
  0.00000000E+00  0.00000000E+00  0.00000000E+00
  0.00000000E+00  0.00000000E+00  0.00000000E+00
  0.00000000E+00  0.00000000E+00  0.00000000E+00
  0.00000000E+00  0.00000000E+00  0.00000000E+00
  0.00000000E+00  0.00000000E+00  0.00000000E+00
  0.00000000E+00  0.00000000E+00  0.00000000E+00
  0.00000000E+00  0.00000000E+00  0.00000000E+00
  0.00000000E+00  0.00000000E+00  0.00000000E+00
  0.00000000E+00  0.00000000E+00  0.00000000E+00
  0.00000000E+00  0.00000000E+00  0.00000000E+00
  0.00000000E+00  0.00000000E+00  0.00000000E+00
  0.00000000E+00  0.00000000E+00  0.00000000E+00
  0.00000000E+00  0.00000000E+00  0.00000000E+00
  0.00000000E+00  0.00000000E+00  0.00000000E+00
  0.00000000E+00  0.00000000E+00  0.00000000E+00
  0.00000000E+00  0.00000000E+00  0.00000000E+00
  0.00000000E+00  0.00000000E+00  0.00000000E+00
  0.00000000E+00  0.00000000E+00  0.00000000E+00
  0.00000000E+00  0.00000000E+00  0.00000000E+00
  0.00000000E+00  0.00000000E+00  0.00000000E+00
  0.00000000E+00  0.00000000E+00  0.00000000E+00
  0.00000000E+00  0.00000000E+00  0.00000000E+00
  0.00000000E+00  0.00000000E+00  0.00000000E+00
  0.00000000E+00  0.00000000E+00  0.00000000E+00
  0.00000000E+00  0.00000000E+00  0.00000000E+00
  0.00000000E+00  0.00000000E+00  0.00000000E+00
  0.00000000E+00  0.00000000E+00  0.00000000E+00
  0.00000000E+00  0.00000000E+00  0.00000000E+00
  0.00000000E+00  0.00000000E+00  0.00000000E+00
  0.00000000E+00  0.00000000E+00  0.00000000E+00
  0.00000000E+00  0.00000000E+00  0.00000000E+00
  0.00000000E+00  0.00000000E+00  0.00000000E+00
  0.00000000E+00  0.00000000E+00  0.00000000E+00
  0.00000000E+00  0.00000000E+00  0.00000000E+00
  0.00000000E+00  0.00000000E+00  0.00000000E+00
  0.00000000E+00  0.00000000E+00  0.00000000E+00
  0.00000000E+00  0.00000000E+00  0.00000000E+00
  0.00000000E+00  0.00000000E+00  0.00000000E+00
  0.00000000E+00  0.00000000E+00  0.00000000E+00
  0.00000000E+00  0.00000000E+00  0.00000000E+00
  0.00000000E+00  0.00000000E+00  0.00000000E+00
  0.00000000E+00  0.00000000E+00  0.00000000E+00
  0.00000000E+00  0.00000000E+00  0.00000000E+00
  0.00000000E+00  0.00000000E+00  0.00000000E+00
