Generated by VASPKIT code               
   1.00000000000000     
    25.2500173446223890    0.0695368131627691    0.0000000000000000
   -12.5645828642368205   21.7713919074737809    0.0000000000000000
     0.0000000000000013    0.0000000000000023   21.9559031803013340
  C             
   264
Direct
  0.9118640779447091  0.0127726447546547  0.3814586731893156
  0.3546584077109564  0.5698592827969828  0.4014680267976596
  0.8662598356072574  0.9609156155016050  0.4160553153851800
  0.3136442203027771  0.5278668274083340  0.4471424567610964
  0.8563695912693708  0.9840822933362102  0.4726223056520039
  0.2531590500017949  0.5190831884470313  0.4367952799459227
  0.9293500540206964  0.0680305676531747  0.4165479183463702
  0.3196088300843415  0.5879816068265352  0.3630850685162598
  0.8950900682605347  0.0501461100841519  0.4729590975920773
  0.2568971283996494  0.5565874265547411  0.3849209916194753
  0.9898725669523513  0.1157758000820580  0.4168139285544823
  0.3460963354450607  0.6483482775509041  0.3418993767908685
  0.0354797744081220  0.1096785837895056  0.3820239930330871
  0.4085550747459415  0.6924980248293590  0.3581640886151674
  0.9557586040993943  0.0069865756655294  0.3478858319116605
  0.4149244122295222  0.6123311104787822  0.4171200195344847
  0.0188011537874687  0.0563434948265321  0.3482757081396795
  0.4424222244541486  0.6748263778825626  0.3950294745032644
  0.9555356052968857  0.9491014764281178  0.3477311873618480
  0.4364812013695670  0.6141576961174018  0.4788657013226751
  0.8655332831004088  0.9049833676329712  0.4156887564681437
  0.3343244288095460  0.5304345141543598  0.5064482903124551
  0.9112834300811813  0.8990940681447798  0.3809139272444695
  0.3967121234899826  0.5738275755097659  0.5226977612433813
  0.8544102791351489  0.8706088089739318  0.4719287309610601
  0.2956633696379563  0.5230106279759006  0.5579983803332161
  0.8448104975907941  0.9509329096099454  0.5265792213021406
  0.2157634648244124  0.5126747360581080  0.4865748364451971
  0.8440146492664919  0.8929685188941341  0.5264297174520497
  0.2372725938816063  0.5144029090811527  0.5483641862134521
  0.8724259901464955  0.9826343843534955  0.5831436188312257
  0.1808150329746157  0.5441022503480961  0.4864230636098169
  0.9217830126448328  0.0806999239624883  0.5272912679421295
  0.2231367490232281  0.5868864146851012  0.3847771848113670
  0.9101233065209240  0.0463615740132428  0.5834631662044636
  0.1847653462756353  0.5805905587704757  0.4365575299667890
  0.0177538322149023  0.1474351005614977  0.4733462549276775
  0.3109282123886579  0.6798118174631986  0.3417582816253955
  0.9842113034270104  0.1303490174128907  0.5276744571853361
  0.2507097261945166  0.6497050610348444  0.3628569542075627
  0.0914608322220633  0.1373464054751729  0.4172133719895153
  0.4118093217226048  0.7511698388976524  0.3681107272366199
  0.0804723046284687  0.1606323995814508  0.4736073127876734
  0.3515421307624180  0.7434168872510416  0.3579625868283873
  0.1284063222771973  0.1104985956251339  0.4173097517199909
  0.4485013351359634  0.7896206503537876  0.4147619867181340
  0.0576175684447147  0.0289284006964666  0.3481424792142496
  0.4808801354773606  0.7150559257029075  0.4432929423952855
  0.0185644018067858  0.9627229737727191  0.3478451601438579
  0.4773487489216346  0.6775677574275401  0.4951484424489583
  0.1116791803808899  0.0556702136051997  0.3819940654112826
  0.4833719949802953  0.7711137403009747  0.4530392406821972
  0.0352564911337028  0.9260619622001903  0.3813632944599792
  0.4771475027691130  0.6976284637866458  0.5546911587525852
  0.9285793661913345  0.8611634007772684  0.4158070273057879
  0.3967425732581500  0.5940783683808891  0.5845130703337076
  0.8935032944741355  0.8436851094720792  0.4719804659343798
  0.3341473296264000  0.5627316040553182  0.6063268316126466
  0.9894353665466127  0.8747738960941950  0.4161778571870961
  0.4362857315070717  0.6551840390267698  0.6002531023709332
  0.9205543056865219  0.8405436192755606  0.5263474328751624
  0.3130932596434331  0.5937068191925863  0.6431388424637944
  0.8716849730126731  0.8889732210169652  0.5829814784196617
  0.2155494271266907  0.5466295053988405  0.5865405700627196
  0.8891373347886985  0.9443142767201717  0.6180826103195699
  0.1808244503990176  0.5651267655396325  0.5481171766690111
  0.9093519575689156  0.8629773716800335  0.5829075323745400
  0.2527058594048046  0.5855929058102098  0.6330031217956109
  0.9433475023626420  0.9713408747381521  0.6518739384850244
  0.1852734407659909  0.6221182368151080  0.5574954028511460
  0.9660047069118017  0.0744758224857981  0.6187936498874063
  0.1892170445921655  0.6395980577540124  0.4466813793362420
  0.0118279056384196  0.1264010922775285  0.5842975019043640
  0.2292570977329035  0.6821688536855810  0.4010297426065617
  0.9823851429186182  0.0375156202100092  0.6522722169937668
  0.1901126014081060  0.6599042385570126  0.5058324463569356
  0.1067726684472105  0.1561518144682466  0.5280110662045738
  0.3305540729224991  0.7747456391583681  0.3946022942871171
  0.0723093687286944  0.1391968759140877  0.5844384062495561
  0.2681905009447583  0.7435528478371277  0.4165598807135665
  0.1551705996502521  0.1055093081835621  0.4737937388928241
  0.4263705783159916  0.8215482745433558  0.4528020650618446
  0.1444370801971757  0.1277595267988822  0.5279461004192312
  0.3689006681804372  0.8149537463572609  0.4428658620295224
  0.1290477686274857  0.0174833678622628  0.4167229426037957
  0.4825798220867657  0.7914733484450188  0.5145521376169956
  0.0915739082268153  0.9539016030400280  0.4163936105657561
  0.4800229401474141  0.7559867910792184  0.5645263597509542
  0.1563984272261668  0.0487060579246473  0.4735149419715730
  0.4473501739415462  0.8225650533847645  0.5144333238548542
  0.0173897244954437  0.8717755431485289  0.4726110648388808
  0.4143345244794553  0.6875332980842617  0.6383182908021463
  0.9836084255969297  0.8547256810234655  0.5265111719366556
  0.3539797863911145  0.6573979344804852  0.6593447007468217
  0.0804258040857299  0.9198644615964361  0.4728750816174773
  0.4416423794255639  0.7500710256032362  0.6162715413291863
  0.9656134810772860  0.8909367804482228  0.6179764339051859
  0.2563942453595013  0.6444569420840313  0.6429073862976329
  0.9822865284999635  0.9440477804942469  0.6518847195500459
  0.2229710074525638  0.6623361246058699  0.6058973675727238
  0.0113917274958628  0.8853005081364617  0.5831838162247072
  0.3188541092658391  0.6887886331517787  0.6591912779263467
  0.0454005815601452  0.0510219336413111  0.6525010385836060
  0.2295387754420437  0.7233629934143843  0.5220784368729443
  0.0894146443855948  0.1008368238235407  0.6191920629319286
  0.2681728189712310  0.7646812857571894  0.4781938398148875
  0.1346304564518478  0.0943614654557063  0.5842741117943452
  0.3303525602149511  0.8089287555892786  0.4946065016273310
  0.0453788788517667  0.9932498020485070  0.6521584892632522
  0.2503119226269107  0.7250120601220179  0.5839717727028217
  0.1462979420249098  0.0158560357832802  0.5278154038297997
  0.4108291204348181  0.8174589416788204  0.5642334336580993
  0.1074420172117460  0.9498647400464206  0.5275035032545193
  0.4076686241265752  0.7802572544868812  0.6160286146725550
  0.0722634720184399  0.9322955384634964  0.5836337621137004
  0.3452489190499847  0.7491895084548308  0.6380171698441708
  0.1351775523441195  0.0390652140033317  0.5841620285968667
  0.3509203894144716  0.8102151383540676  0.5541678423648487
  0.0895009901065203  0.9874208639657779  0.6187761261339679
  0.3102587507029334  0.7677684850825746  0.5998058869413790
  0.6791679814723002  0.3948582080205889  0.6192569758995095
  0.4041094817185688  0.4595726233001380  0.4964049373692868
  0.0491095985428642  0.5884915991902614  0.4953246582722675
  0.5469857831578743  0.9414890892694808  0.5082512787696539
  0.7269552575495448  0.3807387507482540  0.6193917972911038
  0.3721548432556547  0.4401801551715460  0.5522739192654228
  0.0632685419773715  0.6204631285840106  0.5513594140953914
  0.5704477821978063  0.9331364027166736  0.5636958884488203
  0.7653787260120049  0.4103085199170410  0.5647690380518394
  0.4003279178766918  0.4112077457237596  0.5889472266927668
  0.0068108556827759  0.5936498536997536  0.5887257906141515
  0.5992175791892199  0.9924129992575802  0.5967070774644101
  0.6876198543934382  0.4333966067456807  0.5646077330005767
  0.4520413369436311  0.4423415627180492  0.4971453903301059
  0.9836581320944677  0.5420183252600791  0.4966401887847763
  0.5608715281580517  0.0058534129464985  0.5058106308120541
  0.7405061674097027  0.4423305920586865  0.5325600335772571
  0.4497083754025702  0.4138580377238982  0.5546170170824923
  0.9589187995290128  0.5450662452489839  0.5545998248556702
  0.5918713939057872  0.0359513586375852  0.5608683294811078
  0.6309935826324972  0.4097208820329128  0.5324928006119434
  0.4497856147207925  0.4125146329955300  0.4406283139386046
  0.9561576090217783  0.5454668297638665  0.4406535016268619
  0.5864886685092328  0.0307524783012213  0.4471423687757305
  0.6177948405581862  0.3471074105674569  0.6192777735512842
  0.3722809602418343  0.4391305445069340  0.4405861234243393
  0.0607074292645328  0.6209179496929464  0.4398305401847514
  0.5652742297590744  0.9281412572191448  0.4521562625246558
  0.5880143100686208  0.3557478311370208  0.5646040433724867
  0.4004148065390585  0.4090780737811457  0.4055244395989290
  0.0024156313058616  0.5944135568085009  0.4054068301585612
  0.5905615840132254  0.9840284366651749  0.4137883813369437
  0.6039297861967453  0.2851098057324373  0.6195924439571135
  0.3084970678466791  0.3992260910184417  0.4408180345839477
  0.0864027449523280  0.6852698422054352  0.4401377879828915
  0.6068180842669623  0.9061431186202017  0.4513874468988579
  0.7132421469310535  0.3190280705709317  0.6197442239441190
  0.3084931258057909  0.4005838002034708  0.5525083053163670
  0.0888366925115733  0.6847227566865371  0.5518174003762116
  0.6120656048718537  0.9111925695284807  0.5630643296846529
  0.6515827106172021  0.2711454345912870  0.6197421838182740
  0.2764805790185504  0.3799510073069613  0.4966787434200556
  0.1004809717617676  0.7172073471422400  0.4961934527329087
  0.6303578960169802  0.8977313866657949  0.5068502936511594
  0.7763360447981539  0.3669295774053544  0.5330892687596873
  0.3527836661809375  0.3536602359692163  0.6118440206140107
  0.9990619718434222  0.6426322125882052  0.6121547755074705
  0.6586884370715071  0.0059139991600973  0.6166461096823211
  0.7432954539965738  0.3101843222441350  0.5653905728659547
  0.2960124247400672  0.3458290716961953  0.5891975576700983
  0.0486318718252041  0.6989642540866799  0.5893354480090968
  0.6679260671766192  0.9570709488502008  0.5955771121226513
  0.7763593207135159  0.3666806588269934  0.4674821348148083
  0.3623308353436234  0.3017186652159813  0.6129583661987450
  0.9387052361494901  0.6352064439612222  0.6142690334086195
  0.7084409120231787  0.0681235447671433  0.6132736083484087
  0.7404790468587795  0.4420139210415252  0.4670630081952660
  0.4586947921457734  0.3618464010387538  0.5555418361336296
  0.8990559062207375  0.5381974719017444  0.5564887573985606
  0.6417098336236982  0.0977367618902216  0.5573063499123332
  0.7654043666569716  0.4098296789931736  0.4353123044707942
  0.4188693652448375  0.3089348459949025  0.5908037483670284
  0.8881384401404060  0.5792881151419944  0.5924517747177732
  0.6970623110886700  0.1146928274656687  0.5897610138870725
  0.6310066788200460  0.4094743427097596  0.4668848925051189
  0.4586952235897041  0.3604266631538411  0.4416949947431462
  0.8963445512715276  0.5386793664785289  0.4426911394736244
  0.6363005580514762  0.0925578481774063  0.4437018123066837
  0.6876599285077922  0.4329223877869477  0.4348187681486068
  0.4690338359330252  0.3402085341877346  0.4990545895533748
  0.8668998874260959  0.5291294359693220  0.5004741751061891
  0.6586460659351576  0.1266295885505644  0.4989379537593657
  0.5880548866458316  0.3552890165184143  0.4350873592822979
  0.4189506302853185  0.3066547591386575  0.4074793627646232
  0.8837561503206622  0.5800240867813307  0.4092880911919001
  0.6884131547941202  0.1063130165410464  0.4068717082719855
  0.5562368156176462  0.2986885143289551  0.5327955847584400
  0.3528658606937206  0.3508663877586381  0.3840480600963744
  0.9935777203839491  0.6435149804303072  0.3845577693119384
  0.6479043127306084  0.9954336416267620  0.3892344046643665
  0.5654320945284276  0.2547980287043659  0.5651753641992334
  0.2960294538130800  0.3435695925372446  0.4057933000347408
  0.0442402105500310  0.6997046411164544  0.4061724001850177
  0.6591896679629610  0.9486615309034918  0.4126046083490926
  0.5562857708266696  0.2984639494718803  0.4672858372354760
  0.3623817346622788  0.2988841393937804  0.3847614430696356
  0.9332045890384205  0.6361113407846558  0.3862631717598349
  0.6975906731740331  0.0576607930283290  0.3855612732294382
  0.6429159744064973  0.2322276672189830  0.5653693036637900
  0.2445142605955002  0.3122534875209855  0.4975570997130743
  0.0670188522357638  0.7515360066781814  0.4980640021681167
  0.6975891234698132  0.9354568951883490  0.5034998290235468
  0.6996031091721733  0.2570189072369710  0.5334005355054416
  0.2562439526705858  0.2923718751437237  0.5548020792666436
  0.0363523821384496  0.7403813557315174  0.5556938749787009
  0.7196958127418907  0.9706306081844724  0.5585101429626836
  0.5890432276431029  0.2213703069158025  0.5333163217018163
  0.2562171482730600  0.2909182169340357  0.4411823205914130
  0.0336146742796648  0.7409253210799901  0.4421931484476694
  0.7142604041304126  0.9654120756723167  0.4452860256934679
  0.7433538172823068  0.3097035964508507  0.4355881649236462
  0.3149495659581780  0.2436448317707651  0.5909169699407011
  0.9296686043760654  0.6841011708632636  0.5931133050988606
  0.7658244301242624  0.0796952832704840  0.5886806406920839
  0.6996774552128501  0.2566913913929409  0.4678684467895611
  0.2663750396515466  0.2410483373633028  0.5556839083197673
  0.9759709635183671  0.7322227625236774  0.5575572385931793
  0.7691186124666463  0.0327595050785858  0.5550310464648687
  0.7270352901445182  0.3798693209950852  0.3807696589843691
  0.4064140765356010  0.2530154097376187  0.5559918912137547
  0.8457244184249600  0.5937285567753054  0.5585897443088838
  0.7496563187788754  0.1573705935873421  0.5512642709563692
  0.6792342110340122  0.3939804149835092  0.3805110752095491
  0.4376053159609719  0.2724515231908988  0.4998908302047105
  0.8324477405983919  0.5624741970537505  0.5023643542017159
  0.7259475776848889  0.1647764801143784  0.4956533346790547
  0.6178643188264463  0.3462305781871732  0.3806634880571503
  0.4064314205178493  0.2516350705774247  0.4439028660477513
  0.8430274401877280  0.5941957656545056  0.4465927657894323
  0.7444041839906983  0.1522647450184055  0.4393171492593825
  0.7133145761212742  0.3181471039569360  0.3810031654738545
  0.3428523266938346  0.2128726577076262  0.5560536295924067
  0.8709561114518415  0.6578860938531036  0.5589812896834097
  0.7918745032129216  0.1361870167289476  0.5505536873254823
  0.5654690706838468  0.2543406403919614  0.4353775190353277
  0.3149641147774299  0.2413330815293255  0.4077293215461303
  0.9252408501999171  0.6848154033193358  0.4099856244094633
  0.7570345286092399  0.0712773509160693  0.4058308708066050
  0.5890777298497142  0.2211499802977073  0.4676874866125402
  0.2662600289360376  0.2395423513719888  0.4421993146298944
  0.9732021080729946  0.7328351599772355  0.4441885843660474
  0.7632964188510450  0.0276234063650293  0.4419150501328740
  0.6429460621157967  0.2317708289061286  0.4358244827968069
  0.2643294923878179  0.2111105196899220  0.4994008505669877
  0.9481461500868192  0.7355105473640655  0.5019055343978647
  0.7947276490182501  0.0580339094481610  0.4966603027494135
  0.6039988224307914  0.2842385989824670  0.3808678348775894
  0.3428867293542650  0.2114578259917075  0.4440469853713798
  0.8682264396953474  0.6582999539491846  0.4470366105392835
  0.7865674184223708  0.1310437901511487  0.4386860335642862
  0.6516562267039030  0.2702680763247629  0.3811295042601920
  0.3112141123925593  0.1921872822245286  0.5001219245951677
  0.8822239466829813  0.6899688386046123  0.5032501501384576
  0.8101069594559552  0.1230276075325943  0.4942551518766163
 
  0.00000000E+00  0.00000000E+00  0.00000000E+00
  0.00000000E+00  0.00000000E+00  0.00000000E+00
  0.00000000E+00  0.00000000E+00  0.00000000E+00
  0.00000000E+00  0.00000000E+00  0.00000000E+00
  0.00000000E+00  0.00000000E+00  0.00000000E+00
  0.00000000E+00  0.00000000E+00  0.00000000E+00
  0.00000000E+00  0.00000000E+00  0.00000000E+00
  0.00000000E+00  0.00000000E+00  0.00000000E+00
  0.00000000E+00  0.00000000E+00  0.00000000E+00
  0.00000000E+00  0.00000000E+00  0.00000000E+00
  0.00000000E+00  0.00000000E+00  0.00000000E+00
  0.00000000E+00  0.00000000E+00  0.00000000E+00
  0.00000000E+00  0.00000000E+00  0.00000000E+00
  0.00000000E+00  0.00000000E+00  0.00000000E+00
  0.00000000E+00  0.00000000E+00  0.00000000E+00
  0.00000000E+00  0.00000000E+00  0.00000000E+00
  0.00000000E+00  0.00000000E+00  0.00000000E+00
  0.00000000E+00  0.00000000E+00  0.00000000E+00
  0.00000000E+00  0.00000000E+00  0.00000000E+00
  0.00000000E+00  0.00000000E+00  0.00000000E+00
  0.00000000E+00  0.00000000E+00  0.00000000E+00
  0.00000000E+00  0.00000000E+00  0.00000000E+00
  0.00000000E+00  0.00000000E+00  0.00000000E+00
  0.00000000E+00  0.00000000E+00  0.00000000E+00
  0.00000000E+00  0.00000000E+00  0.00000000E+00
  0.00000000E+00  0.00000000E+00  0.00000000E+00
  0.00000000E+00  0.00000000E+00  0.00000000E+00
  0.00000000E+00  0.00000000E+00  0.00000000E+00
  0.00000000E+00  0.00000000E+00  0.00000000E+00
  0.00000000E+00  0.00000000E+00  0.00000000E+00
  0.00000000E+00  0.00000000E+00  0.00000000E+00
  0.00000000E+00  0.00000000E+00  0.00000000E+00
  0.00000000E+00  0.00000000E+00  0.00000000E+00
  0.00000000E+00  0.00000000E+00  0.00000000E+00
  0.00000000E+00  0.00000000E+00  0.00000000E+00
  0.00000000E+00  0.00000000E+00  0.00000000E+00
  0.00000000E+00  0.00000000E+00  0.00000000E+00
  0.00000000E+00  0.00000000E+00  0.00000000E+00
  0.00000000E+00  0.00000000E+00  0.00000000E+00
  0.00000000E+00  0.00000000E+00  0.00000000E+00
  0.00000000E+00  0.00000000E+00  0.00000000E+00
  0.00000000E+00  0.00000000E+00  0.00000000E+00
  0.00000000E+00  0.00000000E+00  0.00000000E+00
  0.00000000E+00  0.00000000E+00  0.00000000E+00
  0.00000000E+00  0.00000000E+00  0.00000000E+00
  0.00000000E+00  0.00000000E+00  0.00000000E+00
  0.00000000E+00  0.00000000E+00  0.00000000E+00
  0.00000000E+00  0.00000000E+00  0.00000000E+00
  0.00000000E+00  0.00000000E+00  0.00000000E+00
  0.00000000E+00  0.00000000E+00  0.00000000E+00
  0.00000000E+00  0.00000000E+00  0.00000000E+00
  0.00000000E+00  0.00000000E+00  0.00000000E+00
  0.00000000E+00  0.00000000E+00  0.00000000E+00
  0.00000000E+00  0.00000000E+00  0.00000000E+00
  0.00000000E+00  0.00000000E+00  0.00000000E+00
  0.00000000E+00  0.00000000E+00  0.00000000E+00
  0.00000000E+00  0.00000000E+00  0.00000000E+00
  0.00000000E+00  0.00000000E+00  0.00000000E+00
  0.00000000E+00  0.00000000E+00  0.00000000E+00
  0.00000000E+00  0.00000000E+00  0.00000000E+00
  0.00000000E+00  0.00000000E+00  0.00000000E+00
  0.00000000E+00  0.00000000E+00  0.00000000E+00
  0.00000000E+00  0.00000000E+00  0.00000000E+00
  0.00000000E+00  0.00000000E+00  0.00000000E+00
  0.00000000E+00  0.00000000E+00  0.00000000E+00
  0.00000000E+00  0.00000000E+00  0.00000000E+00
  0.00000000E+00  0.00000000E+00  0.00000000E+00
  0.00000000E+00  0.00000000E+00  0.00000000E+00
  0.00000000E+00  0.00000000E+00  0.00000000E+00
  0.00000000E+00  0.00000000E+00  0.00000000E+00
  0.00000000E+00  0.00000000E+00  0.00000000E+00
  0.00000000E+00  0.00000000E+00  0.00000000E+00
  0.00000000E+00  0.00000000E+00  0.00000000E+00
  0.00000000E+00  0.00000000E+00  0.00000000E+00
  0.00000000E+00  0.00000000E+00  0.00000000E+00
  0.00000000E+00  0.00000000E+00  0.00000000E+00
  0.00000000E+00  0.00000000E+00  0.00000000E+00
  0.00000000E+00  0.00000000E+00  0.00000000E+00
  0.00000000E+00  0.00000000E+00  0.00000000E+00
  0.00000000E+00  0.00000000E+00  0.00000000E+00
  0.00000000E+00  0.00000000E+00  0.00000000E+00
  0.00000000E+00  0.00000000E+00  0.00000000E+00
  0.00000000E+00  0.00000000E+00  0.00000000E+00
  0.00000000E+00  0.00000000E+00  0.00000000E+00
  0.00000000E+00  0.00000000E+00  0.00000000E+00
  0.00000000E+00  0.00000000E+00  0.00000000E+00
  0.00000000E+00  0.00000000E+00  0.00000000E+00
  0.00000000E+00  0.00000000E+00  0.00000000E+00
  0.00000000E+00  0.00000000E+00  0.00000000E+00
  0.00000000E+00  0.00000000E+00  0.00000000E+00
  0.00000000E+00  0.00000000E+00  0.00000000E+00
  0.00000000E+00  0.00000000E+00  0.00000000E+00
  0.00000000E+00  0.00000000E+00  0.00000000E+00
  0.00000000E+00  0.00000000E+00  0.00000000E+00
  0.00000000E+00  0.00000000E+00  0.00000000E+00
  0.00000000E+00  0.00000000E+00  0.00000000E+00
  0.00000000E+00  0.00000000E+00  0.00000000E+00
  0.00000000E+00  0.00000000E+00  0.00000000E+00
  0.00000000E+00  0.00000000E+00  0.00000000E+00
  0.00000000E+00  0.00000000E+00  0.00000000E+00
  0.00000000E+00  0.00000000E+00  0.00000000E+00
  0.00000000E+00  0.00000000E+00  0.00000000E+00
  0.00000000E+00  0.00000000E+00  0.00000000E+00
  0.00000000E+00  0.00000000E+00  0.00000000E+00
  0.00000000E+00  0.00000000E+00  0.00000000E+00
  0.00000000E+00  0.00000000E+00  0.00000000E+00
  0.00000000E+00  0.00000000E+00  0.00000000E+00
  0.00000000E+00  0.00000000E+00  0.00000000E+00
  0.00000000E+00  0.00000000E+00  0.00000000E+00
  0.00000000E+00  0.00000000E+00  0.00000000E+00
  0.00000000E+00  0.00000000E+00  0.00000000E+00
  0.00000000E+00  0.00000000E+00  0.00000000E+00
  0.00000000E+00  0.00000000E+00  0.00000000E+00
  0.00000000E+00  0.00000000E+00  0.00000000E+00
  0.00000000E+00  0.00000000E+00  0.00000000E+00
  0.00000000E+00  0.00000000E+00  0.00000000E+00
  0.00000000E+00  0.00000000E+00  0.00000000E+00
  0.00000000E+00  0.00000000E+00  0.00000000E+00
  0.00000000E+00  0.00000000E+00  0.00000000E+00
  0.00000000E+00  0.00000000E+00  0.00000000E+00
  0.00000000E+00  0.00000000E+00  0.00000000E+00
  0.00000000E+00  0.00000000E+00  0.00000000E+00
  0.00000000E+00  0.00000000E+00  0.00000000E+00
  0.00000000E+00  0.00000000E+00  0.00000000E+00
  0.00000000E+00  0.00000000E+00  0.00000000E+00
  0.00000000E+00  0.00000000E+00  0.00000000E+00
  0.00000000E+00  0.00000000E+00  0.00000000E+00
  0.00000000E+00  0.00000000E+00  0.00000000E+00
  0.00000000E+00  0.00000000E+00  0.00000000E+00
  0.00000000E+00  0.00000000E+00  0.00000000E+00
  0.00000000E+00  0.00000000E+00  0.00000000E+00
  0.00000000E+00  0.00000000E+00  0.00000000E+00
  0.00000000E+00  0.00000000E+00  0.00000000E+00
  0.00000000E+00  0.00000000E+00  0.00000000E+00
  0.00000000E+00  0.00000000E+00  0.00000000E+00
  0.00000000E+00  0.00000000E+00  0.00000000E+00
  0.00000000E+00  0.00000000E+00  0.00000000E+00
  0.00000000E+00  0.00000000E+00  0.00000000E+00
  0.00000000E+00  0.00000000E+00  0.00000000E+00
  0.00000000E+00  0.00000000E+00  0.00000000E+00
  0.00000000E+00  0.00000000E+00  0.00000000E+00
  0.00000000E+00  0.00000000E+00  0.00000000E+00
  0.00000000E+00  0.00000000E+00  0.00000000E+00
  0.00000000E+00  0.00000000E+00  0.00000000E+00
  0.00000000E+00  0.00000000E+00  0.00000000E+00
  0.00000000E+00  0.00000000E+00  0.00000000E+00
  0.00000000E+00  0.00000000E+00  0.00000000E+00
  0.00000000E+00  0.00000000E+00  0.00000000E+00
  0.00000000E+00  0.00000000E+00  0.00000000E+00
  0.00000000E+00  0.00000000E+00  0.00000000E+00
  0.00000000E+00  0.00000000E+00  0.00000000E+00
  0.00000000E+00  0.00000000E+00  0.00000000E+00
  0.00000000E+00  0.00000000E+00  0.00000000E+00
  0.00000000E+00  0.00000000E+00  0.00000000E+00
  0.00000000E+00  0.00000000E+00  0.00000000E+00
  0.00000000E+00  0.00000000E+00  0.00000000E+00
  0.00000000E+00  0.00000000E+00  0.00000000E+00
  0.00000000E+00  0.00000000E+00  0.00000000E+00
  0.00000000E+00  0.00000000E+00  0.00000000E+00
  0.00000000E+00  0.00000000E+00  0.00000000E+00
  0.00000000E+00  0.00000000E+00  0.00000000E+00
  0.00000000E+00  0.00000000E+00  0.00000000E+00
  0.00000000E+00  0.00000000E+00  0.00000000E+00
  0.00000000E+00  0.00000000E+00  0.00000000E+00
  0.00000000E+00  0.00000000E+00  0.00000000E+00
  0.00000000E+00  0.00000000E+00  0.00000000E+00
  0.00000000E+00  0.00000000E+00  0.00000000E+00
  0.00000000E+00  0.00000000E+00  0.00000000E+00
  0.00000000E+00  0.00000000E+00  0.00000000E+00
  0.00000000E+00  0.00000000E+00  0.00000000E+00
  0.00000000E+00  0.00000000E+00  0.00000000E+00
  0.00000000E+00  0.00000000E+00  0.00000000E+00
  0.00000000E+00  0.00000000E+00  0.00000000E+00
  0.00000000E+00  0.00000000E+00  0.00000000E+00
  0.00000000E+00  0.00000000E+00  0.00000000E+00
  0.00000000E+00  0.00000000E+00  0.00000000E+00
  0.00000000E+00  0.00000000E+00  0.00000000E+00
  0.00000000E+00  0.00000000E+00  0.00000000E+00
  0.00000000E+00  0.00000000E+00  0.00000000E+00
  0.00000000E+00  0.00000000E+00  0.00000000E+00
  0.00000000E+00  0.00000000E+00  0.00000000E+00
  0.00000000E+00  0.00000000E+00  0.00000000E+00
  0.00000000E+00  0.00000000E+00  0.00000000E+00
  0.00000000E+00  0.00000000E+00  0.00000000E+00
  0.00000000E+00  0.00000000E+00  0.00000000E+00
  0.00000000E+00  0.00000000E+00  0.00000000E+00
  0.00000000E+00  0.00000000E+00  0.00000000E+00
  0.00000000E+00  0.00000000E+00  0.00000000E+00
  0.00000000E+00  0.00000000E+00  0.00000000E+00
  0.00000000E+00  0.00000000E+00  0.00000000E+00
  0.00000000E+00  0.00000000E+00  0.00000000E+00
  0.00000000E+00  0.00000000E+00  0.00000000E+00
  0.00000000E+00  0.00000000E+00  0.00000000E+00
  0.00000000E+00  0.00000000E+00  0.00000000E+00
  0.00000000E+00  0.00000000E+00  0.00000000E+00
  0.00000000E+00  0.00000000E+00  0.00000000E+00
  0.00000000E+00  0.00000000E+00  0.00000000E+00
  0.00000000E+00  0.00000000E+00  0.00000000E+00
  0.00000000E+00  0.00000000E+00  0.00000000E+00
  0.00000000E+00  0.00000000E+00  0.00000000E+00
  0.00000000E+00  0.00000000E+00  0.00000000E+00
  0.00000000E+00  0.00000000E+00  0.00000000E+00
  0.00000000E+00  0.00000000E+00  0.00000000E+00
  0.00000000E+00  0.00000000E+00  0.00000000E+00
  0.00000000E+00  0.00000000E+00  0.00000000E+00
  0.00000000E+00  0.00000000E+00  0.00000000E+00
  0.00000000E+00  0.00000000E+00  0.00000000E+00
  0.00000000E+00  0.00000000E+00  0.00000000E+00
  0.00000000E+00  0.00000000E+00  0.00000000E+00
  0.00000000E+00  0.00000000E+00  0.00000000E+00
  0.00000000E+00  0.00000000E+00  0.00000000E+00
  0.00000000E+00  0.00000000E+00  0.00000000E+00
  0.00000000E+00  0.00000000E+00  0.00000000E+00
  0.00000000E+00  0.00000000E+00  0.00000000E+00
  0.00000000E+00  0.00000000E+00  0.00000000E+00
  0.00000000E+00  0.00000000E+00  0.00000000E+00
  0.00000000E+00  0.00000000E+00  0.00000000E+00
  0.00000000E+00  0.00000000E+00  0.00000000E+00
  0.00000000E+00  0.00000000E+00  0.00000000E+00
  0.00000000E+00  0.00000000E+00  0.00000000E+00
  0.00000000E+00  0.00000000E+00  0.00000000E+00
  0.00000000E+00  0.00000000E+00  0.00000000E+00
  0.00000000E+00  0.00000000E+00  0.00000000E+00
  0.00000000E+00  0.00000000E+00  0.00000000E+00
  0.00000000E+00  0.00000000E+00  0.00000000E+00
  0.00000000E+00  0.00000000E+00  0.00000000E+00
  0.00000000E+00  0.00000000E+00  0.00000000E+00
  0.00000000E+00  0.00000000E+00  0.00000000E+00
  0.00000000E+00  0.00000000E+00  0.00000000E+00
  0.00000000E+00  0.00000000E+00  0.00000000E+00
  0.00000000E+00  0.00000000E+00  0.00000000E+00
  0.00000000E+00  0.00000000E+00  0.00000000E+00
  0.00000000E+00  0.00000000E+00  0.00000000E+00
  0.00000000E+00  0.00000000E+00  0.00000000E+00
  0.00000000E+00  0.00000000E+00  0.00000000E+00
  0.00000000E+00  0.00000000E+00  0.00000000E+00
  0.00000000E+00  0.00000000E+00  0.00000000E+00
  0.00000000E+00  0.00000000E+00  0.00000000E+00
  0.00000000E+00  0.00000000E+00  0.00000000E+00
  0.00000000E+00  0.00000000E+00  0.00000000E+00
  0.00000000E+00  0.00000000E+00  0.00000000E+00
  0.00000000E+00  0.00000000E+00  0.00000000E+00
  0.00000000E+00  0.00000000E+00  0.00000000E+00
  0.00000000E+00  0.00000000E+00  0.00000000E+00
  0.00000000E+00  0.00000000E+00  0.00000000E+00
  0.00000000E+00  0.00000000E+00  0.00000000E+00
  0.00000000E+00  0.00000000E+00  0.00000000E+00
  0.00000000E+00  0.00000000E+00  0.00000000E+00
  0.00000000E+00  0.00000000E+00  0.00000000E+00
  0.00000000E+00  0.00000000E+00  0.00000000E+00
  0.00000000E+00  0.00000000E+00  0.00000000E+00
  0.00000000E+00  0.00000000E+00  0.00000000E+00
  0.00000000E+00  0.00000000E+00  0.00000000E+00
  0.00000000E+00  0.00000000E+00  0.00000000E+00
  0.00000000E+00  0.00000000E+00  0.00000000E+00
  0.00000000E+00  0.00000000E+00  0.00000000E+00
  0.00000000E+00  0.00000000E+00  0.00000000E+00
  0.00000000E+00  0.00000000E+00  0.00000000E+00
  0.00000000E+00  0.00000000E+00  0.00000000E+00
  0.00000000E+00  0.00000000E+00  0.00000000E+00
  0.00000000E+00  0.00000000E+00  0.00000000E+00
  0.00000000E+00  0.00000000E+00  0.00000000E+00
  0.00000000E+00  0.00000000E+00  0.00000000E+00
  0.00000000E+00  0.00000000E+00  0.00000000E+00
