Generated by VASPKIT code               
   1.00000000000000     
    17.1650657176897816    0.0250603512233981    0.0000000000000000
    -8.5604345620172584   14.7917734641378278    0.0000000000000000
     0.0000000000000014    0.0000000000000025   21.9451971410484674
  C             
   168
Direct
  0.8815820403859972  0.0862415722764632  0.4178983575874533
  0.8366796169108337  0.0605523621203603  0.4763879909614628
  0.7846409167859266  0.9640176380610166  0.4782543588523631
  0.8571307795194926  0.0051249361273836  0.3834038612185104
  0.7962268390503753  0.9295711200181148  0.4210812558543753
  0.9215726760312204  0.9990181611082134  0.3476335116091158
  0.0128599502338256  0.0747723365830321  0.3450710551686929
  0.9690706519949284  0.1580504160698156  0.4156405882945916
  0.0359919814069284  0.1534423558064820  0.3782958249957432
  0.0115471876884120  0.2044773519764674  0.4714288325680027
  0.8770402190268786  0.1072338474358094  0.5298056828273446
  0.9670941070201122  0.1809152817431579  0.5270455113623312
  0.8654374294843699  0.0616745544469197  0.5874239103802719
  0.7739505871558912  0.9194839088721615  0.5333520625004234
  0.8141744633657575  0.9679878148000638  0.5892528719446026
  0.7789264634824773  0.8384342284088417  0.5336250172848046
  0.8010940752012877  0.8509667760563426  0.4214772839811342
  0.7943405756320298  0.8073832245572514  0.4789203155273432
  0.9261836035263566  0.9163898108109559  0.3479226660289716
  0.8662496154924170  0.8431927527974412  0.3840246458073627
  0.0739092807899081  0.0391148853317436  0.3437575301965032
  0.0202587646042364  0.9411893919704242  0.3455224819743838
  0.1553027263118955  0.0835026244890182  0.3757255861120433
  0.1202803581846730  0.1990253193007188  0.4114474506676506
  0.1045934141984079  0.2306356232606240  0.4688192243411020
  0.1782624024568195  0.1644225860933216  0.4102330238267617
  0.1474787434504347  0.2298850463370602  0.5224841120106016
  0.0121460703504778  0.1826040893531412  0.5830992498977238
  0.9496221363712328  0.1080489098542180  0.6206451613974361
  0.1022824733143598  0.2073402893267875  0.5810332031420603
  0.9797509323241526  0.0588170691728108  0.6544752327461103
  0.8447071754226134  0.9165050847799154  0.6242740449928592
  0.8217450575857901  0.8355827615801288  0.5897655550213733
  0.9260997312640104  0.9608922405724433  0.6562418078397692
  0.8797300454646093  0.8009825213687596  0.5885511697315666
  0.8525301826758142  0.7701222515638877  0.4775145520657265
  0.8977283928987101  0.7926673436562534  0.4189652704453956
  0.8954181843637727  0.7693747996089005  0.5311783409926341
  0.0503878857743852  0.8919577849860241  0.3793530757635932
  0.9878643558337127  0.8174031282016595  0.4168987556883926
  0.1858354899304436  0.0320204661731623  0.4107462118053090
  0.1345739336992136  0.9383326837569447  0.4125737773337033
  0.2210815408244827  0.1615716592576292  0.4663728124635174
  0.2056631815724777  0.1926187350786487  0.5210765301925555
  0.2260626131311820  0.0805252781175704  0.4666459352977553
  0.1337616658715525  0.1568136052120490  0.6159719277959738
  0.0738277344089390  0.0836181984482937  0.6520738016819829
  0.1989162865801513  0.1490407182084101  0.5785209778645816
  0.9871510442762756  0.9252346445093310  0.6549281900361901
  0.9640175689962935  0.8465638359046951  0.6217039465489818
  0.0784369178789465  0.0009882933178216  0.6523635580646759
  0.9884641461356338  0.7955318656388093  0.5285691230996733
  0.0329188796392992  0.8190960271911989  0.4729526796231364
  0.1229713673308473  0.8927746250929250  0.4701923724777038
  0.0309401122339176  0.8419576634883338  0.5843577451385887
  0.2153658909102305  0.0359910852066982  0.5217441084549603
  0.2037819995649716  0.0704350187195431  0.5789169807828153
  0.1428792636412252  0.9948818919289810  0.6165951935381256
  0.1633322787225959  0.9394562445747523  0.5236109567722171
  0.1184266963880660  0.9137675385343108  0.5820986061914779
  0.6926558622822170  0.0711065090757422  0.4904581117876480
  0.9123560664195393  0.6092472568524240  0.5010179598604120
  0.4078799050294025  0.3017924810225652  0.5089380533383047
  0.6695504804460289  0.0231607939969882  0.5458915952089796
  0.9602556264734570  0.6307859207874278  0.5566734575958228
  0.3866047058573364  0.3282878352012619  0.5645471643099291
  0.6303472755298549  0.0633644423077053  0.5861828169620726
  0.9270868646038239  0.5468948688850783  0.5912983188575792
  0.4722944920322729  0.3884820130240118  0.5961490859758268
  0.6691299669337232  0.1429291275792143  0.4950050035465514
  0.8468173331560723  0.5111717329155274  0.5004784669554050
  0.5066692847536979  0.3445709097316152  0.5049133223898564
  0.6312013007521605  0.1371725237595287  0.5543521805765494
  0.8568130767654626  0.4743907394474043  0.5567003877004860
  0.5450374402989766  0.3960975601506755  0.5593050098598499
  0.6204988654641618  0.1391389161442901  0.4409098797507762
  0.8558031614111101  0.4755095306849798  0.4432430193841644
  0.5345116836856210  0.3857259360539204  0.4460235651734987
  0.6598283732226201  0.0252016722257118  0.4345407823672544
  0.9593824644624567  0.6321119336203461  0.4455328991913051
  0.3770811666508601  0.3187374360019398  0.4533461352202011
  0.6131316963932669  0.0664872122736103  0.4035902566419602
  0.9251268091270167  0.5486699776059851  0.4089088795434864
  0.4554998526801425  0.3718655978066834  0.4141147751802657
  0.6032470586125999  0.9307555309905672  0.4343004462668169
  0.0544757815426125  0.6764531973437472  0.4456296481626812
  0.3254645036788515  0.3621390555940606  0.4533223538094516
  0.6129751852876679  0.9288905957225042  0.5456415897755393
  0.0552091293910613  0.6755968412198281  0.5568504840052260
  0.3350504004372148  0.3718538904500051  0.5644845256448739
  0.5796505048633910  0.8820228406921060  0.4898849223719300
  0.1024524925942773  0.6984735184105089  0.5012919371960629
  0.3045047800768902  0.3886237788509189  0.5087424985960348
  0.5488187431735579  0.9916625925093641  0.6111177511987314
  0.0031083028807701  0.5418576073028348  0.6140409780238150
  0.4704829002716790  0.4674184183010934  0.6159910436733028
  0.5361031589567459  0.9083532972478793  0.5857793358819731
  0.0827462840540329  0.6197321806210220  0.5923276068369108
  0.3872070179457492  0.4590522028663167  0.5953965857017929
  0.4726769451925310  0.0043508829444035  0.6167196867058649
  0.9990716600387020  0.4561236479186743  0.6133518705145611
  0.5506704636782456  0.5535852575642203  0.6109141710663909
  0.5552769658858351  0.1500510957656229  0.5600121471190134
  0.8526628875967368  0.3887042234993821  0.5561240237569415
  0.6252964967151051  0.4824103913057082  0.5542628591802208
  0.4809776268639749  0.0883891163536085  0.5969430650433679
  0.9190821954109875  0.3789382954968647  0.5900445294725168
  0.6298651785271260  0.5577577804835512  0.5863076527871801
  0.5445801967656354  0.1519525731358847  0.4462347898333847
  0.8517565520790391  0.3896382748364302  0.4425678447000276
  0.6146910080120505  0.4718680999507452  0.4411920599440604
  0.5190867865751360  0.1668776090963891  0.5057417722179575
  0.8394454688282174  0.3426181508997320  0.4992068986027534
  0.6653130511130608  0.5136834205542119  0.4952431858497157
  0.4638920019142577  0.0916442734064367  0.4142208556182880
  0.9172655053348643  0.3802743372570989  0.4076773224719994
  0.6127968861331555  0.5409283624138308  0.4045892235502571
  0.5273146180607442  0.9956554914973811  0.3832965705015942
  0.0009395926018241  0.5438843188557884  0.3866521619064576
  0.4493093923219506  0.4463837729901021  0.3890723089031161
  0.5190145970587844  0.9116074149500137  0.4030489530996516
  0.0809286029383641  0.6210652793479925  0.4099559796413165
  0.3701369555139573  0.4422262025007468  0.4137114890791163
  0.4511678118366025  0.0083411280303951  0.3888588234993273
  0.9969009968521574  0.4581500724205613  0.3859592393132124
  0.5295031493177960  0.5325575725477955  0.3840319302304792
  0.4809042184043351  0.8331098540308060  0.4942541600010942
  0.1605673482282252  0.6573896317417529  0.5007951241313846
  0.3346928340865824  0.4862946945592383  0.5047600003350778
  0.4554197210331073  0.8480764882282138  0.5537521996791590
  0.1482465730372508  0.6103671297075470  0.5574326925808294
  0.3852813498818249  0.5281137113199795  0.5588215006670083
  0.4447293518655366  0.8499722733703067  0.4399930958212714
  0.1473431509298894  0.6113014551387348  0.4438778542515556
  0.3746784580794322  0.5175719866386428  0.4457339656491507
  0.3868676805824748  0.9335214695718939  0.5963984156321417
  0.0748841790637801  0.4513384101375931  0.5910909576495998
  0.5444889812890954  0.6281332326742550  0.5859057874142634
  0.3794746448813164  0.8608404374605314  0.5590952505638417
  0.1442133357525208  0.5245018050525063  0.5567594023888192
  0.4654780514443906  0.6142394653128143  0.5539724156537263
  0.3967336066960736  0.0692566260084369  0.5657087798851403
  0.9455337957347085  0.3235399460100890  0.5543730335225289
  0.6745144315323984  0.6378389841184577  0.5466781101593938
  0.4203368842575402  0.1180022194503958  0.5101110887688268
  0.8975608413877726  0.3015213364569450  0.4987109475180598
  0.6954738784645145  0.6113570865016457  0.4912619984951623
  0.3870059895566126  0.0711287293139823  0.4543429105869013
  0.9448030489271066  0.3243971381524877  0.4431517271082783
  0.6649268070415050  0.6281238000461186  0.4355262326274858
  0.3401399425321883  0.9747928679469365  0.5654687792493056
  0.0406272436216440  0.3678817774791948  0.5544711836518283
  0.6229001300058740  0.6812339165313565  0.5466535574850662
  0.3696511596601609  0.9366450653249583  0.4138171443594367
  0.0729214898021452  0.4531083808061837  0.4087058485631694
  0.5276942045262742  0.6115124207229039  0.4038396466004992
  0.3687771485477788  0.8628148523297468  0.4456354478604315
  0.1432006124400844  0.5256211701100822  0.4433016329876832
  0.4549557911626688  0.6038772388734137  0.4407055054811729
  0.3308728193880614  0.8570824534506809  0.5049890776478546
  0.1531891604838800  0.4888357790905601  0.4995243194484168
  0.4933097555452211  0.6554325237125720  0.4950913268143389
  0.3304172739710198  0.9768389960929444  0.4540950389780333
  0.0397547855936903  0.3692069338544313  0.4433285960943671
  0.6133800843195846  0.6716866316420192  0.4354639913824144
  0.3073062895989663  0.9288856405035851  0.5095393209481242
  0.0876534989655670  0.3907445689993344  0.4989844354274573
  0.5921051515396879  0.6981810709805158  0.4910673780250816
 
  0.00000000E+00  0.00000000E+00  0.00000000E+00
  0.00000000E+00  0.00000000E+00  0.00000000E+00
  0.00000000E+00  0.00000000E+00  0.00000000E+00
  0.00000000E+00  0.00000000E+00  0.00000000E+00
  0.00000000E+00  0.00000000E+00  0.00000000E+00
  0.00000000E+00  0.00000000E+00  0.00000000E+00
  0.00000000E+00  0.00000000E+00  0.00000000E+00
  0.00000000E+00  0.00000000E+00  0.00000000E+00
  0.00000000E+00  0.00000000E+00  0.00000000E+00
  0.00000000E+00  0.00000000E+00  0.00000000E+00
  0.00000000E+00  0.00000000E+00  0.00000000E+00
  0.00000000E+00  0.00000000E+00  0.00000000E+00
  0.00000000E+00  0.00000000E+00  0.00000000E+00
  0.00000000E+00  0.00000000E+00  0.00000000E+00
  0.00000000E+00  0.00000000E+00  0.00000000E+00
  0.00000000E+00  0.00000000E+00  0.00000000E+00
  0.00000000E+00  0.00000000E+00  0.00000000E+00
  0.00000000E+00  0.00000000E+00  0.00000000E+00
  0.00000000E+00  0.00000000E+00  0.00000000E+00
  0.00000000E+00  0.00000000E+00  0.00000000E+00
  0.00000000E+00  0.00000000E+00  0.00000000E+00
  0.00000000E+00  0.00000000E+00  0.00000000E+00
  0.00000000E+00  0.00000000E+00  0.00000000E+00
  0.00000000E+00  0.00000000E+00  0.00000000E+00
  0.00000000E+00  0.00000000E+00  0.00000000E+00
  0.00000000E+00  0.00000000E+00  0.00000000E+00
  0.00000000E+00  0.00000000E+00  0.00000000E+00
  0.00000000E+00  0.00000000E+00  0.00000000E+00
  0.00000000E+00  0.00000000E+00  0.00000000E+00
  0.00000000E+00  0.00000000E+00  0.00000000E+00
  0.00000000E+00  0.00000000E+00  0.00000000E+00
  0.00000000E+00  0.00000000E+00  0.00000000E+00
  0.00000000E+00  0.00000000E+00  0.00000000E+00
  0.00000000E+00  0.00000000E+00  0.00000000E+00
  0.00000000E+00  0.00000000E+00  0.00000000E+00
  0.00000000E+00  0.00000000E+00  0.00000000E+00
  0.00000000E+00  0.00000000E+00  0.00000000E+00
  0.00000000E+00  0.00000000E+00  0.00000000E+00
  0.00000000E+00  0.00000000E+00  0.00000000E+00
  0.00000000E+00  0.00000000E+00  0.00000000E+00
  0.00000000E+00  0.00000000E+00  0.00000000E+00
  0.00000000E+00  0.00000000E+00  0.00000000E+00
  0.00000000E+00  0.00000000E+00  0.00000000E+00
  0.00000000E+00  0.00000000E+00  0.00000000E+00
  0.00000000E+00  0.00000000E+00  0.00000000E+00
  0.00000000E+00  0.00000000E+00  0.00000000E+00
  0.00000000E+00  0.00000000E+00  0.00000000E+00
  0.00000000E+00  0.00000000E+00  0.00000000E+00
  0.00000000E+00  0.00000000E+00  0.00000000E+00
  0.00000000E+00  0.00000000E+00  0.00000000E+00
  0.00000000E+00  0.00000000E+00  0.00000000E+00
  0.00000000E+00  0.00000000E+00  0.00000000E+00
  0.00000000E+00  0.00000000E+00  0.00000000E+00
  0.00000000E+00  0.00000000E+00  0.00000000E+00
  0.00000000E+00  0.00000000E+00  0.00000000E+00
  0.00000000E+00  0.00000000E+00  0.00000000E+00
  0.00000000E+00  0.00000000E+00  0.00000000E+00
  0.00000000E+00  0.00000000E+00  0.00000000E+00
  0.00000000E+00  0.00000000E+00  0.00000000E+00
  0.00000000E+00  0.00000000E+00  0.00000000E+00
  0.00000000E+00  0.00000000E+00  0.00000000E+00
  0.00000000E+00  0.00000000E+00  0.00000000E+00
  0.00000000E+00  0.00000000E+00  0.00000000E+00
  0.00000000E+00  0.00000000E+00  0.00000000E+00
  0.00000000E+00  0.00000000E+00  0.00000000E+00
  0.00000000E+00  0.00000000E+00  0.00000000E+00
  0.00000000E+00  0.00000000E+00  0.00000000E+00
  0.00000000E+00  0.00000000E+00  0.00000000E+00
  0.00000000E+00  0.00000000E+00  0.00000000E+00
  0.00000000E+00  0.00000000E+00  0.00000000E+00
  0.00000000E+00  0.00000000E+00  0.00000000E+00
  0.00000000E+00  0.00000000E+00  0.00000000E+00
  0.00000000E+00  0.00000000E+00  0.00000000E+00
  0.00000000E+00  0.00000000E+00  0.00000000E+00
  0.00000000E+00  0.00000000E+00  0.00000000E+00
  0.00000000E+00  0.00000000E+00  0.00000000E+00
  0.00000000E+00  0.00000000E+00  0.00000000E+00
  0.00000000E+00  0.00000000E+00  0.00000000E+00
  0.00000000E+00  0.00000000E+00  0.00000000E+00
  0.00000000E+00  0.00000000E+00  0.00000000E+00
  0.00000000E+00  0.00000000E+00  0.00000000E+00
  0.00000000E+00  0.00000000E+00  0.00000000E+00
  0.00000000E+00  0.00000000E+00  0.00000000E+00
  0.00000000E+00  0.00000000E+00  0.00000000E+00
  0.00000000E+00  0.00000000E+00  0.00000000E+00
  0.00000000E+00  0.00000000E+00  0.00000000E+00
  0.00000000E+00  0.00000000E+00  0.00000000E+00
  0.00000000E+00  0.00000000E+00  0.00000000E+00
  0.00000000E+00  0.00000000E+00  0.00000000E+00
  0.00000000E+00  0.00000000E+00  0.00000000E+00
  0.00000000E+00  0.00000000E+00  0.00000000E+00
  0.00000000E+00  0.00000000E+00  0.00000000E+00
  0.00000000E+00  0.00000000E+00  0.00000000E+00
  0.00000000E+00  0.00000000E+00  0.00000000E+00
  0.00000000E+00  0.00000000E+00  0.00000000E+00
  0.00000000E+00  0.00000000E+00  0.00000000E+00
  0.00000000E+00  0.00000000E+00  0.00000000E+00
  0.00000000E+00  0.00000000E+00  0.00000000E+00
  0.00000000E+00  0.00000000E+00  0.00000000E+00
  0.00000000E+00  0.00000000E+00  0.00000000E+00
  0.00000000E+00  0.00000000E+00  0.00000000E+00
  0.00000000E+00  0.00000000E+00  0.00000000E+00
  0.00000000E+00  0.00000000E+00  0.00000000E+00
  0.00000000E+00  0.00000000E+00  0.00000000E+00
  0.00000000E+00  0.00000000E+00  0.00000000E+00
  0.00000000E+00  0.00000000E+00  0.00000000E+00
  0.00000000E+00  0.00000000E+00  0.00000000E+00
  0.00000000E+00  0.00000000E+00  0.00000000E+00
  0.00000000E+00  0.00000000E+00  0.00000000E+00
  0.00000000E+00  0.00000000E+00  0.00000000E+00
  0.00000000E+00  0.00000000E+00  0.00000000E+00
  0.00000000E+00  0.00000000E+00  0.00000000E+00
  0.00000000E+00  0.00000000E+00  0.00000000E+00
  0.00000000E+00  0.00000000E+00  0.00000000E+00
  0.00000000E+00  0.00000000E+00  0.00000000E+00
  0.00000000E+00  0.00000000E+00  0.00000000E+00
  0.00000000E+00  0.00000000E+00  0.00000000E+00
  0.00000000E+00  0.00000000E+00  0.00000000E+00
  0.00000000E+00  0.00000000E+00  0.00000000E+00
  0.00000000E+00  0.00000000E+00  0.00000000E+00
  0.00000000E+00  0.00000000E+00  0.00000000E+00
  0.00000000E+00  0.00000000E+00  0.00000000E+00
  0.00000000E+00  0.00000000E+00  0.00000000E+00
  0.00000000E+00  0.00000000E+00  0.00000000E+00
  0.00000000E+00  0.00000000E+00  0.00000000E+00
  0.00000000E+00  0.00000000E+00  0.00000000E+00
  0.00000000E+00  0.00000000E+00  0.00000000E+00
  0.00000000E+00  0.00000000E+00  0.00000000E+00
  0.00000000E+00  0.00000000E+00  0.00000000E+00
  0.00000000E+00  0.00000000E+00  0.00000000E+00
  0.00000000E+00  0.00000000E+00  0.00000000E+00
  0.00000000E+00  0.00000000E+00  0.00000000E+00
  0.00000000E+00  0.00000000E+00  0.00000000E+00
  0.00000000E+00  0.00000000E+00  0.00000000E+00
  0.00000000E+00  0.00000000E+00  0.00000000E+00
  0.00000000E+00  0.00000000E+00  0.00000000E+00
  0.00000000E+00  0.00000000E+00  0.00000000E+00
  0.00000000E+00  0.00000000E+00  0.00000000E+00
  0.00000000E+00  0.00000000E+00  0.00000000E+00
  0.00000000E+00  0.00000000E+00  0.00000000E+00
  0.00000000E+00  0.00000000E+00  0.00000000E+00
  0.00000000E+00  0.00000000E+00  0.00000000E+00
  0.00000000E+00  0.00000000E+00  0.00000000E+00
  0.00000000E+00  0.00000000E+00  0.00000000E+00
  0.00000000E+00  0.00000000E+00  0.00000000E+00
  0.00000000E+00  0.00000000E+00  0.00000000E+00
  0.00000000E+00  0.00000000E+00  0.00000000E+00
  0.00000000E+00  0.00000000E+00  0.00000000E+00
  0.00000000E+00  0.00000000E+00  0.00000000E+00
  0.00000000E+00  0.00000000E+00  0.00000000E+00
  0.00000000E+00  0.00000000E+00  0.00000000E+00
  0.00000000E+00  0.00000000E+00  0.00000000E+00
  0.00000000E+00  0.00000000E+00  0.00000000E+00
  0.00000000E+00  0.00000000E+00  0.00000000E+00
  0.00000000E+00  0.00000000E+00  0.00000000E+00
  0.00000000E+00  0.00000000E+00  0.00000000E+00
  0.00000000E+00  0.00000000E+00  0.00000000E+00
  0.00000000E+00  0.00000000E+00  0.00000000E+00
  0.00000000E+00  0.00000000E+00  0.00000000E+00
  0.00000000E+00  0.00000000E+00  0.00000000E+00
  0.00000000E+00  0.00000000E+00  0.00000000E+00
  0.00000000E+00  0.00000000E+00  0.00000000E+00
  0.00000000E+00  0.00000000E+00  0.00000000E+00
  0.00000000E+00  0.00000000E+00  0.00000000E+00
  0.00000000E+00  0.00000000E+00  0.00000000E+00
  0.00000000E+00  0.00000000E+00  0.00000000E+00
  0.00000000E+00  0.00000000E+00  0.00000000E+00
  0.00000000E+00  0.00000000E+00  0.00000000E+00
