Generated by VASPKIT code               
   1.00000000000000     
    28.9165691101791005   -0.0577880070660621    0.0000000000000000
   -14.5083469934615632   25.0590444300640875    0.0000000000000000
     0.0000000000000013    0.0000000000000023   21.9928955507171828
  C             
   264
Direct
  0.2081223990006770  0.5542985709049258  0.5330538448685166
  0.7918779911937960  0.4457015500914196  0.5330539038489859
  0.2081265458919967  0.5543002151958815  0.4669368215168074
  0.7918739562610565  0.4457000193274482  0.4669370785335116
  0.2434437108986278  0.5358798598986836  0.4462519159424041
  0.7565568902054451  0.4641205066600529  0.4462521411316976
  0.2434375633926748  0.5358757545988925  0.5537393412568753
  0.7565629737969740  0.4641244135484060  0.5537394265930637
  0.2654787385634964  0.5247928711605949  0.4999974752753354
  0.7345218158705774  0.4752072606117779  0.4999977328927830
  0.2749614771725454  0.5590213561153599  0.6056743320637517
  0.7250387861394310  0.4409787721954243  0.6056744274000144
  0.2717885783998878  0.6006589802557628  0.6389260652109074
  0.7282117601289854  0.3993411361223471  0.6389259568974286
  0.2055737270266732  0.5945798819130039  0.5648890027286747
  0.7944265625255176  0.4054200951608591  0.5648891439763504
  0.2371597792790859  0.6180142292048375  0.6189534144902367
  0.7628403758761867  0.3819859710980946  0.6189534480531205
  0.2032442190815273  0.6364551249053817  0.5317034467317449
  0.7967556780225877  0.3635447469629143  0.5317035069359196
  0.2055788185987481  0.5945835616409759  0.4351026980802176
  0.7944215366920733  0.4054165137997422  0.4351027141845723
  0.2032468211241505  0.6364571919994342  0.4682866339936421
  0.7967532434042307  0.3635428358902686  0.4682868190662824
  0.2371696946256073  0.6180206756317660  0.3810411475878056
  0.7628308100653778  0.3819797613436988  0.3810413424723703
  0.2749696999461709  0.5590266422367165  0.3943213363764538
  0.7250307413383555  0.4409737010044613  0.3943214069636725
  0.2718001699978314  0.6006659241633792  0.3610705608817368
  0.7282003795674729  0.3993344605116317  0.3610708763833746
  0.3304728377181110  0.5724902669824805  0.3943935532767954
  0.6695278295713819  0.4275102452526611  0.3943934260044291
  0.3189545442904735  0.5383004380889292  0.4999972458241416
  0.6810462363065706  0.4616997183279146  0.4999975006424285
  0.3516096413265811  0.5627943165081095  0.4466002147245314
  0.6483910377654573  0.4372062572174389  0.4466002238019258
  0.3304641254184437  0.5724867480592889  0.6056044128162964
  0.6695362613097025  0.4275136011200467  0.6056045483058651
  0.3516063710161487  0.5627918616695706  0.5533983349408480
  0.6483940271904558  0.4372083737301919  0.5533984942119060
  0.3252841542360499  0.6396341831298059  0.6594129850084295
  0.6747162163457966  0.3603663537897116  0.6594126322995733
  0.3616471901833231  0.6221811546038142  0.6389067252236109
  0.6383527427983908  0.3778190893167683  0.6389068227426629
  0.3416898932290897  0.6941288085756659  0.6594104550554533
  0.6583101433559845  0.3058714663300819  0.6594093514552797
  0.2539253777122433  0.6744839868968473  0.6191191918681369
  0.7460744547415307  0.3255159640363040  0.6191191912430970
  0.2320711670002228  0.6855457982186948  0.5652561997231166
  0.7679287461069164  0.3144542510580295  0.5652561686058927
  0.3052924737248772  0.7118822301088304  0.6389291836674974
  0.6947076280197552  0.2881180439441948  0.6389285818665313
  0.2612274212634133  0.7333858004823950  0.5330959396446243
  0.7387725066004119  0.2666141015760118  0.5330959825317076
  0.2320752496810712  0.6855485277448269  0.4347366509541774
  0.7679248671129760  0.3144517334097735  0.4347369025799411
  0.2539343336133010  0.6744898761759295  0.3808770171723188
  0.7460657248553962  0.3255101922269320  0.3808770627629399
  0.2612300264239176  0.7333880288600890  0.4668993150047459
  0.7387702237213513  0.2666122121343278  0.4668995562202776
  0.3053033030005622  0.7118884936039731  0.3610704625102315
  0.6946970510922026  0.2881119546947579  0.3610706825355470
  0.3252947522139436  0.6396409067193305  0.3405858154136746
  0.6747058327321759  0.3603597156581709  0.3405862244637212
  0.3616580646576570  0.6221883774444841  0.3610914083001993
  0.6383424578366860  0.3778121494680317  0.3610913120992811
  0.3417028603481884  0.6941376041285366  0.3405900025847667
  0.6582975938765048  0.3058630209656199  0.3405904619258293
  0.4131408694082593  0.6598252163228338  0.3809596491796249
  0.5868597422270404  0.3401754826204600  0.3809595300568088
  0.4042777975632649  0.6023018117608118  0.4671405701473375
  0.5957233558636965  0.3976994919222334  0.4671404397202571
  0.4042751156065158  0.6023000634436737  0.5328622710805849
  0.5957250989572996  0.3977005802952906  0.5328620209987002
  0.4351472056768334  0.6492567153327303  0.4349264271946101
  0.5648536009491093  0.3507440716515793  0.4349261525533216
  0.4131323432266539  0.6598198575314462  0.6190433022725508
  0.5868674603737314  0.3401802582775049  0.6190429941717132
  0.4351427886182061  0.6492542918421197  0.5650796547157986
  0.5648573926095206  0.3507461512888384  0.5650793441785209
  0.3950982642837054  0.7328850470323796  0.6389324620777634
  0.6049018907548150  0.2671153831767933  0.6389317833103032
  0.4304535279927446  0.7161907336631403  0.6191911584738988
  0.5695463767278818  0.2838095812582239  0.6191904002293561
  0.3359643769800682  0.7613274391166086  0.6054494106149982
  0.6640356780441090  0.2386727963039408  0.6054491684673202
  0.3144029851586982  0.7718360495994773  0.5537262468548698
  0.6855968696051653  0.2281637878708088  0.5537263037115656
  0.3913565824317474  0.7739562282164834  0.6054167490602886
  0.6086436628586335  0.2260443594260160  0.6054160745757861
  0.3144074257682469  0.7718400597700766  0.4462734515123537
  0.6855927677521847  0.2281603397721357  0.4462736404891606
  0.3359726097603460  0.7613332775973459  0.3945524090605362
  0.6640279319060191  0.2386672427673817  0.3945521952509189
  0.3471048617881219  0.7951923497007958  0.5000013700742053
  0.6528955018878974  0.2048078336413874  0.5000012046309512
  0.3951083787992983  0.7328917618519939  0.3610706773355014
  0.6048922247450211  0.2671088443603124  0.3610706702540482
  0.4304626552838097  0.7161965114656615  0.3808146300546404
  0.5695376148167972  0.2838038359401311  0.3808146153577378
  0.3913647919559505  0.7739617905425606  0.3945871647159929
  0.6086356960122484  0.2260386610178964  0.3945869986182492
  0.4666289410595945  0.6986790487640051  0.4680882802443982
  0.5333715127781808  0.3013215438468477  0.4680878985501721
  0.4666268784611337  0.6986772861823839  0.5319209109651870
  0.5333732843205244  0.3013231102632943  0.5319203782309652
  0.4634748037541808  0.7400252212094087  0.5654735453819607
  0.5365250936120605  0.2599753108463643  0.5654732384984068
  0.4634793242254774  0.7400271283047490  0.4345360856668284
  0.5365210181375922  0.2599733248288064  0.4345356086570588
  0.4221873564552237  0.7952961234499627  0.5532873162110106
  0.5778126889763751  0.2047043614941002  0.5532866005993575
  0.3994134513338649  0.8053717817229079  0.5000029598764898
  0.6005870246053537  0.1946288541039488  0.5000026409936018
  0.4221921296881457  0.7952986969079996  0.4467205553046278
  0.5778081962326560  0.2047018354572625  0.4467203530176329
  0.4594711193907104  0.7792338999389576  0.5330240117648644
  0.5405288664369799  0.2207663667837518  0.5330235225938756
  0.4594735659658212  0.7792353090032501  0.4669866904715092
  0.5405265602016586  0.2207651034269603  0.4669863088888465
  0.9856226359363376  0.0400121632510619  0.3813392458770953
  0.4040799356518092  0.9958350910597982  0.4439602367208378
  0.0036495231809046  0.4082440320040707  0.4439098115854165
  0.5916690030173324  0.5962399012486248  0.4439504108875947
  0.9454284079754518  0.9854605357997770  0.3813375966358779
  0.4428080500277583  0.0506776101867413  0.4440116689875661
  0.9488739480446615  0.3920226431849623  0.4439801047199368
  0.6082233958855561  0.5580602696192873  0.4439322087742560
  0.9110045878135021  0.9762927149510054  0.4355392820653942
  0.4896066525150182  0.0571274789102320  0.4084071566786855
  0.9424110466363236  0.4321778728910774  0.4082523926140466
  0.5679444429311800  0.5110539569145763  0.4082731802602634
  0.9765570237947609  0.0652495802891680  0.4355385504645039
  0.4265475163976825  0.9679264118022238  0.4083097494071354
  0.0318202229406459  0.4588989660448599  0.4081692674840661
  0.5409912529519108  0.5732867634647942  0.4081876446387189
  0.9301162549050495  0.0258209265699298  0.4672648616617740
  0.4786865599567170  0.0062491031719195  0.3860667282184495
  0.9935704491218537  0.4724265690274743  0.3858752048432226
  0.5275880586463360  0.5214342185995218  0.3859336600528137
  0.0261794519644404  0.0958558686354501  0.4672603274656587
  0.4205257440113314  0.9237388729815690  0.4433696639121270
  0.0759046138615095  0.4971842867356080  0.4433309148930153
  0.5025587310318755  0.5787473062407550  0.4433131433685521
  0.0401899048539019  0.0545430893730281  0.3813340043491941
  0.3848584877785913  0.9684238895926555  0.4999956379406467
  0.0309408163955564  0.4165510182150414  0.4999940083002212
  0.5833295655377645  0.6152265494032442  0.4999931813099186
  0.0655533276474683  0.0889607608942212  0.4355319944174534
  0.3957037204114773  0.9236447286552559  0.4999958965473080
  0.0755561162845834  0.4724667361988699  0.4999949897480638
  0.5272576589765388  0.6033276480520356  0.4999942829436735
  0.0545719811116319  0.0145398157718323  0.3813375880735699
  0.4040797620573972  0.9958351070858434  0.5560302277516281
  0.0036493876699549  0.4082427318687112  0.5560801909205367
  0.5916706126810845  0.5962398171453468  0.5560351090924531
  0.9598104999951599  0.9454572923716678  0.3813340169930587
  0.4620843122963744  0.0778697453955605  0.4999954324539057
  0.9215475702830972  0.3838733416199527  0.4999945872624410
  0.6162198068585113  0.5390429480971739  0.4999920916822209
  0.0143777362619399  0.9599881989133269  0.3813392539556366
  0.4428079384754038  0.0506777111141682  0.5559787639611242
  0.9488752635209310  0.3920230735946637  0.5560091109477926
  0.6082253014977420  0.5580610714750658  0.5560528599295961
  0.9039420894598194  0.9299746042182440  0.4672629028516335
  0.5367642002184645  0.0879211083944772  0.4434862322703106
  0.9115966890275893  0.4482163540127698  0.4433259833326722
  0.5519375655838541  0.4641260633991282  0.4434538985639793
  0.9344470533696726  0.9110395957863320  0.4355319912900901
  0.5204225153693537  0.0995922550870666  0.4999954137376610
  0.8997897433606289  0.4199998742418378  0.4999950511159682
  0.5797580094692588  0.4809311135506564  0.4999930587993623
  0.9039410489501689  0.9299739380678005  0.5327287405551197
  0.5794750758236359  0.0762614228902699  0.4433692117434661
  0.9240968295896472  0.5028157008026107  0.4433306512023737
  0.4974378206280593  0.4212502303702449  0.4433133259918990
  0.9301159876903925  0.0258211569190442  0.5327271362670172
  0.5213134960255973  0.9937506149969824  0.3860661798820914
  0.0064301280808161  0.5275724975635949  0.3858765967940945
  0.4724080394411055  0.4785637474563018  0.3859323522968894
  0.9110051875928701  0.9762935736057021  0.5644522331508492
  0.5734526976140822  0.0320735149957959  0.4083090474507389
  0.9681810009023415  0.5411009308068951  0.4081697437943942
  0.4590048951743455  0.4267103805905195  0.4081869786925271
  0.0261795298530401  0.0958558707278856  0.5327317173951419
  0.4632360981546164  0.9120785395411364  0.4434861363814102
  0.0884031915442821  0.5517829531348694  0.4433276794072146
  0.4480586971859201  0.5358733788996265  0.4434529560974739
  0.9765571605548837  0.0652501208802197  0.5644538452030671
  0.5103934276040871  0.9428721027887177  0.4084068415350725
  0.0575894798568405  0.5678212777230049  0.4082539092306081
  0.4320511409914629  0.4889434273540447  0.4082713267428510
  0.0655533511828771  0.0889605318385185  0.5644600516939690
  0.4795779388166604  0.9004075043886894  0.4999955787884039
  0.1002112030956933  0.5800003829598334  0.4999955529193290
  0.4202391071759099  0.5190672214992345  0.4999936438456904
  0.0960582903049080  0.0700256743006812  0.4672629172228732
  0.4205263218494925  0.9237382766980695  0.5566219084539580
  0.0759039710340457  0.4971828078102356  0.5566581973097228
  0.5025592737454815  0.5787470971049030  0.5566747388624946
  0.0889957865351545  0.0237075690805849  0.4355392605543590
  0.4265492386776631  0.9679264976435131  0.5916804856872905
  0.0318205999942817  0.4588991450340763  0.5918203525657690
  0.5409927712586290  0.5732861150112226  0.5917990526366503
  0.0960593225669882  0.0700263383995428  0.5327287365666648
  0.4632372740283877  0.9120785555566081  0.5565047814756222
  0.0884017580743336  0.5517827204669394  0.5566614541642315
  0.4480587868235266  0.5358740515397250  0.5565350157041028
  0.0234432838223043  0.9347507219774179  0.4355385393881142
  0.4896040952172864  0.0571276359598344  0.5915827261998180
  0.9424116775220279  0.4321777155870027  0.5917366295328393
  0.5679470860154023  0.5110553665999693  0.5917130902950842
  0.9738208562868241  0.9041444441896901  0.4672603177466890
  0.5367632261311589  0.0879211943386326  0.5565043304027986
  0.9115976269197188  0.4482165268457968  0.5566618560915976
  0.5519388291190397  0.4641253549629645  0.5565338195061549
  0.0698840213605299  0.9741792813780722  0.4672648642835590
  0.4786864532541055  0.0062489307099173  0.6139247120337944
  0.9935702966438053  0.4724262713185747  0.6141139435249814
  0.5275898833118328  0.5214338207267314  0.6140527031695093
  0.9344470159106242  0.9110398117023132  0.5644600351582710
  0.6042968928419092  0.0763553502394619  0.4999958583995959
  0.9244451951653530  0.5275336586774703  0.4999943157128171
  0.4727398865112841  0.3966705389304869  0.4999945076917593
  0.9738207701832683  0.9041444349442922  0.5327317132532519
  0.5794745448630462  0.0762616312554594  0.5566222023645613
  0.9240968040040036  0.5028172076184846  0.5566564800577992
  0.4974387798255767  0.4212510016322549  0.5566757825831490
  0.9454292805257524  0.9854611733671765  0.6186526264107803
  0.5959199939223097  0.0041647100910380  0.4439601562091360
  0.9963523493256375  0.5917566979398550  0.4439088158716856
  0.4083289375304577  0.4037589540382166  0.4439505901555938
  0.9856236540705884  0.0400126778104417  0.6186520737135830
  0.5571918071671358  0.9493222415603925  0.4440117954541573
  0.0511275168742722  0.6079775525996787  0.4439804754205506
  0.3917744190993918  0.4419386847012671  0.4439326037035071
  0.0401900860627378  0.0545430568446521  0.6186566311073699
  0.5379159330148818  0.9221306420028176  0.4999956228010575
  0.0784537245602264  0.6161278091254674  0.4999945875639962
  0.3837795395411521  0.4609569051021551  0.4999928837539631
  0.9598103124929778  0.9454573251784172  0.6186566064878343
  0.6151414069169121  0.0315759969029464  0.4999955867727331
  0.9690601351798140  0.5834498814229543  0.4999933650258236
  0.4166698794974285  0.3847732711708933  0.4999937321588736
  0.0889951704299827  0.0237067012178012  0.5644522570162357
  0.5103961023136858  0.9428724526949429  0.5915834180301099
  0.0575875162463589  0.5678211700161000  0.5917352187748137
  0.4320505452131900  0.4889435997255752  0.5917146543902762
  0.0698842872598236  0.9741790499170585  0.5327271309785149
  0.5213142707007188  0.9937511989488653  0.6139251287551811
  0.0064293011265905  0.5275728131045040  0.6141124384974329
  0.4724080335762811  0.4785647121419831  0.6140542811787806
  0.0234431379905021  0.9347501698600466  0.5644538399693718
  0.5734519134075160  0.0320736188806169  0.5916810782818596
  0.9681796291614203  0.5411008127586893  0.5918190705198080
  0.4590050932137591  0.4267117207409756  0.5918009658315204
  0.0545710994908398  0.0145391741611120  0.6186526405436882
  0.5571919959031630  0.9493223534777818  0.5559788510480826
  0.0511254724219831  0.6079771561436632  0.5560083500510365
  0.3917740165377008  0.4419387901592459  0.5560542127364713
  0.0143767092190572  0.9599876833241627  0.6186520582000186
  0.5959203653984345  0.0041647266789339  0.5560303233291822
  0.9963513545215208  0.5917580391891319  0.5560792518994722
  0.4083286365865824  0.4037596715165660  0.5560362491985748
 
  0.00000000E+00  0.00000000E+00  0.00000000E+00
  0.00000000E+00  0.00000000E+00  0.00000000E+00
  0.00000000E+00  0.00000000E+00  0.00000000E+00
  0.00000000E+00  0.00000000E+00  0.00000000E+00
  0.00000000E+00  0.00000000E+00  0.00000000E+00
  0.00000000E+00  0.00000000E+00  0.00000000E+00
  0.00000000E+00  0.00000000E+00  0.00000000E+00
  0.00000000E+00  0.00000000E+00  0.00000000E+00
  0.00000000E+00  0.00000000E+00  0.00000000E+00
  0.00000000E+00  0.00000000E+00  0.00000000E+00
  0.00000000E+00  0.00000000E+00  0.00000000E+00
  0.00000000E+00  0.00000000E+00  0.00000000E+00
  0.00000000E+00  0.00000000E+00  0.00000000E+00
  0.00000000E+00  0.00000000E+00  0.00000000E+00
  0.00000000E+00  0.00000000E+00  0.00000000E+00
  0.00000000E+00  0.00000000E+00  0.00000000E+00
  0.00000000E+00  0.00000000E+00  0.00000000E+00
  0.00000000E+00  0.00000000E+00  0.00000000E+00
  0.00000000E+00  0.00000000E+00  0.00000000E+00
  0.00000000E+00  0.00000000E+00  0.00000000E+00
  0.00000000E+00  0.00000000E+00  0.00000000E+00
  0.00000000E+00  0.00000000E+00  0.00000000E+00
  0.00000000E+00  0.00000000E+00  0.00000000E+00
  0.00000000E+00  0.00000000E+00  0.00000000E+00
  0.00000000E+00  0.00000000E+00  0.00000000E+00
  0.00000000E+00  0.00000000E+00  0.00000000E+00
  0.00000000E+00  0.00000000E+00  0.00000000E+00
  0.00000000E+00  0.00000000E+00  0.00000000E+00
  0.00000000E+00  0.00000000E+00  0.00000000E+00
  0.00000000E+00  0.00000000E+00  0.00000000E+00
  0.00000000E+00  0.00000000E+00  0.00000000E+00
  0.00000000E+00  0.00000000E+00  0.00000000E+00
  0.00000000E+00  0.00000000E+00  0.00000000E+00
  0.00000000E+00  0.00000000E+00  0.00000000E+00
  0.00000000E+00  0.00000000E+00  0.00000000E+00
  0.00000000E+00  0.00000000E+00  0.00000000E+00
  0.00000000E+00  0.00000000E+00  0.00000000E+00
  0.00000000E+00  0.00000000E+00  0.00000000E+00
  0.00000000E+00  0.00000000E+00  0.00000000E+00
  0.00000000E+00  0.00000000E+00  0.00000000E+00
  0.00000000E+00  0.00000000E+00  0.00000000E+00
  0.00000000E+00  0.00000000E+00  0.00000000E+00
  0.00000000E+00  0.00000000E+00  0.00000000E+00
  0.00000000E+00  0.00000000E+00  0.00000000E+00
  0.00000000E+00  0.00000000E+00  0.00000000E+00
  0.00000000E+00  0.00000000E+00  0.00000000E+00
  0.00000000E+00  0.00000000E+00  0.00000000E+00
  0.00000000E+00  0.00000000E+00  0.00000000E+00
  0.00000000E+00  0.00000000E+00  0.00000000E+00
  0.00000000E+00  0.00000000E+00  0.00000000E+00
  0.00000000E+00  0.00000000E+00  0.00000000E+00
  0.00000000E+00  0.00000000E+00  0.00000000E+00
  0.00000000E+00  0.00000000E+00  0.00000000E+00
  0.00000000E+00  0.00000000E+00  0.00000000E+00
  0.00000000E+00  0.00000000E+00  0.00000000E+00
  0.00000000E+00  0.00000000E+00  0.00000000E+00
  0.00000000E+00  0.00000000E+00  0.00000000E+00
  0.00000000E+00  0.00000000E+00  0.00000000E+00
  0.00000000E+00  0.00000000E+00  0.00000000E+00
  0.00000000E+00  0.00000000E+00  0.00000000E+00
  0.00000000E+00  0.00000000E+00  0.00000000E+00
  0.00000000E+00  0.00000000E+00  0.00000000E+00
  0.00000000E+00  0.00000000E+00  0.00000000E+00
  0.00000000E+00  0.00000000E+00  0.00000000E+00
  0.00000000E+00  0.00000000E+00  0.00000000E+00
  0.00000000E+00  0.00000000E+00  0.00000000E+00
  0.00000000E+00  0.00000000E+00  0.00000000E+00
  0.00000000E+00  0.00000000E+00  0.00000000E+00
  0.00000000E+00  0.00000000E+00  0.00000000E+00
  0.00000000E+00  0.00000000E+00  0.00000000E+00
  0.00000000E+00  0.00000000E+00  0.00000000E+00
  0.00000000E+00  0.00000000E+00  0.00000000E+00
  0.00000000E+00  0.00000000E+00  0.00000000E+00
  0.00000000E+00  0.00000000E+00  0.00000000E+00
  0.00000000E+00  0.00000000E+00  0.00000000E+00
  0.00000000E+00  0.00000000E+00  0.00000000E+00
  0.00000000E+00  0.00000000E+00  0.00000000E+00
  0.00000000E+00  0.00000000E+00  0.00000000E+00
  0.00000000E+00  0.00000000E+00  0.00000000E+00
  0.00000000E+00  0.00000000E+00  0.00000000E+00
  0.00000000E+00  0.00000000E+00  0.00000000E+00
  0.00000000E+00  0.00000000E+00  0.00000000E+00
  0.00000000E+00  0.00000000E+00  0.00000000E+00
  0.00000000E+00  0.00000000E+00  0.00000000E+00
  0.00000000E+00  0.00000000E+00  0.00000000E+00
  0.00000000E+00  0.00000000E+00  0.00000000E+00
  0.00000000E+00  0.00000000E+00  0.00000000E+00
  0.00000000E+00  0.00000000E+00  0.00000000E+00
  0.00000000E+00  0.00000000E+00  0.00000000E+00
  0.00000000E+00  0.00000000E+00  0.00000000E+00
  0.00000000E+00  0.00000000E+00  0.00000000E+00
  0.00000000E+00  0.00000000E+00  0.00000000E+00
  0.00000000E+00  0.00000000E+00  0.00000000E+00
  0.00000000E+00  0.00000000E+00  0.00000000E+00
  0.00000000E+00  0.00000000E+00  0.00000000E+00
  0.00000000E+00  0.00000000E+00  0.00000000E+00
  0.00000000E+00  0.00000000E+00  0.00000000E+00
  0.00000000E+00  0.00000000E+00  0.00000000E+00
  0.00000000E+00  0.00000000E+00  0.00000000E+00
  0.00000000E+00  0.00000000E+00  0.00000000E+00
  0.00000000E+00  0.00000000E+00  0.00000000E+00
  0.00000000E+00  0.00000000E+00  0.00000000E+00
  0.00000000E+00  0.00000000E+00  0.00000000E+00
  0.00000000E+00  0.00000000E+00  0.00000000E+00
  0.00000000E+00  0.00000000E+00  0.00000000E+00
  0.00000000E+00  0.00000000E+00  0.00000000E+00
  0.00000000E+00  0.00000000E+00  0.00000000E+00
  0.00000000E+00  0.00000000E+00  0.00000000E+00
  0.00000000E+00  0.00000000E+00  0.00000000E+00
  0.00000000E+00  0.00000000E+00  0.00000000E+00
  0.00000000E+00  0.00000000E+00  0.00000000E+00
  0.00000000E+00  0.00000000E+00  0.00000000E+00
  0.00000000E+00  0.00000000E+00  0.00000000E+00
  0.00000000E+00  0.00000000E+00  0.00000000E+00
  0.00000000E+00  0.00000000E+00  0.00000000E+00
  0.00000000E+00  0.00000000E+00  0.00000000E+00
  0.00000000E+00  0.00000000E+00  0.00000000E+00
  0.00000000E+00  0.00000000E+00  0.00000000E+00
  0.00000000E+00  0.00000000E+00  0.00000000E+00
  0.00000000E+00  0.00000000E+00  0.00000000E+00
  0.00000000E+00  0.00000000E+00  0.00000000E+00
  0.00000000E+00  0.00000000E+00  0.00000000E+00
  0.00000000E+00  0.00000000E+00  0.00000000E+00
  0.00000000E+00  0.00000000E+00  0.00000000E+00
  0.00000000E+00  0.00000000E+00  0.00000000E+00
  0.00000000E+00  0.00000000E+00  0.00000000E+00
  0.00000000E+00  0.00000000E+00  0.00000000E+00
  0.00000000E+00  0.00000000E+00  0.00000000E+00
  0.00000000E+00  0.00000000E+00  0.00000000E+00
  0.00000000E+00  0.00000000E+00  0.00000000E+00
  0.00000000E+00  0.00000000E+00  0.00000000E+00
  0.00000000E+00  0.00000000E+00  0.00000000E+00
  0.00000000E+00  0.00000000E+00  0.00000000E+00
  0.00000000E+00  0.00000000E+00  0.00000000E+00
  0.00000000E+00  0.00000000E+00  0.00000000E+00
  0.00000000E+00  0.00000000E+00  0.00000000E+00
  0.00000000E+00  0.00000000E+00  0.00000000E+00
  0.00000000E+00  0.00000000E+00  0.00000000E+00
  0.00000000E+00  0.00000000E+00  0.00000000E+00
  0.00000000E+00  0.00000000E+00  0.00000000E+00
  0.00000000E+00  0.00000000E+00  0.00000000E+00
  0.00000000E+00  0.00000000E+00  0.00000000E+00
  0.00000000E+00  0.00000000E+00  0.00000000E+00
  0.00000000E+00  0.00000000E+00  0.00000000E+00
  0.00000000E+00  0.00000000E+00  0.00000000E+00
  0.00000000E+00  0.00000000E+00  0.00000000E+00
  0.00000000E+00  0.00000000E+00  0.00000000E+00
  0.00000000E+00  0.00000000E+00  0.00000000E+00
  0.00000000E+00  0.00000000E+00  0.00000000E+00
  0.00000000E+00  0.00000000E+00  0.00000000E+00
  0.00000000E+00  0.00000000E+00  0.00000000E+00
  0.00000000E+00  0.00000000E+00  0.00000000E+00
  0.00000000E+00  0.00000000E+00  0.00000000E+00
  0.00000000E+00  0.00000000E+00  0.00000000E+00
  0.00000000E+00  0.00000000E+00  0.00000000E+00
  0.00000000E+00  0.00000000E+00  0.00000000E+00
  0.00000000E+00  0.00000000E+00  0.00000000E+00
  0.00000000E+00  0.00000000E+00  0.00000000E+00
  0.00000000E+00  0.00000000E+00  0.00000000E+00
  0.00000000E+00  0.00000000E+00  0.00000000E+00
  0.00000000E+00  0.00000000E+00  0.00000000E+00
  0.00000000E+00  0.00000000E+00  0.00000000E+00
  0.00000000E+00  0.00000000E+00  0.00000000E+00
  0.00000000E+00  0.00000000E+00  0.00000000E+00
  0.00000000E+00  0.00000000E+00  0.00000000E+00
  0.00000000E+00  0.00000000E+00  0.00000000E+00
  0.00000000E+00  0.00000000E+00  0.00000000E+00
  0.00000000E+00  0.00000000E+00  0.00000000E+00
  0.00000000E+00  0.00000000E+00  0.00000000E+00
  0.00000000E+00  0.00000000E+00  0.00000000E+00
  0.00000000E+00  0.00000000E+00  0.00000000E+00
  0.00000000E+00  0.00000000E+00  0.00000000E+00
  0.00000000E+00  0.00000000E+00  0.00000000E+00
  0.00000000E+00  0.00000000E+00  0.00000000E+00
  0.00000000E+00  0.00000000E+00  0.00000000E+00
  0.00000000E+00  0.00000000E+00  0.00000000E+00
  0.00000000E+00  0.00000000E+00  0.00000000E+00
  0.00000000E+00  0.00000000E+00  0.00000000E+00
  0.00000000E+00  0.00000000E+00  0.00000000E+00
  0.00000000E+00  0.00000000E+00  0.00000000E+00
  0.00000000E+00  0.00000000E+00  0.00000000E+00
  0.00000000E+00  0.00000000E+00  0.00000000E+00
  0.00000000E+00  0.00000000E+00  0.00000000E+00
  0.00000000E+00  0.00000000E+00  0.00000000E+00
  0.00000000E+00  0.00000000E+00  0.00000000E+00
  0.00000000E+00  0.00000000E+00  0.00000000E+00
  0.00000000E+00  0.00000000E+00  0.00000000E+00
  0.00000000E+00  0.00000000E+00  0.00000000E+00
  0.00000000E+00  0.00000000E+00  0.00000000E+00
  0.00000000E+00  0.00000000E+00  0.00000000E+00
  0.00000000E+00  0.00000000E+00  0.00000000E+00
  0.00000000E+00  0.00000000E+00  0.00000000E+00
  0.00000000E+00  0.00000000E+00  0.00000000E+00
  0.00000000E+00  0.00000000E+00  0.00000000E+00
  0.00000000E+00  0.00000000E+00  0.00000000E+00
  0.00000000E+00  0.00000000E+00  0.00000000E+00
  0.00000000E+00  0.00000000E+00  0.00000000E+00
  0.00000000E+00  0.00000000E+00  0.00000000E+00
  0.00000000E+00  0.00000000E+00  0.00000000E+00
  0.00000000E+00  0.00000000E+00  0.00000000E+00
  0.00000000E+00  0.00000000E+00  0.00000000E+00
  0.00000000E+00  0.00000000E+00  0.00000000E+00
  0.00000000E+00  0.00000000E+00  0.00000000E+00
  0.00000000E+00  0.00000000E+00  0.00000000E+00
  0.00000000E+00  0.00000000E+00  0.00000000E+00
  0.00000000E+00  0.00000000E+00  0.00000000E+00
  0.00000000E+00  0.00000000E+00  0.00000000E+00
  0.00000000E+00  0.00000000E+00  0.00000000E+00
  0.00000000E+00  0.00000000E+00  0.00000000E+00
  0.00000000E+00  0.00000000E+00  0.00000000E+00
  0.00000000E+00  0.00000000E+00  0.00000000E+00
  0.00000000E+00  0.00000000E+00  0.00000000E+00
  0.00000000E+00  0.00000000E+00  0.00000000E+00
  0.00000000E+00  0.00000000E+00  0.00000000E+00
  0.00000000E+00  0.00000000E+00  0.00000000E+00
  0.00000000E+00  0.00000000E+00  0.00000000E+00
  0.00000000E+00  0.00000000E+00  0.00000000E+00
  0.00000000E+00  0.00000000E+00  0.00000000E+00
  0.00000000E+00  0.00000000E+00  0.00000000E+00
  0.00000000E+00  0.00000000E+00  0.00000000E+00
  0.00000000E+00  0.00000000E+00  0.00000000E+00
  0.00000000E+00  0.00000000E+00  0.00000000E+00
  0.00000000E+00  0.00000000E+00  0.00000000E+00
  0.00000000E+00  0.00000000E+00  0.00000000E+00
  0.00000000E+00  0.00000000E+00  0.00000000E+00
  0.00000000E+00  0.00000000E+00  0.00000000E+00
  0.00000000E+00  0.00000000E+00  0.00000000E+00
  0.00000000E+00  0.00000000E+00  0.00000000E+00
  0.00000000E+00  0.00000000E+00  0.00000000E+00
  0.00000000E+00  0.00000000E+00  0.00000000E+00
  0.00000000E+00  0.00000000E+00  0.00000000E+00
  0.00000000E+00  0.00000000E+00  0.00000000E+00
  0.00000000E+00  0.00000000E+00  0.00000000E+00
  0.00000000E+00  0.00000000E+00  0.00000000E+00
  0.00000000E+00  0.00000000E+00  0.00000000E+00
  0.00000000E+00  0.00000000E+00  0.00000000E+00
  0.00000000E+00  0.00000000E+00  0.00000000E+00
  0.00000000E+00  0.00000000E+00  0.00000000E+00
  0.00000000E+00  0.00000000E+00  0.00000000E+00
  0.00000000E+00  0.00000000E+00  0.00000000E+00
  0.00000000E+00  0.00000000E+00  0.00000000E+00
  0.00000000E+00  0.00000000E+00  0.00000000E+00
  0.00000000E+00  0.00000000E+00  0.00000000E+00
  0.00000000E+00  0.00000000E+00  0.00000000E+00
  0.00000000E+00  0.00000000E+00  0.00000000E+00
  0.00000000E+00  0.00000000E+00  0.00000000E+00
  0.00000000E+00  0.00000000E+00  0.00000000E+00
  0.00000000E+00  0.00000000E+00  0.00000000E+00
  0.00000000E+00  0.00000000E+00  0.00000000E+00
  0.00000000E+00  0.00000000E+00  0.00000000E+00
  0.00000000E+00  0.00000000E+00  0.00000000E+00
  0.00000000E+00  0.00000000E+00  0.00000000E+00
  0.00000000E+00  0.00000000E+00  0.00000000E+00
  0.00000000E+00  0.00000000E+00  0.00000000E+00
  0.00000000E+00  0.00000000E+00  0.00000000E+00
  0.00000000E+00  0.00000000E+00  0.00000000E+00
  0.00000000E+00  0.00000000E+00  0.00000000E+00
  0.00000000E+00  0.00000000E+00  0.00000000E+00
  0.00000000E+00  0.00000000E+00  0.00000000E+00
  0.00000000E+00  0.00000000E+00  0.00000000E+00
  0.00000000E+00  0.00000000E+00  0.00000000E+00
  0.00000000E+00  0.00000000E+00  0.00000000E+00
  0.00000000E+00  0.00000000E+00  0.00000000E+00
  0.00000000E+00  0.00000000E+00  0.00000000E+00
