Generated by VASPKIT code               
   1.00000000000000     
    19.9805231689982001   -1.7355245135249284    0.0000000000000000
   -11.7310120755113925   11.2223863019835584    0.0000000000000000
     0.0000000000000012    0.0000000000000014   21.9250285275768420
   C 
   228
Direct
  0.1991317199435067  0.3329391941655131  0.7432546892065037
  0.5678895790330263  0.0942989508454884  0.3982514285361423
  0.2953924011641751  0.3766588682391009  0.7371846659109544
  0.5033938515845758  0.0841461809435382  0.3554170043138805
  0.3245543127886578  0.3755489336372755  0.7974045655908595
  0.4221857717996144  0.0416110046880885  0.4010943216710389
  0.1690212531513498  0.3050971808466888  0.8071725172864667
  0.5234045033498060  0.0490743463608764  0.4588035149193671
  0.2466238147522656  0.3313805313231338  0.8406400194045097
  0.4329132227087031  0.0157927706540887  0.4606140700566088
  0.0614364178418852  0.1986964156882848  0.8237783767284069
  0.5873844688542688  0.1054876302628302  0.5118027002241538
  0.9798085947080873  0.1159914546473031  0.7770106385067143
  0.6992393768462293  0.2165344557023414  0.5035637105585778
  0.1204288042538234  0.2527246582469055  0.6984886551043904
  0.6771070655547728  0.2045106480431897  0.3919027022926624
  0.0089272672528942  0.1426913419897251  0.7155434580920479
  0.7378366200619720  0.2632234709708743  0.4454543550492326
  0.1350872306977724  0.2137781900320638  0.6459319513891724
  0.7325126940847442  0.3095039379138467  0.3470790034502216
  0.3094614634077295  0.3393630363364182  0.6864092582671274
  0.5632426561090007  0.2058830103867832  0.3232204882923421
  0.2278155261016950  0.2567052387765874  0.6395534477901954
  0.6738749053743726  0.3070636833698837  0.3105021721612694
  0.3532307973174864  0.2996108755692840  0.6939472139554278
  0.5242797879205005  0.2479107388640444  0.3146627960413402
  0.3672502592563583  0.3378458327979956  0.8046857622805280
  0.3897228016108001  0.0907699217036637  0.3967684753854336
  0.3820883658461982  0.2993377733036142  0.7519599045208359
  0.4385421138269558  0.1927116439229863  0.3517189546848479
  0.3332667873307822  0.2542569645324061  0.8555153401106560
  0.3647816760356826  0.1130538944668936  0.4512981053007452
  0.2138681216044118  0.2509269221395609  0.8896674256845726
  0.4098350082851773  0.0376720089149868  0.5144086454327582
  0.2579964076837108  0.2115291125826124  0.8971744664662222
  0.3753445943265721  0.0881901719413569  0.5095797268457416
  0.0273063148280117  0.1149342549537923  0.8746376121218652
  0.5648744886488443  0.1288038781089072  0.5676006726775198
  0.1021709104523819  0.1407163406561952  0.9071243687039909
  0.4767661427515082  0.0957931277961249  0.5687618508086364
  0.8951580405829905  0.9811188661005162  0.7988605345271066
  0.7488718643773539  0.3079106284910123  0.5540097629743022
  0.9245303427278118  0.9804813982718559  0.8592273004332818
  0.6653751376152504  0.2538691468301352  0.5939882841612735
  0.8422835886601714  0.8778797244487138  0.7583339372183351
  0.8367670816650645  0.4427510326065006  0.5427717575234018
  0.9544222096107634  0.0359055526933343  0.6733840184808975
  0.8438505818664284  0.4010016543483674  0.4332360711283082
  0.0325574260210419  0.0799835629149943  0.6304189269468397
  0.8305885379851535  0.4305106921048200  0.3726162349771073
  0.8726939657248368  0.9060694101333080  0.6944351576383350
  0.8797970982032530  0.4915395491020423  0.4823647275104915
  0.0264085676597307  0.9932314524710393  0.6092725012105621
  0.8664447120730177  0.5449743858078719  0.3635343275497540
  0.2213575217380153  0.1661856663572972  0.6179159756078068
  0.7111167845978704  0.4252028512148267  0.2976935169917224
  0.2984741387757019  0.1924634065154269  0.6519632627508251
  0.6179260348895298  0.3880216815897230  0.2993698532782438
  0.1225779187094467  0.0368639924269203  0.6027642567088766
  0.8061477395627299  0.5425925547220505  0.3257057478090349
  0.2747177888841549  0.0888518515788676  0.6693199292524985
  0.6260990842860515  0.4705670130220796  0.3291853454802220
  0.3572075559662954  0.1916304010132207  0.7700878294089442
  0.4453556228301983  0.2776764997595791  0.3799576884690307
  0.3269893628372648  0.1637623116770912  0.8340616448598639
  0.4007887240182633  0.2302171965223682  0.4410098238729120
  0.3046267366384651  0.0884714473963916  0.7294295374067645
  0.5421970634624034  0.4125996532434537  0.3713278097470565
  0.2452876095189087  0.0338962567983974  0.8549922349455830
  0.4481938063362200  0.3177064441192340  0.4895971714767888
  0.1734962792015228  0.0768315832274978  0.9191780950399986
  0.4219263408025914  0.1788031789118859  0.5599987490279291
  0.0770186042134918  0.0327507859255119  0.9253591302514208
  0.4848962890065386  0.1840603386527110  0.5970707819959915
  0.1672169965018649  0.9895956710516507  0.8982916131534689
  0.4577207003945829  0.2932003249463442  0.5499778627417280
  0.8999825443862869  0.8762959832238978  0.8768417319211929
  0.6743420681467881  0.3405667409426840  0.6213538845537255
  0.9778267248661066  0.9031166637869988  0.9105272980291688
  0.5819303752096616  0.3044608839494726  0.6226518650856938
  0.8168860086021861  0.7697166316737356  0.7765080537371599
  0.8504943919305454  0.5336454156288585  0.5724278742701062
  0.8453198413184282  0.7690394904986463  0.8346314468929060
  0.7678526926437999  0.4814754476274218  0.6101277822112955
  0.8670180126868674  0.8164243485903006  0.6734143816152431
  0.9222271437127200  0.6098361828391569  0.4727354787853590
  0.9427779231526067  0.8598424015855911  0.6321667763206673
  0.9150690874304430  0.6390615923806390  0.4136542128755954
  0.8318779014693816  0.7314361243354954  0.7237761690709615
  0.9020587512536873  0.6371845393169224  0.5281150475257986
  0.0976887663807201  0.9294066703588293  0.6214338796796954
  0.8140999195941641  0.6305660022110545  0.3537390750146729
  0.1725339071983429  0.9546880978153843  0.6535796726306821
  0.7258686733638000  0.5955865973339506  0.3540365077484045
  0.9869441056559631  0.8207977442785984  0.6397866540714687
  0.8837414234735903  0.6914778687893975  0.4079621635465103
  0.2199151203067571  0.9535147886063233  0.7511887327300458
  0.5904529465640268  0.4946562281133594  0.4214189101497013
  0.1906459616479052  0.9270092624939089  0.8127040865659783
  0.5447444191339470  0.4543867416965407  0.4783529678602462
  0.1381904191568377  0.8706519267538981  0.7043726097839768
  0.7014964582684848  0.6282525094301120  0.4070723213359868
  0.0644712446026138  0.8555489269435926  0.8827895735316770
  0.5580068706988193  0.4180616095017044  0.5765986306154036
  0.9714364089483396  0.8126169419835737  0.8888683121307444
  0.6191179676085686  0.4240056441944886  0.6127853536248236
  0.8896132386966272  0.7298386198779033  0.8420075065026149
  0.7335289803015309  0.5327881581479298  0.6040975349933944
  0.0790319619665099  0.8170520324430812  0.8298626412059515
  0.6110068452984652  0.5192928741131644  0.5323741139041306
  0.8745590071952840  0.6936986732436459  0.7309722066532369
  0.8686556767972402  0.6850996611160294  0.5222933977289681
  0.9532198780025654  0.7388976023838655  0.6879540050117905
  0.8576015440535958  0.7119521003036713  0.4617089213553957
  0.0306042528037002  0.7646770779300738  0.7211085935348751
  0.7687496675518642  0.6781865304240707  0.4631208122655552
  0.9037280619601135  0.6926140675218108  0.7911140468338789
  0.7829648035398851  0.6313706333204360  0.5606508229836598
  0.0003181332038496  0.7369673697445720  0.7849983257303814
  0.7206124693118189  0.6257224043598463  0.5236483112732846
  0.4079300108330411  0.8034724471439527  0.3205256921276938
  0.1699672276484253  0.5759686464115046  0.3894624432237345
  0.3619657965570819  0.6381955195427886  0.4501515184037158
  0.3354526851128951  0.6610036115512373  0.2897955438142382
  0.1535773761848823  0.4758703475119734  0.3586607673003273
  0.3150259829767168  0.5432563165606251  0.3935756930405517
  0.2151143483166695  0.5691578813902456  0.2996692967262137
  0.2004520621533539  0.4599278818725488  0.4068514605922721
  0.3806540267456912  0.6386302601740341  0.3352064107071789
  0.3270495342612691  0.7894581247016252  0.3356631354395673
  0.2171991735256882  0.6146125804050057  0.4499906193914497
  0.4536399234504017  0.7768237257818903  0.4300682750736458
  0.2201173805351712  0.6601957119862860  0.3338939605886075
  0.2454003079380170  0.5572266999906554  0.4640014874831466
  0.4617179060350067  0.7874555704445434  0.3623389151444002
  0.3485949412087620  0.8867219898267852  0.3158604071403576
  0.1793482023410005  0.6347090875743870  0.4911835457102006
  0.5398332360782324  0.8488602581212730  0.4705378258954738
  0.4809678010567493  0.9265087260249449  0.2824060343298074
  0.0863764591919330  0.5654128969536555  0.3894352409485997
  0.4069386160362314  0.6346289565087921  0.5031781476678200
  0.4585273999956405  0.9956594231023977  0.2931522237815121
  0.0939359584347359  0.5949758191976965  0.4584091085132466
  0.5095783114319857  0.7626388011045631  0.5181888531905948
  0.4860541399227714  0.9180682270726050  0.2207232424349102
  0.9783725033559145  0.4307819169307505  0.3820564906122869
  0.4069407164081718  0.5482653358501945  0.5047309914810910
  0.3474266813291335  0.6755475337133354  0.2221130768363797
  0.0389760155935812  0.3443502351766563  0.3575108208766785
  0.3384098136293314  0.4778471741376378  0.3977763977799643
  0.4228348024783915  0.7951187064309464  0.1907343140889386
  0.9615335957160265  0.3323392801564320  0.3675038033145424
  0.3727056576673771  0.4707317963712089  0.4523188953485935
  0.1688327400302595  0.5368742540044541  0.2362693870625394
  0.1081813524626785  0.3169489804426796  0.4274295087690504
  0.4348130866449555  0.6130699942687399  0.3134660267132647
  0.2463712035724407  0.5944344235516332  0.1924188730750445
  0.0162909551684985  0.2534801381515431  0.3938947262791584
  0.4031745957087739  0.5148727260694617  0.3497567743527891
  0.0937353824482216  0.5297752555475321  0.2240098225962509
  0.0955135659030959  0.2809310428364978  0.4894303884999910
  0.5389915914308836  0.7138156150399022  0.2911713168588371
  0.1308925951851670  0.6412956933243805  0.3258630406629411
  0.2182278426153356  0.5046421773875878  0.5261222135594870
  0.5732440325509434  0.8807630338262041  0.3428614781161794
  0.0648744550261510  0.5632254748287919  0.2673972186672316
  0.1577629946342346  0.3745487078936135  0.5378025057009100
  0.6028917517808607  0.8478235966020313  0.3011619672449272
  0.2754325632627214  0.8820426434848595  0.3063357674783037
  0.1683746069901011  0.5979795318458733  0.5544092070919682
  0.6476807927488809  0.9549131371129083  0.4503935120766125
  0.1677195073750438  0.7612763899553870  0.3117990010543677
  0.1965953053901209  0.5427796318083232  0.5712289538499430
  0.6582818797289517  0.9672998744396859  0.3867323604569739
  0.2913368655455987  0.9542062633634864  0.2570556873223937
  0.0672933245200100  0.5133048982507736  0.5838360093917500
  0.7365139795085237  0.9887862061544850  0.4817464717506019
  0.4525412852203449  0.0277536074860256  0.2280860540136330
  0.9963986847687022  0.4907566259986906  0.4848963143419503
  0.5799601165414534  0.7605804218563489  0.5299293153304300
  0.4703908468193020  0.9808548611946376  0.1869449232117945
  0.9144331660002516  0.3916364896614068  0.4368210701964008
  0.5138751162148626  0.6253423880947326  0.5224077193627462
  0.3724506437735865  0.0098840112847220  0.2129160914447636
  0.9803700499686803  0.4500798982666064  0.5468918766324978
  0.6842879666057990  0.8621169130535050  0.5063823190119568
  0.3705190670047186  0.7859201946742782  0.1382240118063792
  0.8870695679387621  0.2285077935183606  0.4104435012179868
  0.4572136090549997  0.4980311181004487  0.4358020610198695
  0.2615490461557104  0.6594483867016171  0.1379813440309880
  0.9095794090679558  0.1622677675910570  0.4241552883105391
  0.4772675207161827  0.5240891958530013  0.3720930978717615
  0.4036758615211671  0.9027257118889229  0.1338899255005831
  0.8605253084648251  0.2601959764844173  0.4532796965435643
  0.5454259379055986  0.5971748045197849  0.4778533769083951
  0.0933935215989185  0.5681957025624335  0.1640439760960080
  0.9881552780447320  0.1766551014148866  0.5174831327548165
  0.6097072301065106  0.7114411724349662  0.3052135278516449
  0.1840262316704604  0.6458386483563038  0.1240587951266655
  0.9178050086145846  0.1574476474440741  0.4893484516339914
  0.5807750165515745  0.6227388621795159  0.3483564612844237
  0.0513413217636517  0.6282766114340645  0.2327604122416916
  0.0931427274191164  0.3271548915841631  0.5932778411488433
  0.7136983515148049  0.9271857522869698  0.3152955259086500
  0.1127087798146465  0.7493595732530114  0.2609869320356304
  0.1181685494913017  0.4319672589748814  0.6137145650531171
  0.7427931260326859  0.9964624935134477  0.3671833775546622
  0.1888179723589468  0.8704097632218796  0.2280265081427625
  0.0369640146490349  0.4118380748545289  0.6219319619642871
  0.8005953388012058  0.0165118376244451  0.4193655154444788
  0.0638634913568009  0.6256278257028797  0.1690910923994582
  0.9859198654350534  0.2033913672666789  0.5811931581755396
  0.7163448095291748  0.8415850155499824  0.3178297588287887
  0.3186372567159454  0.9544655448238168  0.1557817827030141
  0.8942292989401641  0.3100448308476580  0.5614563733988981
  0.7195886816914561  0.8278600087283290  0.4719383962840059
  0.3265377461706468  0.8891138124899604  0.1186884170487821
  0.8459928472834696  0.2214828290937109  0.5139656127507164
  0.6467719618125548  0.6988827954473233  0.4538493314961178
  0.2171416311739512  0.7591272547341443  0.1084898806472491
  0.8340790117375733  0.1199678948253173  0.5251688340835590
  0.6755072664758848  0.6960016254554605  0.3910000233982678
  0.2046696899724947  0.8675715049096822  0.1646959494915008
  0.9297992896064375  0.2853668666646398  0.6071674907087465
  0.7864618450444888  0.9127570479007232  0.4206961637854279
  0.1424703087496570  0.7475523830767569  0.1358056564903252
  0.8984854342257425  0.1743734648635404  0.5900323508752353
  0.7579497703299761  0.8390126152002582  0.3700419756867309
 
  0.00000000E+00  0.00000000E+00  0.00000000E+00
  0.00000000E+00  0.00000000E+00  0.00000000E+00
  0.00000000E+00  0.00000000E+00  0.00000000E+00
  0.00000000E+00  0.00000000E+00  0.00000000E+00
  0.00000000E+00  0.00000000E+00  0.00000000E+00
  0.00000000E+00  0.00000000E+00  0.00000000E+00
  0.00000000E+00  0.00000000E+00  0.00000000E+00
  0.00000000E+00  0.00000000E+00  0.00000000E+00
  0.00000000E+00  0.00000000E+00  0.00000000E+00
  0.00000000E+00  0.00000000E+00  0.00000000E+00
  0.00000000E+00  0.00000000E+00  0.00000000E+00
  0.00000000E+00  0.00000000E+00  0.00000000E+00
  0.00000000E+00  0.00000000E+00  0.00000000E+00
  0.00000000E+00  0.00000000E+00  0.00000000E+00
  0.00000000E+00  0.00000000E+00  0.00000000E+00
  0.00000000E+00  0.00000000E+00  0.00000000E+00
  0.00000000E+00  0.00000000E+00  0.00000000E+00
  0.00000000E+00  0.00000000E+00  0.00000000E+00
  0.00000000E+00  0.00000000E+00  0.00000000E+00
  0.00000000E+00  0.00000000E+00  0.00000000E+00
  0.00000000E+00  0.00000000E+00  0.00000000E+00
  0.00000000E+00  0.00000000E+00  0.00000000E+00
  0.00000000E+00  0.00000000E+00  0.00000000E+00
  0.00000000E+00  0.00000000E+00  0.00000000E+00
  0.00000000E+00  0.00000000E+00  0.00000000E+00
  0.00000000E+00  0.00000000E+00  0.00000000E+00
  0.00000000E+00  0.00000000E+00  0.00000000E+00
  0.00000000E+00  0.00000000E+00  0.00000000E+00
  0.00000000E+00  0.00000000E+00  0.00000000E+00
  0.00000000E+00  0.00000000E+00  0.00000000E+00
  0.00000000E+00  0.00000000E+00  0.00000000E+00
  0.00000000E+00  0.00000000E+00  0.00000000E+00
  0.00000000E+00  0.00000000E+00  0.00000000E+00
  0.00000000E+00  0.00000000E+00  0.00000000E+00
  0.00000000E+00  0.00000000E+00  0.00000000E+00
  0.00000000E+00  0.00000000E+00  0.00000000E+00
  0.00000000E+00  0.00000000E+00  0.00000000E+00
  0.00000000E+00  0.00000000E+00  0.00000000E+00
  0.00000000E+00  0.00000000E+00  0.00000000E+00
  0.00000000E+00  0.00000000E+00  0.00000000E+00
  0.00000000E+00  0.00000000E+00  0.00000000E+00
  0.00000000E+00  0.00000000E+00  0.00000000E+00
  0.00000000E+00  0.00000000E+00  0.00000000E+00
  0.00000000E+00  0.00000000E+00  0.00000000E+00
  0.00000000E+00  0.00000000E+00  0.00000000E+00
  0.00000000E+00  0.00000000E+00  0.00000000E+00
  0.00000000E+00  0.00000000E+00  0.00000000E+00
  0.00000000E+00  0.00000000E+00  0.00000000E+00
  0.00000000E+00  0.00000000E+00  0.00000000E+00
  0.00000000E+00  0.00000000E+00  0.00000000E+00
  0.00000000E+00  0.00000000E+00  0.00000000E+00
  0.00000000E+00  0.00000000E+00  0.00000000E+00
  0.00000000E+00  0.00000000E+00  0.00000000E+00
  0.00000000E+00  0.00000000E+00  0.00000000E+00
  0.00000000E+00  0.00000000E+00  0.00000000E+00
  0.00000000E+00  0.00000000E+00  0.00000000E+00
  0.00000000E+00  0.00000000E+00  0.00000000E+00
  0.00000000E+00  0.00000000E+00  0.00000000E+00
  0.00000000E+00  0.00000000E+00  0.00000000E+00
  0.00000000E+00  0.00000000E+00  0.00000000E+00
  0.00000000E+00  0.00000000E+00  0.00000000E+00
  0.00000000E+00  0.00000000E+00  0.00000000E+00
  0.00000000E+00  0.00000000E+00  0.00000000E+00
  0.00000000E+00  0.00000000E+00  0.00000000E+00
  0.00000000E+00  0.00000000E+00  0.00000000E+00
  0.00000000E+00  0.00000000E+00  0.00000000E+00
  0.00000000E+00  0.00000000E+00  0.00000000E+00
  0.00000000E+00  0.00000000E+00  0.00000000E+00
  0.00000000E+00  0.00000000E+00  0.00000000E+00
  0.00000000E+00  0.00000000E+00  0.00000000E+00
  0.00000000E+00  0.00000000E+00  0.00000000E+00
  0.00000000E+00  0.00000000E+00  0.00000000E+00
  0.00000000E+00  0.00000000E+00  0.00000000E+00
  0.00000000E+00  0.00000000E+00  0.00000000E+00
  0.00000000E+00  0.00000000E+00  0.00000000E+00
  0.00000000E+00  0.00000000E+00  0.00000000E+00
  0.00000000E+00  0.00000000E+00  0.00000000E+00
  0.00000000E+00  0.00000000E+00  0.00000000E+00
  0.00000000E+00  0.00000000E+00  0.00000000E+00
  0.00000000E+00  0.00000000E+00  0.00000000E+00
  0.00000000E+00  0.00000000E+00  0.00000000E+00
  0.00000000E+00  0.00000000E+00  0.00000000E+00
  0.00000000E+00  0.00000000E+00  0.00000000E+00
  0.00000000E+00  0.00000000E+00  0.00000000E+00
  0.00000000E+00  0.00000000E+00  0.00000000E+00
  0.00000000E+00  0.00000000E+00  0.00000000E+00
  0.00000000E+00  0.00000000E+00  0.00000000E+00
  0.00000000E+00  0.00000000E+00  0.00000000E+00
  0.00000000E+00  0.00000000E+00  0.00000000E+00
  0.00000000E+00  0.00000000E+00  0.00000000E+00
  0.00000000E+00  0.00000000E+00  0.00000000E+00
  0.00000000E+00  0.00000000E+00  0.00000000E+00
  0.00000000E+00  0.00000000E+00  0.00000000E+00
  0.00000000E+00  0.00000000E+00  0.00000000E+00
  0.00000000E+00  0.00000000E+00  0.00000000E+00
  0.00000000E+00  0.00000000E+00  0.00000000E+00
  0.00000000E+00  0.00000000E+00  0.00000000E+00
  0.00000000E+00  0.00000000E+00  0.00000000E+00
  0.00000000E+00  0.00000000E+00  0.00000000E+00
  0.00000000E+00  0.00000000E+00  0.00000000E+00
  0.00000000E+00  0.00000000E+00  0.00000000E+00
  0.00000000E+00  0.00000000E+00  0.00000000E+00
  0.00000000E+00  0.00000000E+00  0.00000000E+00
  0.00000000E+00  0.00000000E+00  0.00000000E+00
  0.00000000E+00  0.00000000E+00  0.00000000E+00
  0.00000000E+00  0.00000000E+00  0.00000000E+00
  0.00000000E+00  0.00000000E+00  0.00000000E+00
  0.00000000E+00  0.00000000E+00  0.00000000E+00
  0.00000000E+00  0.00000000E+00  0.00000000E+00
  0.00000000E+00  0.00000000E+00  0.00000000E+00
  0.00000000E+00  0.00000000E+00  0.00000000E+00
  0.00000000E+00  0.00000000E+00  0.00000000E+00
  0.00000000E+00  0.00000000E+00  0.00000000E+00
  0.00000000E+00  0.00000000E+00  0.00000000E+00
  0.00000000E+00  0.00000000E+00  0.00000000E+00
  0.00000000E+00  0.00000000E+00  0.00000000E+00
  0.00000000E+00  0.00000000E+00  0.00000000E+00
  0.00000000E+00  0.00000000E+00  0.00000000E+00
  0.00000000E+00  0.00000000E+00  0.00000000E+00
  0.00000000E+00  0.00000000E+00  0.00000000E+00
  0.00000000E+00  0.00000000E+00  0.00000000E+00
  0.00000000E+00  0.00000000E+00  0.00000000E+00
  0.00000000E+00  0.00000000E+00  0.00000000E+00
  0.00000000E+00  0.00000000E+00  0.00000000E+00
  0.00000000E+00  0.00000000E+00  0.00000000E+00
  0.00000000E+00  0.00000000E+00  0.00000000E+00
  0.00000000E+00  0.00000000E+00  0.00000000E+00
  0.00000000E+00  0.00000000E+00  0.00000000E+00
  0.00000000E+00  0.00000000E+00  0.00000000E+00
  0.00000000E+00  0.00000000E+00  0.00000000E+00
  0.00000000E+00  0.00000000E+00  0.00000000E+00
  0.00000000E+00  0.00000000E+00  0.00000000E+00
  0.00000000E+00  0.00000000E+00  0.00000000E+00
  0.00000000E+00  0.00000000E+00  0.00000000E+00
  0.00000000E+00  0.00000000E+00  0.00000000E+00
  0.00000000E+00  0.00000000E+00  0.00000000E+00
  0.00000000E+00  0.00000000E+00  0.00000000E+00
  0.00000000E+00  0.00000000E+00  0.00000000E+00
  0.00000000E+00  0.00000000E+00  0.00000000E+00
  0.00000000E+00  0.00000000E+00  0.00000000E+00
  0.00000000E+00  0.00000000E+00  0.00000000E+00
  0.00000000E+00  0.00000000E+00  0.00000000E+00
  0.00000000E+00  0.00000000E+00  0.00000000E+00
  0.00000000E+00  0.00000000E+00  0.00000000E+00
  0.00000000E+00  0.00000000E+00  0.00000000E+00
  0.00000000E+00  0.00000000E+00  0.00000000E+00
  0.00000000E+00  0.00000000E+00  0.00000000E+00
  0.00000000E+00  0.00000000E+00  0.00000000E+00
  0.00000000E+00  0.00000000E+00  0.00000000E+00
  0.00000000E+00  0.00000000E+00  0.00000000E+00
  0.00000000E+00  0.00000000E+00  0.00000000E+00
  0.00000000E+00  0.00000000E+00  0.00000000E+00
  0.00000000E+00  0.00000000E+00  0.00000000E+00
  0.00000000E+00  0.00000000E+00  0.00000000E+00
  0.00000000E+00  0.00000000E+00  0.00000000E+00
  0.00000000E+00  0.00000000E+00  0.00000000E+00
  0.00000000E+00  0.00000000E+00  0.00000000E+00
  0.00000000E+00  0.00000000E+00  0.00000000E+00
  0.00000000E+00  0.00000000E+00  0.00000000E+00
  0.00000000E+00  0.00000000E+00  0.00000000E+00
  0.00000000E+00  0.00000000E+00  0.00000000E+00
  0.00000000E+00  0.00000000E+00  0.00000000E+00
  0.00000000E+00  0.00000000E+00  0.00000000E+00
  0.00000000E+00  0.00000000E+00  0.00000000E+00
  0.00000000E+00  0.00000000E+00  0.00000000E+00
  0.00000000E+00  0.00000000E+00  0.00000000E+00
  0.00000000E+00  0.00000000E+00  0.00000000E+00
  0.00000000E+00  0.00000000E+00  0.00000000E+00
  0.00000000E+00  0.00000000E+00  0.00000000E+00
  0.00000000E+00  0.00000000E+00  0.00000000E+00
  0.00000000E+00  0.00000000E+00  0.00000000E+00
  0.00000000E+00  0.00000000E+00  0.00000000E+00
  0.00000000E+00  0.00000000E+00  0.00000000E+00
  0.00000000E+00  0.00000000E+00  0.00000000E+00
  0.00000000E+00  0.00000000E+00  0.00000000E+00
  0.00000000E+00  0.00000000E+00  0.00000000E+00
  0.00000000E+00  0.00000000E+00  0.00000000E+00
  0.00000000E+00  0.00000000E+00  0.00000000E+00
  0.00000000E+00  0.00000000E+00  0.00000000E+00
  0.00000000E+00  0.00000000E+00  0.00000000E+00
  0.00000000E+00  0.00000000E+00  0.00000000E+00
  0.00000000E+00  0.00000000E+00  0.00000000E+00
  0.00000000E+00  0.00000000E+00  0.00000000E+00
  0.00000000E+00  0.00000000E+00  0.00000000E+00
  0.00000000E+00  0.00000000E+00  0.00000000E+00
  0.00000000E+00  0.00000000E+00  0.00000000E+00
  0.00000000E+00  0.00000000E+00  0.00000000E+00
  0.00000000E+00  0.00000000E+00  0.00000000E+00
  0.00000000E+00  0.00000000E+00  0.00000000E+00
  0.00000000E+00  0.00000000E+00  0.00000000E+00
  0.00000000E+00  0.00000000E+00  0.00000000E+00
  0.00000000E+00  0.00000000E+00  0.00000000E+00
  0.00000000E+00  0.00000000E+00  0.00000000E+00
  0.00000000E+00  0.00000000E+00  0.00000000E+00
  0.00000000E+00  0.00000000E+00  0.00000000E+00
  0.00000000E+00  0.00000000E+00  0.00000000E+00
  0.00000000E+00  0.00000000E+00  0.00000000E+00
  0.00000000E+00  0.00000000E+00  0.00000000E+00
  0.00000000E+00  0.00000000E+00  0.00000000E+00
  0.00000000E+00  0.00000000E+00  0.00000000E+00
  0.00000000E+00  0.00000000E+00  0.00000000E+00
  0.00000000E+00  0.00000000E+00  0.00000000E+00
  0.00000000E+00  0.00000000E+00  0.00000000E+00
  0.00000000E+00  0.00000000E+00  0.00000000E+00
  0.00000000E+00  0.00000000E+00  0.00000000E+00
  0.00000000E+00  0.00000000E+00  0.00000000E+00
  0.00000000E+00  0.00000000E+00  0.00000000E+00
  0.00000000E+00  0.00000000E+00  0.00000000E+00
  0.00000000E+00  0.00000000E+00  0.00000000E+00
  0.00000000E+00  0.00000000E+00  0.00000000E+00
  0.00000000E+00  0.00000000E+00  0.00000000E+00
  0.00000000E+00  0.00000000E+00  0.00000000E+00
  0.00000000E+00  0.00000000E+00  0.00000000E+00
  0.00000000E+00  0.00000000E+00  0.00000000E+00
  0.00000000E+00  0.00000000E+00  0.00000000E+00
  0.00000000E+00  0.00000000E+00  0.00000000E+00
  0.00000000E+00  0.00000000E+00  0.00000000E+00
  0.00000000E+00  0.00000000E+00  0.00000000E+00
  0.00000000E+00  0.00000000E+00  0.00000000E+00
  0.00000000E+00  0.00000000E+00  0.00000000E+00
  0.00000000E+00  0.00000000E+00  0.00000000E+00
  0.00000000E+00  0.00000000E+00  0.00000000E+00
  0.00000000E+00  0.00000000E+00  0.00000000E+00
  0.00000000E+00  0.00000000E+00  0.00000000E+00
  0.00000000E+00  0.00000000E+00  0.00000000E+00
  0.00000000E+00  0.00000000E+00  0.00000000E+00
  0.00000000E+00  0.00000000E+00  0.00000000E+00
  0.00000000E+00  0.00000000E+00  0.00000000E+00
