Generated by VASPKIT code               
   1.00000000000000     
    19.3213109880061218   -0.2619809493314219    0.0000000000000000
    -9.8875375787665227   16.6018381634481393    0.0000000000000000
     0.0000000000000014    0.0000000000000024   21.9885609712351133
  C             
   228
Direct
  0.3155364670779776  0.8309012429020693  0.4671237365839953
  0.8309138165953922  0.3155431930474123  0.4671269145375902
  0.3155301898269215  0.8308999475812464  0.5328891702309845
  0.8309105421936370  0.3155359686736965  0.5328928280916416
  0.2393922058441186  0.7629274913499187  0.5532599628550539
  0.7629333299064662  0.2393966219711868  0.5532639702519606
  0.2393877595296606  0.7629253437020768  0.4467560842277712
  0.7629335184190111  0.2393960240826582  0.4467578799903905
  0.1921882426666013  0.7209982081930928  0.5000076740864933
  0.7210076885924100  0.1921974319220763  0.5000088339567591
  0.2366612506072384  0.7215264737185014  0.3938713905803132
  0.7215368651425504  0.2366696255757237  0.3938716978356536
  0.3110433290729674  0.7470837057792529  0.3607616441502800
  0.7470934754731932  0.3110516506675489  0.3607624405224873
  0.3868063962554111  0.8582003019202865  0.4348193154877863
  0.8582089030496769  0.3868121367162746  0.4348224194305905
  0.3852108941762754  0.8143576066053366  0.3806247834232974
  0.8143654272758615  0.3852167990764941  0.3806268200042419
  0.4607345006813797  0.8842783549388417  0.4679640385903417
  0.8842899884277250  0.4607409881073407  0.4679667572172798
  0.3868159308279980  0.8582028280863502  0.5651934082589959
  0.8582105388798196  0.3868214545566944  0.5651979841414583
  0.4607339496293508  0.8842775271664982  0.5320440274328724
  0.8842881299930293  0.4607401203104742  0.5320471774371081
  0.3852124338709336  0.8143522369512110  0.6193849749319852
  0.8143561015787425  0.3852170412528331  0.6193883328361812
  0.2366665559539935  0.7215270806775382  0.6061439942363364
  0.7215314205906680  0.2366708189953999  0.6061450338233828
  0.3110522061346103  0.7470828342762402  0.6392509405266504
  0.7470862876511728  0.3110573939712569  0.6392523577100450
  0.1870208746263791  0.6338635616354508  0.6062828964406687
  0.6338668727542714  0.1870280397923766  0.6062812881820181
  0.1432274955014939  0.6367785353304598  0.5000077886615851
  0.6367848633622568  0.1432376893093497  0.5000081732752806
  0.1420521369225155  0.5928148967014170  0.5539864875294803
  0.5928200134859819  0.1420611569243054  0.5539848658644333
  0.1870170878366542  0.6338661048604849  0.3937307394838568
  0.6338750767775780  0.1870258685099895  0.3937315119424333
  0.1420477113557535  0.5928149007369002  0.4460288751099789
  0.5928229403985291  0.1420579079018755  0.4460278150048861
  0.3077833728670961  0.6743318225873914  0.3398894875450501
  0.6743393173449866  0.3077889331825256  0.3398912239533466
  0.2315312027247166  0.6046621839814331  0.3604617518021721
  0.6046706316478181  0.2315387285742901  0.3604618038056467
  0.3784971204228711  0.6713267445291354  0.3396701791273856
  0.6713347084816929  0.3785033569720758  0.3396688840751285
  0.4586437998888042  0.8126800469790434  0.3805368259473129
  0.8126895536806207  0.4586494441385709  0.3805390729827612
  0.5054407110291985  0.8560901553899865  0.4346961969996210
  0.8561001911871197  0.5054465326716805  0.4346973620770471
  0.4552252075478144  0.7411559776462641  0.3609262612805713
  0.7411647887019938  0.4552309593587270  0.3609271504713125
  0.5481862239813746  0.8286389910548626  0.4673447406490411
  0.8286475358560333  0.5481901362639572  0.4673470643989083
  0.5054409656792653  0.8560874787606914  0.5653086656924546
  0.8560938299919392  0.5054432006574330  0.5653116292693707
  0.4586481356081104  0.8126762470800680  0.6194687631691820
  0.8126802226703931  0.4586520348301873  0.6194694125644922
  0.5481870611176086  0.8286372361604474  0.5326568542582449
  0.8286420419789635  0.5481897511621183  0.5326568163742733
  0.4552307840096646  0.7411494188571847  0.6390767389764753
  0.7411529045538847  0.4552347653765941  0.6390768695338247
  0.3077904936586740  0.6743276921838429  0.6601182378003470
  0.6743300355522787  0.3077942784636183  0.6601174445517614
  0.2315390187039055  0.6046576774021170  0.6395481927900815
  0.6046607847199992  0.2315462063751462  0.6395449701205302
  0.3785053518079339  0.6713227201328521  0.6603333235512886
  0.6713241190342104  0.3785101872914499  0.6603338498246415
  0.2300400288049372  0.5352140963924966  0.6192122581073450
  0.5352180245733394  0.2300475154885131  0.6192082555230899
  0.1410437239319612  0.5217435548214479  0.5331737539672937
  0.5217489257759990  0.1410536258227534  0.5331706306772462
  0.1410430550174762  0.5217438220018981  0.4668365356074842
  0.5217503180494310  0.1410531382920339  0.4668334787106731
  0.1850621433060032  0.4948780356261354  0.5647351707114397
  0.4948791428924181  0.1850702908224949  0.5647315008684438
  0.2300317546720052  0.5352162383120826  0.3807925626581921
  0.5352236264963015  0.2300391519257386  0.3807901420709294
  0.1850563387051605  0.4948783392482112  0.4352708256494462
  0.4948816270420547  0.1850629119020787  0.4352678328190161
  0.3759255287992424  0.5987220175531761  0.3595681340232891
  0.5987305523387214  0.3759323875969074  0.3595644710817973
  0.3029020061030764  0.5316587947928969  0.3803392175783753
  0.5316686575303655  0.3029104611727905  0.3803357844712484
  0.4989524773068553  0.7120290346240491  0.3922206294611693
  0.7120391502660148  0.4989587258883380  0.3922186116177542
  0.5575624999909112  0.7602859126072342  0.4423136579860755
  0.7602914443832758  0.5575664036234156  0.4423145986118904
  0.4502243391278424  0.6248320737852474  0.3932238145828350
  0.6248406899270081  0.4502317432867961  0.3932200698439039
  0.5575649191474193  0.7602863043945566  0.5576835122003561
  0.7602902075661958  0.5575660869854937  0.5576829861000822
  0.4989585163046672  0.7120267311977200  0.6077785919929741
  0.7120331933233832  0.4989631746452197  0.6077771700034903
  0.5304865959911634  0.7092139013032271  0.4999990830879871
  0.7092290913025789  0.5304936640339331  0.4999978877025516
  0.3759338751405163  0.5987192888189021  0.6404317532871266
  0.5987221442864441  0.3759384904172589  0.6404304890743340
  0.3029124936098688  0.5316592372736784  0.6196593737478132
  0.5316619935342165  0.3029193655012319  0.6196557729421143
  0.4502302293926402  0.6248309178524887  0.6067737105870430
  0.6248346779649069  0.4502366262013239  0.6067724484200306
  0.2287106190441003  0.4647700368768563  0.5319579790832779
  0.4647702695344064  0.2287154509320345  0.5319538419748747
  0.2287098671259629  0.4647704094972437  0.4680453579033724
  0.4647711984709228  0.2287139953016893  0.4680412478572481
  0.3012665654897391  0.4868772386754717  0.4341566108411736
  0.4868816414758554  0.3012729909099120  0.4341527588556924
  0.3012716032717578  0.4868769683069606  0.5658416507128821
  0.4868778710212344  0.3012755827237793  0.5658376681205819
  0.4456705537566401  0.5817469977345280  0.4460177207999431
  0.5817539254670896  0.4456772733589459  0.4460148371278036
  0.4857036859919696  0.6272339707153428  0.4999989567314106
  0.6272314874283004  0.4857033955551691  0.4999959584820854
  0.4456728488886377  0.5817456889268154  0.5539786023193451
  0.5817502336548322  0.4456808063941170  0.5539767453836388
  0.3724453882118877  0.5108914075477100  0.4665293951204276
  0.5108977222619042  0.3724507907603818  0.4665261143356649
  0.3724475645147350  0.5108903294587980  0.5334673423082329
  0.5108954402473097  0.3724531050976679  0.5334633648581171
  0.2738821737265518  0.0660372197739724  0.6206213175577134
  0.9174462479677815  0.1810621745623737  0.6204777739889258
  0.7813578877151013  0.7030671336901745  0.6221166394319280
  0.2045032534438401  0.0742500520468275  0.6186156054011445
  0.9301151802602731  0.1147023029192251  0.6187773452470126
  0.8537978398652929  0.7780055232115400  0.6180908134820478
  0.2127971354852717  0.1213247631201875  0.5649912175887837
  0.8909862786842786  0.0704449047250248  0.5643489700706645
  0.9030960420299368  0.7817389805749285  0.5662307180237977
  0.3213144663106949  0.1069681148786648  0.5658830976395910
  0.8687925644754232  0.1726454536742268  0.5654408248755367
  0.7833540856681878  0.6505846490559676  0.5669638014657338
  0.2833366133382535  0.1425668959809593  0.5329011697111503
  0.8493172927498647  0.1006816470010929  0.5328644764283530
  0.8611719928114389  0.7112606792079900  0.5328811199183084
  0.3375662730416752  0.0528797686237494  0.5328051129881752
  0.9069839087913864  0.2467738310419050  0.5328302616509277
  0.7172392472000929  0.6481052000044185  0.5310732309787739
  0.2604187827527292  0.9862644227377612  0.6190445033709663
  0.9862599444340285  0.2604193718468256  0.6190449974818291
  0.7099533407864841  0.7099547191206854  0.6195608460118439
  0.3023270352812604  0.9793410030175448  0.5654637583572831
  0.9793389535010925  0.3023259154683960  0.5654605104689222
  0.6712710997752196  0.6712604792268955  0.5636224795773747
  0.1810647777325496  0.9174487651803658  0.6204797620737870
  0.0660333003264299  0.2738799327445045  0.6206213346601922
  0.7030647197917350  0.7813587379530492  0.6221172697369349
  0.1230570329539778  0.0076937118025760  0.6206133267596293
  0.0076902360695500  0.1230535251158602  0.6206139020130654
  0.8515850294452589  0.8515865658973638  0.6166175639479889
  0.1147060799421430  0.9301176544049878  0.6187794518081197
  0.0742479209156467  0.2045022799463288  0.6186123240332744
  0.7780002271405724  0.8537969870703540  0.6180908434845156
  0.1344135763017695  0.0893501455814693  0.5352159243523275
  0.9319155391138266  0.0324968554331530  0.5364813010320283
  0.9394640624721189  0.8636842965324520  0.5355070429011618
  0.0680432837904576  0.0149534600912010  0.5715526301572487
  0.0149521020496022  0.0680417567361684  0.5715551140933034
  0.8925623750679312  0.8925634935484733  0.5646068345264839
  0.1344123570784746  0.0893454214726442  0.4647664534459687
  0.9319133128830838  0.0324962560553962  0.4635070733796024
  0.9394641720630933  0.8636822814093835  0.4644839013725922
  0.2833335183463486  0.1425647670246743  0.4670810253039911
  0.8493125276583332  0.1006828521226111  0.4671335549891099
  0.8611704248959610  0.7112582968914161  0.4671127119022998
  0.2127946060687061  0.1213192777359310  0.4349906028597871
  0.8909773572100268  0.0704439015407359  0.4356434099731550
  0.9030960183614728  0.7817371722889309  0.4337600348086403
  0.3375659653283422  0.0528774611123114  0.4671853079041184
  0.9069797591315500  0.2467739564771223  0.4671673990651871
  0.7172474663123533  0.6481022206590655  0.4689273580332893
  0.3213102993042475  0.1069621561318841  0.4341035209888581
  0.8687845817785638  0.1726451848036093  0.4345571929911685
  0.7833515163097846  0.6505829400003077  0.4330295453467372
  0.3023268819253558  0.9793361427430675  0.4345320821122649
  0.9793319037193918  0.3023254976231877  0.4345329899210736
  0.6712588863542527  0.6712683358386875  0.4363744060110623
  0.2467800647865445  0.9069846114404866  0.5328321757902397
  0.0528814087441369  0.3375638135749350  0.5328029342316664
  0.6481016565965605  0.7172464768549168  0.5310696160829567
  0.1726515167734336  0.8687901551351641  0.5654431647082191
  0.1069690451532086  0.3213132269626537  0.5658810141371251
  0.6505818771417546  0.7833494879259153  0.5669639046165837
  0.2467780430888678  0.9069795734487081  0.4671670667847287
  0.0528769186043558  0.3375626962322779  0.4671841296756423
  0.6481018886437190  0.7172365616221811  0.4689242187758084
  0.0704510455512348  0.8909904809497815  0.5643471746295815
  0.1213202493569433  0.2127941590281542  0.5649909656416261
  0.7817351145360836  0.9030950481096164  0.5662307085509545
  0.0324997184804332  0.9319173675632305  0.5364798475632178
  0.0893453355245174  0.1344074160629865  0.5352160691496084
  0.8636787536649714  0.9394614331144006  0.5355060024600490
  0.1006910455914806  0.8493249672177927  0.5328645405209923
  0.1425694918669413  0.2833362740047206  0.5329007203964479
  0.7112530659664843  0.8611686767669999  0.5328811202899364
  0.0680423371745650  0.0149484677791567  0.4284332845846140
  0.0149462724865736  0.0680405766086191  0.4284297392419174
  0.8925604095426409  0.8925623824792995  0.4353842481812455
  0.0324990954817413  0.9319146198205948  0.4635100728080897
  0.0893406085531423  0.1344063368574037  0.4647650882123637
  0.8636782433322564  0.9394632884318870  0.4644842763501835
  0.2044989405728838  0.0742357018433006  0.3813700513989755
  0.9301003602449973  0.1146989995506461  0.3812131370260199
  0.8537923853865482  0.7779992372627844  0.3819025093707561
  0.2738793424780832  0.0660245923386547  0.3793686799904976
  0.9174336939772760  0.1810609868624162  0.3795168345933750
  0.7813563473720716  0.7030644680877575  0.3778778262303814
  0.2604181989253054  0.9862539707830631  0.3809479335988910
  0.9862492334515899  0.2604191917853909  0.3809461754564055
  0.7099503626836098  0.7099504555121433  0.3804349622949387
  0.1230523388054954  0.0076772008767756  0.3793730535504528
  0.0076754530596540  0.1230505146935402  0.3793700403099902
  0.8515812206522221  0.8515834313951333  0.3833739526286476
  0.1726514267481494  0.8687832443967092  0.4345560001346979
  0.1069620105802560  0.3213078852926852  0.4341023822866135
  0.6505786620188129  0.7833489668743342  0.4330296079670953
  0.1006905487171334  0.8493190386354807  0.4671358639312632
  0.1425670795471784  0.2833333193319282  0.4670808235623344
  0.7112535230219159  0.8611689157292803  0.4671125302608342
  0.0704485424595330  0.8909800335758663  0.4356468688829873
  0.1213134783527199  0.2127911435990425  0.4349892150523303
  0.7817306901271286  0.9030924978731211  0.4337597631176539
  0.1810624292711172  0.9174345752145768  0.3795152862375921
  0.0660225131327938  0.2738794787876407  0.3793652656678744
  0.7030591780425419  0.7813521359245116  0.3778781742555987
  0.1147018269812747  0.9301030306854047  0.3812128854080324
  0.0742329636468962  0.2044984543456051  0.3813707697916859
  0.7779970685097002  0.8537929049481565  0.3819031681333858
 
  0.00000000E+00  0.00000000E+00  0.00000000E+00
  0.00000000E+00  0.00000000E+00  0.00000000E+00
  0.00000000E+00  0.00000000E+00  0.00000000E+00
  0.00000000E+00  0.00000000E+00  0.00000000E+00
  0.00000000E+00  0.00000000E+00  0.00000000E+00
  0.00000000E+00  0.00000000E+00  0.00000000E+00
  0.00000000E+00  0.00000000E+00  0.00000000E+00
  0.00000000E+00  0.00000000E+00  0.00000000E+00
  0.00000000E+00  0.00000000E+00  0.00000000E+00
  0.00000000E+00  0.00000000E+00  0.00000000E+00
  0.00000000E+00  0.00000000E+00  0.00000000E+00
  0.00000000E+00  0.00000000E+00  0.00000000E+00
  0.00000000E+00  0.00000000E+00  0.00000000E+00
  0.00000000E+00  0.00000000E+00  0.00000000E+00
  0.00000000E+00  0.00000000E+00  0.00000000E+00
  0.00000000E+00  0.00000000E+00  0.00000000E+00
  0.00000000E+00  0.00000000E+00  0.00000000E+00
  0.00000000E+00  0.00000000E+00  0.00000000E+00
  0.00000000E+00  0.00000000E+00  0.00000000E+00
  0.00000000E+00  0.00000000E+00  0.00000000E+00
  0.00000000E+00  0.00000000E+00  0.00000000E+00
  0.00000000E+00  0.00000000E+00  0.00000000E+00
  0.00000000E+00  0.00000000E+00  0.00000000E+00
  0.00000000E+00  0.00000000E+00  0.00000000E+00
  0.00000000E+00  0.00000000E+00  0.00000000E+00
  0.00000000E+00  0.00000000E+00  0.00000000E+00
  0.00000000E+00  0.00000000E+00  0.00000000E+00
  0.00000000E+00  0.00000000E+00  0.00000000E+00
  0.00000000E+00  0.00000000E+00  0.00000000E+00
  0.00000000E+00  0.00000000E+00  0.00000000E+00
  0.00000000E+00  0.00000000E+00  0.00000000E+00
  0.00000000E+00  0.00000000E+00  0.00000000E+00
  0.00000000E+00  0.00000000E+00  0.00000000E+00
  0.00000000E+00  0.00000000E+00  0.00000000E+00
  0.00000000E+00  0.00000000E+00  0.00000000E+00
  0.00000000E+00  0.00000000E+00  0.00000000E+00
  0.00000000E+00  0.00000000E+00  0.00000000E+00
  0.00000000E+00  0.00000000E+00  0.00000000E+00
  0.00000000E+00  0.00000000E+00  0.00000000E+00
  0.00000000E+00  0.00000000E+00  0.00000000E+00
  0.00000000E+00  0.00000000E+00  0.00000000E+00
  0.00000000E+00  0.00000000E+00  0.00000000E+00
  0.00000000E+00  0.00000000E+00  0.00000000E+00
  0.00000000E+00  0.00000000E+00  0.00000000E+00
  0.00000000E+00  0.00000000E+00  0.00000000E+00
  0.00000000E+00  0.00000000E+00  0.00000000E+00
  0.00000000E+00  0.00000000E+00  0.00000000E+00
  0.00000000E+00  0.00000000E+00  0.00000000E+00
  0.00000000E+00  0.00000000E+00  0.00000000E+00
  0.00000000E+00  0.00000000E+00  0.00000000E+00
  0.00000000E+00  0.00000000E+00  0.00000000E+00
  0.00000000E+00  0.00000000E+00  0.00000000E+00
  0.00000000E+00  0.00000000E+00  0.00000000E+00
  0.00000000E+00  0.00000000E+00  0.00000000E+00
  0.00000000E+00  0.00000000E+00  0.00000000E+00
  0.00000000E+00  0.00000000E+00  0.00000000E+00
  0.00000000E+00  0.00000000E+00  0.00000000E+00
  0.00000000E+00  0.00000000E+00  0.00000000E+00
  0.00000000E+00  0.00000000E+00  0.00000000E+00
  0.00000000E+00  0.00000000E+00  0.00000000E+00
  0.00000000E+00  0.00000000E+00  0.00000000E+00
  0.00000000E+00  0.00000000E+00  0.00000000E+00
  0.00000000E+00  0.00000000E+00  0.00000000E+00
  0.00000000E+00  0.00000000E+00  0.00000000E+00
  0.00000000E+00  0.00000000E+00  0.00000000E+00
  0.00000000E+00  0.00000000E+00  0.00000000E+00
  0.00000000E+00  0.00000000E+00  0.00000000E+00
  0.00000000E+00  0.00000000E+00  0.00000000E+00
  0.00000000E+00  0.00000000E+00  0.00000000E+00
  0.00000000E+00  0.00000000E+00  0.00000000E+00
  0.00000000E+00  0.00000000E+00  0.00000000E+00
  0.00000000E+00  0.00000000E+00  0.00000000E+00
  0.00000000E+00  0.00000000E+00  0.00000000E+00
  0.00000000E+00  0.00000000E+00  0.00000000E+00
  0.00000000E+00  0.00000000E+00  0.00000000E+00
  0.00000000E+00  0.00000000E+00  0.00000000E+00
  0.00000000E+00  0.00000000E+00  0.00000000E+00
  0.00000000E+00  0.00000000E+00  0.00000000E+00
  0.00000000E+00  0.00000000E+00  0.00000000E+00
  0.00000000E+00  0.00000000E+00  0.00000000E+00
  0.00000000E+00  0.00000000E+00  0.00000000E+00
  0.00000000E+00  0.00000000E+00  0.00000000E+00
  0.00000000E+00  0.00000000E+00  0.00000000E+00
  0.00000000E+00  0.00000000E+00  0.00000000E+00
  0.00000000E+00  0.00000000E+00  0.00000000E+00
  0.00000000E+00  0.00000000E+00  0.00000000E+00
  0.00000000E+00  0.00000000E+00  0.00000000E+00
  0.00000000E+00  0.00000000E+00  0.00000000E+00
  0.00000000E+00  0.00000000E+00  0.00000000E+00
  0.00000000E+00  0.00000000E+00  0.00000000E+00
  0.00000000E+00  0.00000000E+00  0.00000000E+00
  0.00000000E+00  0.00000000E+00  0.00000000E+00
  0.00000000E+00  0.00000000E+00  0.00000000E+00
  0.00000000E+00  0.00000000E+00  0.00000000E+00
  0.00000000E+00  0.00000000E+00  0.00000000E+00
  0.00000000E+00  0.00000000E+00  0.00000000E+00
  0.00000000E+00  0.00000000E+00  0.00000000E+00
  0.00000000E+00  0.00000000E+00  0.00000000E+00
  0.00000000E+00  0.00000000E+00  0.00000000E+00
  0.00000000E+00  0.00000000E+00  0.00000000E+00
  0.00000000E+00  0.00000000E+00  0.00000000E+00
  0.00000000E+00  0.00000000E+00  0.00000000E+00
  0.00000000E+00  0.00000000E+00  0.00000000E+00
  0.00000000E+00  0.00000000E+00  0.00000000E+00
  0.00000000E+00  0.00000000E+00  0.00000000E+00
  0.00000000E+00  0.00000000E+00  0.00000000E+00
  0.00000000E+00  0.00000000E+00  0.00000000E+00
  0.00000000E+00  0.00000000E+00  0.00000000E+00
  0.00000000E+00  0.00000000E+00  0.00000000E+00
  0.00000000E+00  0.00000000E+00  0.00000000E+00
  0.00000000E+00  0.00000000E+00  0.00000000E+00
  0.00000000E+00  0.00000000E+00  0.00000000E+00
  0.00000000E+00  0.00000000E+00  0.00000000E+00
  0.00000000E+00  0.00000000E+00  0.00000000E+00
  0.00000000E+00  0.00000000E+00  0.00000000E+00
  0.00000000E+00  0.00000000E+00  0.00000000E+00
  0.00000000E+00  0.00000000E+00  0.00000000E+00
  0.00000000E+00  0.00000000E+00  0.00000000E+00
  0.00000000E+00  0.00000000E+00  0.00000000E+00
  0.00000000E+00  0.00000000E+00  0.00000000E+00
  0.00000000E+00  0.00000000E+00  0.00000000E+00
  0.00000000E+00  0.00000000E+00  0.00000000E+00
  0.00000000E+00  0.00000000E+00  0.00000000E+00
  0.00000000E+00  0.00000000E+00  0.00000000E+00
  0.00000000E+00  0.00000000E+00  0.00000000E+00
  0.00000000E+00  0.00000000E+00  0.00000000E+00
  0.00000000E+00  0.00000000E+00  0.00000000E+00
  0.00000000E+00  0.00000000E+00  0.00000000E+00
  0.00000000E+00  0.00000000E+00  0.00000000E+00
  0.00000000E+00  0.00000000E+00  0.00000000E+00
  0.00000000E+00  0.00000000E+00  0.00000000E+00
  0.00000000E+00  0.00000000E+00  0.00000000E+00
  0.00000000E+00  0.00000000E+00  0.00000000E+00
  0.00000000E+00  0.00000000E+00  0.00000000E+00
  0.00000000E+00  0.00000000E+00  0.00000000E+00
  0.00000000E+00  0.00000000E+00  0.00000000E+00
  0.00000000E+00  0.00000000E+00  0.00000000E+00
  0.00000000E+00  0.00000000E+00  0.00000000E+00
  0.00000000E+00  0.00000000E+00  0.00000000E+00
  0.00000000E+00  0.00000000E+00  0.00000000E+00
  0.00000000E+00  0.00000000E+00  0.00000000E+00
  0.00000000E+00  0.00000000E+00  0.00000000E+00
  0.00000000E+00  0.00000000E+00  0.00000000E+00
  0.00000000E+00  0.00000000E+00  0.00000000E+00
  0.00000000E+00  0.00000000E+00  0.00000000E+00
  0.00000000E+00  0.00000000E+00  0.00000000E+00
  0.00000000E+00  0.00000000E+00  0.00000000E+00
  0.00000000E+00  0.00000000E+00  0.00000000E+00
  0.00000000E+00  0.00000000E+00  0.00000000E+00
  0.00000000E+00  0.00000000E+00  0.00000000E+00
  0.00000000E+00  0.00000000E+00  0.00000000E+00
  0.00000000E+00  0.00000000E+00  0.00000000E+00
  0.00000000E+00  0.00000000E+00  0.00000000E+00
  0.00000000E+00  0.00000000E+00  0.00000000E+00
  0.00000000E+00  0.00000000E+00  0.00000000E+00
  0.00000000E+00  0.00000000E+00  0.00000000E+00
  0.00000000E+00  0.00000000E+00  0.00000000E+00
  0.00000000E+00  0.00000000E+00  0.00000000E+00
  0.00000000E+00  0.00000000E+00  0.00000000E+00
  0.00000000E+00  0.00000000E+00  0.00000000E+00
  0.00000000E+00  0.00000000E+00  0.00000000E+00
  0.00000000E+00  0.00000000E+00  0.00000000E+00
  0.00000000E+00  0.00000000E+00  0.00000000E+00
  0.00000000E+00  0.00000000E+00  0.00000000E+00
  0.00000000E+00  0.00000000E+00  0.00000000E+00
  0.00000000E+00  0.00000000E+00  0.00000000E+00
  0.00000000E+00  0.00000000E+00  0.00000000E+00
  0.00000000E+00  0.00000000E+00  0.00000000E+00
  0.00000000E+00  0.00000000E+00  0.00000000E+00
  0.00000000E+00  0.00000000E+00  0.00000000E+00
  0.00000000E+00  0.00000000E+00  0.00000000E+00
  0.00000000E+00  0.00000000E+00  0.00000000E+00
  0.00000000E+00  0.00000000E+00  0.00000000E+00
  0.00000000E+00  0.00000000E+00  0.00000000E+00
  0.00000000E+00  0.00000000E+00  0.00000000E+00
  0.00000000E+00  0.00000000E+00  0.00000000E+00
  0.00000000E+00  0.00000000E+00  0.00000000E+00
  0.00000000E+00  0.00000000E+00  0.00000000E+00
  0.00000000E+00  0.00000000E+00  0.00000000E+00
  0.00000000E+00  0.00000000E+00  0.00000000E+00
  0.00000000E+00  0.00000000E+00  0.00000000E+00
  0.00000000E+00  0.00000000E+00  0.00000000E+00
  0.00000000E+00  0.00000000E+00  0.00000000E+00
  0.00000000E+00  0.00000000E+00  0.00000000E+00
  0.00000000E+00  0.00000000E+00  0.00000000E+00
  0.00000000E+00  0.00000000E+00  0.00000000E+00
  0.00000000E+00  0.00000000E+00  0.00000000E+00
  0.00000000E+00  0.00000000E+00  0.00000000E+00
  0.00000000E+00  0.00000000E+00  0.00000000E+00
  0.00000000E+00  0.00000000E+00  0.00000000E+00
  0.00000000E+00  0.00000000E+00  0.00000000E+00
  0.00000000E+00  0.00000000E+00  0.00000000E+00
  0.00000000E+00  0.00000000E+00  0.00000000E+00
  0.00000000E+00  0.00000000E+00  0.00000000E+00
  0.00000000E+00  0.00000000E+00  0.00000000E+00
  0.00000000E+00  0.00000000E+00  0.00000000E+00
  0.00000000E+00  0.00000000E+00  0.00000000E+00
  0.00000000E+00  0.00000000E+00  0.00000000E+00
  0.00000000E+00  0.00000000E+00  0.00000000E+00
  0.00000000E+00  0.00000000E+00  0.00000000E+00
  0.00000000E+00  0.00000000E+00  0.00000000E+00
  0.00000000E+00  0.00000000E+00  0.00000000E+00
  0.00000000E+00  0.00000000E+00  0.00000000E+00
  0.00000000E+00  0.00000000E+00  0.00000000E+00
  0.00000000E+00  0.00000000E+00  0.00000000E+00
  0.00000000E+00  0.00000000E+00  0.00000000E+00
  0.00000000E+00  0.00000000E+00  0.00000000E+00
  0.00000000E+00  0.00000000E+00  0.00000000E+00
  0.00000000E+00  0.00000000E+00  0.00000000E+00
  0.00000000E+00  0.00000000E+00  0.00000000E+00
  0.00000000E+00  0.00000000E+00  0.00000000E+00
  0.00000000E+00  0.00000000E+00  0.00000000E+00
  0.00000000E+00  0.00000000E+00  0.00000000E+00
  0.00000000E+00  0.00000000E+00  0.00000000E+00
  0.00000000E+00  0.00000000E+00  0.00000000E+00
  0.00000000E+00  0.00000000E+00  0.00000000E+00
  0.00000000E+00  0.00000000E+00  0.00000000E+00
  0.00000000E+00  0.00000000E+00  0.00000000E+00
  0.00000000E+00  0.00000000E+00  0.00000000E+00
  0.00000000E+00  0.00000000E+00  0.00000000E+00
  0.00000000E+00  0.00000000E+00  0.00000000E+00
  0.00000000E+00  0.00000000E+00  0.00000000E+00
  0.00000000E+00  0.00000000E+00  0.00000000E+00
  0.00000000E+00  0.00000000E+00  0.00000000E+00
  0.00000000E+00  0.00000000E+00  0.00000000E+00
  0.00000000E+00  0.00000000E+00  0.00000000E+00
  0.00000000E+00  0.00000000E+00  0.00000000E+00
  0.00000000E+00  0.00000000E+00  0.00000000E+00
