Generated by VASPKIT code               
   1.00000000000000     
    16.6382432919384300   -0.4011737773463587    0.0000000000000000
    -8.6694218101558214   13.8071611393357276    0.0000000000000000
     0.0000000000000013    0.0000000000000023   21.9325070743565931
   C 
   168
Direct
  0.1498591242514742  0.9231248951925483  0.5232624244225428
  0.1203423769770720  0.9167674619759713  0.5872978231626315
  0.1660741299521768  0.0151186863823679  0.6105219461594245
  0.2125043805708543  0.0229042740233805  0.5080334873699011
  0.2232014532167302  0.0788877952334425  0.5608456785805627
  0.2181581892091422  0.0542784902029266  0.4482203985252439
  0.1607106773807175  0.9885653055432289  0.4000863286133965
  0.0920159428259032  0.8613498021287564  0.4777811399088178
  0.0958823892236528  0.8909055686315762  0.4164334254850473
  0.9955612419979152  0.7738923925670778  0.4925682836580335
  0.0263931379147923  0.8467562315752968  0.6025291244052600
  0.9623539500130981  0.7831685366713561  0.5539097950694791
  0.9726910456502065  0.8701031264012350  0.6424226981792082
  0.1151853103120925  0.0408934505698037  0.6484754651744835
  0.0162584883338802  0.9672408006812602  0.6644046133144944
  0.1232067549827871  0.1336147677852840  0.6382880335194704
  0.2265361518360759  0.1637915948290137  0.5503483752462651
  0.1792552737714983  0.1943599204897008  0.5899018414793626
  0.2261638336742408  0.1443976319415179  0.4383668118743726
  0.2234740532350933  0.1908572929656821  0.4892580888440917
  0.1309300776330775  0.0377364952963131  0.3597808565468000
  0.1736093041575928  0.1365407580315864  0.3829498445197347
  0.0369517252020815  0.9860465345493390  0.3361217729397684
  0.9996780313398974  0.8365044724141184  0.3915597691466691
  0.9378130051814371  0.7716115988188778  0.4391192176345246
  0.9702045343549399  0.8826907793000600  0.3520106354676187
  0.8499418646607734  0.7551422236265535  0.4481831726984636
  0.8737986193054320  0.7639704142515966  0.5636929759674174
  0.8761414339271628  0.8179807028495009  0.6182051626543281
  0.8070740676145765  0.7387759831235978  0.5119187585746219
  0.8264010105942667  0.8634839519541272  0.6170377550842089
  0.9630562047655886  0.0139745739563738  0.6638687243330333
  0.0297941232970855  0.1173280054026925  0.6479814535771449
  0.8690867406339795  0.9622929118222208  0.6402115724572787
  0.0003507924794868  0.1635243760047080  0.6084376998097165
  0.1500935034013886  0.2448758035570613  0.5518072707006636
  0.1929317754908183  0.2612395380354648  0.4880669718035414
  0.0621491020128633  0.2283893880603418  0.5608730467043684
  0.1238666701880252  0.1820310113016804  0.3817801499684877
  0.1262709203689731  0.2360661439743437  0.4363044821679435
  0.9837452336881667  0.0327782526216120  0.3355861546047438
  0.0273211602965337  0.1299286619160086  0.3575722096068706
  0.8768018707439523  0.8664070282401750  0.3617038709386927
  0.8207488949486846  0.8056589271332605  0.4100901774735173
  0.8848205583647363  0.9591316327674417  0.3515160146421988
  0.7765325968833763  0.8091692296944814  0.5107359818388726
  0.7738534467389819  0.8556173921999406  0.5616200395919154
  0.7734766040057774  0.8362104750589199  0.4496397860403072
  0.8392863503030933  0.0114351834199089  0.5999086509608271
  0.9041308416572292  0.1091238888739861  0.5835572335639995
  0.7818552460209295  0.9457460262769548  0.5517707593047341
  0.0044539405764343  0.2261329287286350  0.5074185725292752
  0.0375986139071359  0.2168361187347390  0.4460927694905437
  0.9736243610757157  0.1532638551982724  0.3974525494237896
  0.9079793228652515  0.1386426636776427  0.5221988470654977
  0.8339431852632148  0.9849097078114724  0.3894640049641340
  0.7768072758358455  0.9211411734474828  0.4391449168304936
  0.7874997873111613  0.9771052043049655  0.4919542850590294
  0.8796584835668462  0.0832473929398320  0.4126914831955260
  0.8501623448727962  0.0769137684400156  0.4767365124918997
  0.6153952839097223  0.9358232560289672  0.5543734790230690
  0.1374187259136030  0.6966606963790702  0.5546136392855339
  0.3437705421387456  0.5378440757717631  0.4905608429592129
  0.5841309926940775  0.8837689483097272  0.4987259692871702
  0.2009610845950776  0.7146591044695810  0.4989876178758767
  0.3822707751619663  0.5523562595167765  0.4283598502653494
  0.4791088925521126  0.8244664870218501  0.4987075919228172
  0.1976212872555606  0.6175692808614588  0.5025506711306454
  0.4804039969899162  0.6271951639363522  0.4315184720412115
  0.5298938599977577  0.9082736383593762  0.5907030985540977
  0.1215051195888514  0.6147401037987755  0.5932334254980675
  0.4199848207232272  0.6086406760111449  0.5325191229642611
  0.4458311451406484  0.8377299056750840  0.5560865462917016
  0.1583212762555147  0.5677825976446449  0.5596772723230744
  0.5026725654785325  0.6592621247483145  0.4954753460584428
  0.5411921015839829  0.9952327902359879  0.6148161425756299
  0.0231485030995400  0.5582316497412884  0.6159165326806177
  0.4226201956659685  0.5558865531185753  0.5868489004432882
  0.6769263949901869  0.0393397894117476  0.5545533973615107
  0.0502729358833054  0.6837990992003961  0.5504013852077210
  0.3030215856606789  0.4471945122954835  0.5171268604960335
  0.6308117687637168  0.0781120006581222  0.5907216890800255
  0.9779092402528899  0.6006827521916274  0.5874427948271204
  0.3502754745341543  0.4553519752508980  0.5757247444350749
  0.7098780835434806  0.0928462476985639  0.4999025897282872
  0.0051230103320580  0.6874820193804000  0.4929614623450472
  0.2899687664519312  0.3618170869275933  0.4829093665070524
  0.6157938839756263  0.9373257327233723  0.4432908532142133
  0.1409198355759131  0.6912721503240749  0.4404965413576595
  0.3752536365744514  0.4727450804018007  0.3927260780985560
  0.6756069107111837  0.0404777340751218  0.4446536978573198
  0.0537550709248593  0.6795781390072114  0.4386585288119520
  0.3366539884144469  0.3840650109660553  0.4215059605427504
  0.4457122916945556  0.8390000240285387  0.4416911741349961
  0.1620338864151060  0.5623604216444762  0.4467655398460633
  0.5354111371357182  0.5953828810955996  0.3974755989780699
  0.5297400113383555  0.9107226007577877  0.4075081363632496
  0.1277036503469256  0.6057558936075808  0.4072697189866012
  0.4725963972421311  0.5018478290014912  0.3721317310755168
  0.3634443024277820  0.8446318294045724  0.4412649778521556
  0.1073658886651407  0.4569659597558916  0.4489503929265052
  0.6222646486239051  0.6143155886473415  0.4237579007011523
  0.3636732206747501  0.8432811262114940  0.5572824090134715
  0.1036025808380543  0.4623328502716242  0.5617345678109973
  0.5881879142116891  0.6748774031610176  0.5199783916241476
  0.2998477275129188  0.8180444322484616  0.4993253317276114
  0.0899928712610584  0.4115977407682195  0.5065486389351121
  0.6453024543547269  0.6583409262579993  0.4814245804542282
  0.4593131701727379  0.0018475975799803  0.6154533594219828
  0.9688564944360522  0.4530820436689911  0.6180188710568175
  0.5112508593073508  0.5763871888492944  0.6118515572248697
  0.3698641025399798  0.9196379366309396  0.5906522320782096
  0.0158331981187616  0.4078941106662285  0.5963908626975717
  0.5963295376659482  0.6475370621501725  0.5802755843690275
  0.4702507692612997  0.0892443456111601  0.5925040052989325
  0.8722690777011317  0.3942294221030584  0.5927393127026204
  0.5274205081744071  0.4981779428220657  0.6278686104853908
  0.6365494126646631  0.1553405683849408  0.5587493079726233
  0.8926087920819799  0.5430122534737210  0.5510507383168057
  0.3777507480599269  0.3857055255447859  0.5762475848431151
  0.7001456378657823  0.1819179044140012  0.5006841394958209
  0.9100035997429076  0.5883951308216356  0.4934468348738405
  0.3547091826842479  0.3416780811684941  0.5185791111773640
  0.5542781949601784  0.1609620816679466  0.5583230424614150
  0.8379450674765573  0.4376107996012730  0.5532185064936016
  0.4645987848754451  0.4046372156312737  0.6025316781348966
  0.6301247188305030  0.0803235614202022  0.4093625892891766
  0.9841536218618416  0.5920755925427351  0.4036109157580518
  0.4036834031527655  0.3524812570207297  0.4197338357746956
  0.5406748983314700  0.9981153835087200  0.3845620457188697
  0.0311256571237170  0.5469000217751541  0.3819753720131633
  0.4887624194431954  0.4236372586646454  0.3881551695956500
  0.6363200588576872  0.1566841230657244  0.4427287155833747
  0.8963780545101449  0.5376523622731509  0.4382584397813460
  0.4118255313860117  0.3251436595461347  0.4800292142204225
  0.3691799905184961  0.9218523821161511  0.4092896686185909
  0.0220851073848939  0.3992921463036126  0.4125472639621509
  0.6497323885677175  0.5446684167238151  0.4242773909772824
  0.4587963585534915  0.0047376333448200  0.3851953011660436
  0.9768280530567462  0.4417507001609703  0.3840834541846763
  0.5773878554142559  0.4441286259746077  0.4131601616271138
  0.2901120263816438  0.9071173443608279  0.5001149165660937
  0.9948586316077357  0.3125013196917397  0.5070265426852183
  0.7100445589314717  0.6382027417839711  0.5170946232398460
  0.3243746380990856  0.9594848138268502  0.5553560856062125
  0.9462404209422602  0.3204256039384301  0.5613482646027750
  0.6633588995460351  0.6159606641669034  0.5785004532160084
  0.3841918139974044  0.0626307688146968  0.5567207682146191
  0.8590591252977225  0.3086970375765567  0.5595010781149106
  0.6247512088471229  0.5272690680183197  0.6072782119370123
  0.3230613641683081  0.9606220819648991  0.4454592624757642
  0.9497213075794430  0.3161951663887861  0.4495926087234008
  0.6969918015017549  0.5528258222655702  0.4828800681184245
  0.5208852574663523  0.1755042345618467  0.5013052485355300
  0.8023558057119138  0.3824155125846821  0.4974514292505818
  0.5196150342791345  0.3728289939918533  0.5684904337819777
  0.5541575067243615  0.1622367147105549  0.4439272959769887
  0.8416627111306505  0.4321934397843184  0.4403285031268952
  0.4973372569124291  0.3407536389388791  0.5045265289319860
  0.4700963523008421  0.0916918965599182  0.4093112381484807
  0.8784681183876621  0.3852441111666363  0.4067518739780862
  0.5800260337706388  0.3913815779255273  0.4674822413872612
  0.4158643803672617  0.1161950325492006  0.5012894835013835
  0.7990182338551214  0.2853388466378519  0.5010143260528168
  0.6177427895551131  0.4476709344592583  0.5716502167410371
  0.3845977226323142  0.0641422393027385  0.4456429980564494
  0.8625546396868938  0.3033020524662504  0.4453777978553148
  0.6562448365958062  0.4621746537207555  0.5094411669538709
 
  0.00000000E+00  0.00000000E+00  0.00000000E+00
  0.00000000E+00  0.00000000E+00  0.00000000E+00
  0.00000000E+00  0.00000000E+00  0.00000000E+00
  0.00000000E+00  0.00000000E+00  0.00000000E+00
  0.00000000E+00  0.00000000E+00  0.00000000E+00
  0.00000000E+00  0.00000000E+00  0.00000000E+00
  0.00000000E+00  0.00000000E+00  0.00000000E+00
  0.00000000E+00  0.00000000E+00  0.00000000E+00
  0.00000000E+00  0.00000000E+00  0.00000000E+00
  0.00000000E+00  0.00000000E+00  0.00000000E+00
  0.00000000E+00  0.00000000E+00  0.00000000E+00
  0.00000000E+00  0.00000000E+00  0.00000000E+00
  0.00000000E+00  0.00000000E+00  0.00000000E+00
  0.00000000E+00  0.00000000E+00  0.00000000E+00
  0.00000000E+00  0.00000000E+00  0.00000000E+00
  0.00000000E+00  0.00000000E+00  0.00000000E+00
  0.00000000E+00  0.00000000E+00  0.00000000E+00
  0.00000000E+00  0.00000000E+00  0.00000000E+00
  0.00000000E+00  0.00000000E+00  0.00000000E+00
  0.00000000E+00  0.00000000E+00  0.00000000E+00
  0.00000000E+00  0.00000000E+00  0.00000000E+00
  0.00000000E+00  0.00000000E+00  0.00000000E+00
  0.00000000E+00  0.00000000E+00  0.00000000E+00
  0.00000000E+00  0.00000000E+00  0.00000000E+00
  0.00000000E+00  0.00000000E+00  0.00000000E+00
  0.00000000E+00  0.00000000E+00  0.00000000E+00
  0.00000000E+00  0.00000000E+00  0.00000000E+00
  0.00000000E+00  0.00000000E+00  0.00000000E+00
  0.00000000E+00  0.00000000E+00  0.00000000E+00
  0.00000000E+00  0.00000000E+00  0.00000000E+00
  0.00000000E+00  0.00000000E+00  0.00000000E+00
  0.00000000E+00  0.00000000E+00  0.00000000E+00
  0.00000000E+00  0.00000000E+00  0.00000000E+00
  0.00000000E+00  0.00000000E+00  0.00000000E+00
  0.00000000E+00  0.00000000E+00  0.00000000E+00
  0.00000000E+00  0.00000000E+00  0.00000000E+00
  0.00000000E+00  0.00000000E+00  0.00000000E+00
  0.00000000E+00  0.00000000E+00  0.00000000E+00
  0.00000000E+00  0.00000000E+00  0.00000000E+00
  0.00000000E+00  0.00000000E+00  0.00000000E+00
  0.00000000E+00  0.00000000E+00  0.00000000E+00
  0.00000000E+00  0.00000000E+00  0.00000000E+00
  0.00000000E+00  0.00000000E+00  0.00000000E+00
  0.00000000E+00  0.00000000E+00  0.00000000E+00
  0.00000000E+00  0.00000000E+00  0.00000000E+00
  0.00000000E+00  0.00000000E+00  0.00000000E+00
  0.00000000E+00  0.00000000E+00  0.00000000E+00
  0.00000000E+00  0.00000000E+00  0.00000000E+00
  0.00000000E+00  0.00000000E+00  0.00000000E+00
  0.00000000E+00  0.00000000E+00  0.00000000E+00
  0.00000000E+00  0.00000000E+00  0.00000000E+00
  0.00000000E+00  0.00000000E+00  0.00000000E+00
  0.00000000E+00  0.00000000E+00  0.00000000E+00
  0.00000000E+00  0.00000000E+00  0.00000000E+00
  0.00000000E+00  0.00000000E+00  0.00000000E+00
  0.00000000E+00  0.00000000E+00  0.00000000E+00
  0.00000000E+00  0.00000000E+00  0.00000000E+00
  0.00000000E+00  0.00000000E+00  0.00000000E+00
  0.00000000E+00  0.00000000E+00  0.00000000E+00
  0.00000000E+00  0.00000000E+00  0.00000000E+00
  0.00000000E+00  0.00000000E+00  0.00000000E+00
  0.00000000E+00  0.00000000E+00  0.00000000E+00
  0.00000000E+00  0.00000000E+00  0.00000000E+00
  0.00000000E+00  0.00000000E+00  0.00000000E+00
  0.00000000E+00  0.00000000E+00  0.00000000E+00
  0.00000000E+00  0.00000000E+00  0.00000000E+00
  0.00000000E+00  0.00000000E+00  0.00000000E+00
  0.00000000E+00  0.00000000E+00  0.00000000E+00
  0.00000000E+00  0.00000000E+00  0.00000000E+00
  0.00000000E+00  0.00000000E+00  0.00000000E+00
  0.00000000E+00  0.00000000E+00  0.00000000E+00
  0.00000000E+00  0.00000000E+00  0.00000000E+00
  0.00000000E+00  0.00000000E+00  0.00000000E+00
  0.00000000E+00  0.00000000E+00  0.00000000E+00
  0.00000000E+00  0.00000000E+00  0.00000000E+00
  0.00000000E+00  0.00000000E+00  0.00000000E+00
  0.00000000E+00  0.00000000E+00  0.00000000E+00
  0.00000000E+00  0.00000000E+00  0.00000000E+00
  0.00000000E+00  0.00000000E+00  0.00000000E+00
  0.00000000E+00  0.00000000E+00  0.00000000E+00
  0.00000000E+00  0.00000000E+00  0.00000000E+00
  0.00000000E+00  0.00000000E+00  0.00000000E+00
  0.00000000E+00  0.00000000E+00  0.00000000E+00
  0.00000000E+00  0.00000000E+00  0.00000000E+00
  0.00000000E+00  0.00000000E+00  0.00000000E+00
  0.00000000E+00  0.00000000E+00  0.00000000E+00
  0.00000000E+00  0.00000000E+00  0.00000000E+00
  0.00000000E+00  0.00000000E+00  0.00000000E+00
  0.00000000E+00  0.00000000E+00  0.00000000E+00
  0.00000000E+00  0.00000000E+00  0.00000000E+00
  0.00000000E+00  0.00000000E+00  0.00000000E+00
  0.00000000E+00  0.00000000E+00  0.00000000E+00
  0.00000000E+00  0.00000000E+00  0.00000000E+00
  0.00000000E+00  0.00000000E+00  0.00000000E+00
  0.00000000E+00  0.00000000E+00  0.00000000E+00
  0.00000000E+00  0.00000000E+00  0.00000000E+00
  0.00000000E+00  0.00000000E+00  0.00000000E+00
  0.00000000E+00  0.00000000E+00  0.00000000E+00
  0.00000000E+00  0.00000000E+00  0.00000000E+00
  0.00000000E+00  0.00000000E+00  0.00000000E+00
  0.00000000E+00  0.00000000E+00  0.00000000E+00
  0.00000000E+00  0.00000000E+00  0.00000000E+00
  0.00000000E+00  0.00000000E+00  0.00000000E+00
  0.00000000E+00  0.00000000E+00  0.00000000E+00
  0.00000000E+00  0.00000000E+00  0.00000000E+00
  0.00000000E+00  0.00000000E+00  0.00000000E+00
  0.00000000E+00  0.00000000E+00  0.00000000E+00
  0.00000000E+00  0.00000000E+00  0.00000000E+00
  0.00000000E+00  0.00000000E+00  0.00000000E+00
  0.00000000E+00  0.00000000E+00  0.00000000E+00
  0.00000000E+00  0.00000000E+00  0.00000000E+00
  0.00000000E+00  0.00000000E+00  0.00000000E+00
  0.00000000E+00  0.00000000E+00  0.00000000E+00
  0.00000000E+00  0.00000000E+00  0.00000000E+00
  0.00000000E+00  0.00000000E+00  0.00000000E+00
  0.00000000E+00  0.00000000E+00  0.00000000E+00
  0.00000000E+00  0.00000000E+00  0.00000000E+00
  0.00000000E+00  0.00000000E+00  0.00000000E+00
  0.00000000E+00  0.00000000E+00  0.00000000E+00
  0.00000000E+00  0.00000000E+00  0.00000000E+00
  0.00000000E+00  0.00000000E+00  0.00000000E+00
  0.00000000E+00  0.00000000E+00  0.00000000E+00
  0.00000000E+00  0.00000000E+00  0.00000000E+00
  0.00000000E+00  0.00000000E+00  0.00000000E+00
  0.00000000E+00  0.00000000E+00  0.00000000E+00
  0.00000000E+00  0.00000000E+00  0.00000000E+00
  0.00000000E+00  0.00000000E+00  0.00000000E+00
  0.00000000E+00  0.00000000E+00  0.00000000E+00
  0.00000000E+00  0.00000000E+00  0.00000000E+00
  0.00000000E+00  0.00000000E+00  0.00000000E+00
  0.00000000E+00  0.00000000E+00  0.00000000E+00
  0.00000000E+00  0.00000000E+00  0.00000000E+00
  0.00000000E+00  0.00000000E+00  0.00000000E+00
  0.00000000E+00  0.00000000E+00  0.00000000E+00
  0.00000000E+00  0.00000000E+00  0.00000000E+00
  0.00000000E+00  0.00000000E+00  0.00000000E+00
  0.00000000E+00  0.00000000E+00  0.00000000E+00
  0.00000000E+00  0.00000000E+00  0.00000000E+00
  0.00000000E+00  0.00000000E+00  0.00000000E+00
  0.00000000E+00  0.00000000E+00  0.00000000E+00
  0.00000000E+00  0.00000000E+00  0.00000000E+00
  0.00000000E+00  0.00000000E+00  0.00000000E+00
  0.00000000E+00  0.00000000E+00  0.00000000E+00
  0.00000000E+00  0.00000000E+00  0.00000000E+00
  0.00000000E+00  0.00000000E+00  0.00000000E+00
  0.00000000E+00  0.00000000E+00  0.00000000E+00
  0.00000000E+00  0.00000000E+00  0.00000000E+00
  0.00000000E+00  0.00000000E+00  0.00000000E+00
  0.00000000E+00  0.00000000E+00  0.00000000E+00
  0.00000000E+00  0.00000000E+00  0.00000000E+00
  0.00000000E+00  0.00000000E+00  0.00000000E+00
  0.00000000E+00  0.00000000E+00  0.00000000E+00
  0.00000000E+00  0.00000000E+00  0.00000000E+00
  0.00000000E+00  0.00000000E+00  0.00000000E+00
  0.00000000E+00  0.00000000E+00  0.00000000E+00
  0.00000000E+00  0.00000000E+00  0.00000000E+00
  0.00000000E+00  0.00000000E+00  0.00000000E+00
  0.00000000E+00  0.00000000E+00  0.00000000E+00
  0.00000000E+00  0.00000000E+00  0.00000000E+00
  0.00000000E+00  0.00000000E+00  0.00000000E+00
  0.00000000E+00  0.00000000E+00  0.00000000E+00
  0.00000000E+00  0.00000000E+00  0.00000000E+00
  0.00000000E+00  0.00000000E+00  0.00000000E+00
  0.00000000E+00  0.00000000E+00  0.00000000E+00
  0.00000000E+00  0.00000000E+00  0.00000000E+00
  0.00000000E+00  0.00000000E+00  0.00000000E+00
  0.00000000E+00  0.00000000E+00  0.00000000E+00
  0.00000000E+00  0.00000000E+00  0.00000000E+00
