Generated by VASPKIT code               
   1.00000000000000     
    26.7760930456804189   -0.0002382047645211    0.0000000000000000
    -0.0002382567000046   26.7764049677939830    0.0000000000000000
     0.0000000000000012    0.0000000000000012   21.9753162429925304
  C             
   408
Direct
  0.0465469521674692  0.3847501493026710  0.5561663573316493
  0.3847486025282519  0.9534552145230084  0.5561733023776949
  0.0668355027514692  0.4199834760955525  0.5999092518097058
  0.4199820733747466  0.9331681216225014  0.5999158269772581
  0.0262056501530267  0.4368720339584878  0.6385687512240132
  0.4368737868142903  0.9737999858426800  0.6385723026923444
  0.9933875562300261  0.3798303981371070  0.5678057742708545
  0.3798306687357239  0.0066143640726137  0.5678093174021114
  0.9808038002567971  0.4120389283153008  0.6187235547856729
  0.4120412197679884  0.0191995825127032  0.6187253726505905
  0.9601032711050969  0.3745610971916422  0.5191644177565293
  0.3745603148406774  0.0398969877840368  0.5191673768976609
  0.9786745799440609  0.3739733061110362  0.4570764570763644
  0.3739716745540244  0.0213234920395140  0.4570800762704009
  0.0644364468090290  0.3841778401514320  0.4963634074770471
  0.3841738694840146  0.9355645190292539  0.4963714535823704
  0.0298768832205752  0.3786915941995862  0.4458624032571151
  0.3786884531509426  0.9701210651342153  0.4458683811559194
  0.1033326478072315  0.4188522465589701  0.4779602646399791
  0.4188473603930114  0.8966666458784268  0.4779692605380927
  0.1042939763091308  0.4533867190897656  0.5821967144577000
  0.4533841008808638  0.8957099145211858  0.5822044881587142
  0.1228935654455991  0.4528124619739743  0.5201013335584516
  0.4528080853676010  0.8771079482485503  0.5201099004665010
  0.1025097380870845  0.5049946219914564  0.6024599095114419
  0.5049932860703922  0.8974944157918191  0.6024647616300106
  0.0244906553217683  0.4865738154814730  0.6580738869000804
  0.4865760842459373  0.9755147881120018  0.6580750415422001
  0.0633529979996836  0.5212670041286958  0.6396633201166622
  0.5212674570212145  0.9366519016946884  0.6396660179976673
  0.9773139697356856  0.5133383742775779  0.6584835427794506
  0.5133431575770251  0.0226912101344465  0.6584801131908852
  0.9353744320833677  0.4378204475611183  0.6190968216520319
  0.4378247862947521  0.0646288977992730  0.6190950063657983
  0.9335897117129025  0.4894216602316450  0.6393563052029172
  0.4894265371712289  0.0664132763804177  0.6393516431661331
  0.9129267503697959  0.4013280175294938  0.5195635673161315
  0.4013295414117429  0.0870718983888381  0.5195623298283675
  0.9007899558164798  0.4323443165914457  0.5686016778175448
  0.4323479548013331  0.0992111423527138  0.5685991082925543
  0.9429836548215946  0.4003776921208758  0.4190895757779646
  0.4003754232317033  0.0570128733818246  0.4190896027418308
  0.9023411825034130  0.4172759739593284  0.4577289228348927
  0.4172765568354727  0.0976561498476873  0.4577260468502083
  0.9598061659550673  0.4305150935657507  0.3713054482780248
  0.4305131845982009  0.0401894880592943  0.3713051233238917
  0.0473592225451737  0.4099801605117512  0.3962541663287179
  0.4099755346956384  0.9526381465586423  0.3962599574140964
  0.0927697416803559  0.4348095159162121  0.4161089781707494
  0.4348032570417605  0.9072289770276519  0.4161168746926981
  0.0129892506868912  0.4354109718019003  0.3596647969609256
  0.4354070158323328  0.9870055588530713  0.3596683497647494
  0.1021076111140090  0.4841667206804690  0.3986268509390101
  0.4841611693569321  0.8978903353686257  0.3986339738431259
  0.1326191586583756  0.5040708136967100  0.5019414753274447
  0.5040664458012947  0.8673826558515021  0.5019485342782903
  0.1200045393253677  0.5363107421182131  0.5528611566177382
  0.5363091738900760  0.8799986563976243  0.5528676723331633
  0.1223991771222770  0.5194387446372438  0.4423640946915708
  0.5194334795312696  0.8776005160160342  0.4423704808588043
  0.0976588177520401  0.5827240260781665  0.5422710772133585
  0.5827234432404458  0.9023438503758464  0.5422739532914388
  0.0401938342599069  0.5694849065412709  0.6286945517948888
  0.5694868156617721  0.9598105123730026  0.6286948768458257
  0.9870107494593680  0.5645890282465388  0.6403352030416135
  0.5645929841383931  0.0129944413516132  0.6403316504567831
  0.0570163454435671  0.5996223080477501  0.5809104240888502
  0.5996245769323351  0.9429871270977294  0.5809103973566405
  0.9526407774296919  0.5900198395626736  0.6037458336183270
  0.5900244655157301  0.0473618538534045  0.6037400425786911
  0.8978923890858530  0.5158332796097423  0.6013731490115694
  0.5158388307423207  0.1021096649422769  0.6013660261201222
  0.8776008229515673  0.4805612554373142  0.5576359050917904
  0.4805665206297025  0.1223994842960129  0.5576295191649981
  0.9072302583943750  0.5651904841782478  0.5838910218556250
  0.5651967429904384  0.0927710233462021  0.5838831253244763
  0.8799954607979675  0.4636892581534039  0.4471388433739173
  0.4636908261737327  0.1200013438040157  0.4471323278316456
  0.8673808414414670  0.4959291862806686  0.4980585247399587
  0.4959335543986604  0.1326173444512363  0.4980514658565767
  0.9366470018137363  0.4787329959966542  0.3603366800462686
  0.4787325431987294  0.0633480984851768  0.3603339821704545
  0.8974902622237926  0.4950053779654520  0.3975400902746535
  0.4950067141816215  0.1025055844435279  0.3975352383737835
  0.0226860308532352  0.4866616258429969  0.3415164572039953
  0.4866568427070838  0.9773087902677391  0.3415198868951193
  0.0664102883916720  0.5105783397823613  0.3606436947285371
  0.5105734630989013  0.9335867240024636  0.3606483568876696
  0.9755093448116392  0.5134261848655354  0.3419261129677877
  0.5134239158695132  0.0244852123433350  0.3419249585265197
  0.0992100443149749  0.5676556837440568  0.4313983223952190
  0.5676520453267393  0.9007888580569045  0.4314008915490789
  0.0870732499202181  0.5986719824746640  0.4804364325437977
  0.5986704587004426  0.9129281019626075  0.4804376701155496
  0.0646255682795521  0.5621795523860784  0.3809031781820300
  0.5621752137045317  0.9353711023421032  0.3809049937578193
  0.0213254200669147  0.6260266941209025  0.5429235430805892
  0.6260283255322245  0.9786765081595372  0.5429199236890104
  0.9701231171846530  0.6213084060109042  0.5541375967948935
  0.6213115469824079  0.0298789353221199  0.5541316188668612
  0.0398967290730691  0.6254389030048573  0.4808355823222276
  0.6254396851423975  0.9601030127353025  0.4808326231865432
  0.8966673521999483  0.5811477535045833  0.5220397355422428
  0.5811526398927451  0.1033333543684806  0.5220307396645694
  0.8771064345590710  0.5471875383000261  0.4798986666500987
  0.5471919145760966  0.1228920520841277  0.4798900994436766
  0.8957060236213338  0.5466132809849870  0.4178032855206857
  0.5466158993358760  0.1042900858029191  0.4177955120319143
  0.9355635532631863  0.6158221600364896  0.5036365923809486
  0.6158261305936948  0.0644354813461881  0.5036285464168336
  0.9737943499753502  0.5631279661032268  0.3614312487006572
  0.5631262131426459  0.0262000145909022  0.3614276972553441
  0.0191961995556998  0.5879610719133331  0.3812764451538007
  0.5879587803941543  0.9808004178127161  0.3812746273561540
  0.0066124439653175  0.6201696019997461  0.4321942256701389
  0.6201693313537786  0.9933856362347437  0.4321906828497849
  0.9331644976485287  0.5800165241767823  0.4000907479241362
  0.5800179267034460  0.0668318787345955  0.4000841731757014
  0.9534530478337893  0.6152498509324391  0.4438336426418576
  0.6152513975230708  0.0465447858230004  0.4438266976286764
  0.3306438215495280  0.3821543472477571  0.6177664231027452
  0.6693590692927620  0.6178392002814180  0.6177719115225120
  0.3821601985346098  0.6693532261056546  0.6177775470386715
  0.6178433134243598  0.3306427941854138  0.6177615794066845
  0.8040567816306016  0.0734587740557331  0.5556218703038449
  0.1958734426443355  0.9263593987632711  0.5558701023039062
  0.0734739754647590  0.1959769321373697  0.5554926690573431
  0.9263753294603563  0.8041390759403164  0.5559917698433084
  0.3643000973493817  0.4224739352427311  0.6223946381344402
  0.6357031270078649  0.5775189205178859  0.6223986790256920
  0.4224816460853489  0.6356984097940350  0.6224030397117744
  0.5775222073868974  0.3642962139605843  0.6223907929278116
  0.8259847653834835  0.0586746281239633  0.4998661366633090
  0.1740152347516053  0.9413253721902005  0.5001338639123093
  0.0586733063626593  0.1740251818520186  0.4997499182827680
  0.9413266929408877  0.8259748173636081  0.5002500815615570
  0.3508433149849773  0.4616316775278050  0.5695179014805530
  0.6491591888280395  0.5383645481915336  0.5695177581800425
  0.4616359451787062  0.6491587052137809  0.5695240594729157
  0.5383656854663463  0.3508382580119112  0.5695114344730988
  0.8785154757472314  0.0769697562935850  0.4999482570023200
  0.1214845238935156  0.9230302438188942  0.5000517433507090
  0.0769608412187670  0.1214943300623354  0.4998720133492454
  0.9230391586366405  0.8785056689702593  0.5001279869549151
  0.2982153170920200  0.3888030134651317  0.5638743804682115
  0.7017848283191969  0.6111938274638797  0.5638776077425239
  0.3888062492161869  0.7017819077799374  0.5638839050377917
  0.6111955142132718  0.2982164359425191  0.5638680846606796
  0.8427279585644173  0.1009352911762301  0.5908906409297524
  0.1571662365208326  0.8987757733300379  0.5909500278785067
  0.1009484698276605  0.1573189551016400  0.5907862992231586
  0.8987944416860958  0.8428646906912038  0.5910452377384409
  0.3101180950471882  0.4331140746057250  0.5329355713272753
  0.6898814634833894  0.5668848692895916  0.5329366153521606
  0.4331164732735019  0.6898820442092712  0.5329442034469407
  0.5668842776817059  0.3101175195872753  0.5329284724531951
  0.8882428417855762  0.1018362192161639  0.5565035133687463
  0.1116931715773473  0.8979808151960110  0.5564733324352200
  0.1018381305081001  0.1117904427304248  0.5564282227130759
  0.8979995227888388  0.8883271434810475  0.5565485386182063
  0.2936601981867200  0.3415200060253782  0.5324549387773000
  0.7063407723258948  0.6584779637299164  0.5324639453698327
  0.3415209314199663  0.7063352267560603  0.5324692394388540
  0.6584805096122592  0.2936642630695928  0.5324496494972518
  0.8216553301512916  0.1466460929475280  0.6131379314494033
  0.1782072806693652  0.8529903833971537  0.6130138921516783
  0.1466655975343317  0.1783904089133223  0.6130099708590581
  0.8530094373713339  0.8218342624074367  0.6131313615942829
  0.3470845266211685  0.3316596346074573  0.6182426930869257
  0.6529175025858839  0.6683334003526423  0.6182533550686699
  0.3316657236238658  0.6529093581068609  0.6182570486550640
  0.6683381492909131  0.3470868754431932  0.6182389579652720
  0.7602611986664475  0.1029296471332009  0.5556892752807094
  0.2396591321316424  0.8968914472906658  0.5558668626936435
  0.1029468286627669  0.2397574353264641  0.5555231318164994
  0.8968971512989795  0.7603459112598289  0.5560252478787392
  0.3249488611738499  0.3071302653272708  0.5642365307753953
  0.6750521282508419  0.6928667292715391  0.5642485269430757
  0.3071313727659766  0.6750443664386933  0.5642525316361342
  0.6928689109015133  0.3249545971780166  0.5642325207352552
  0.7713063560580123  0.1490735504502750  0.5910624452564767
  0.2285787873655962  0.8506386873878237  0.5910093315067513
  0.1490908260463059  0.2287261153745436  0.5908919266794366
  0.8506466481422527  0.7714482720192999  0.5911659401339838
  0.3990283422841614  0.3205212557395558  0.6177387941621254
  0.6009735307930070  0.6794717386138133  0.6177513282959880
  0.3205281102277237  0.6009654675840438  0.6177518327798022
  0.6794755968805982  0.3990300786437866  0.6177385134052777
  0.7384582575880739  0.1178013673395268  0.4999271317673443
  0.2615417419604398  0.8821986326211666  0.5000728686254670
  0.1178126420989659  0.2615503562567345  0.4997490973518915
  0.8821873574828653  0.7384496422076314  0.5002509023401632
  0.4158594090612060  0.4076953753536116  0.6201866069027602
  0.5841430439149965  0.5922952007983011  0.6201933156886927
  0.4077057818622119  0.5841389744667043  0.6201958651679640
  0.5922990970212113  0.4158558350509203  0.6201844584635973
  0.8041265579426822  0.0736406014655723  0.4441298983326849
  0.1959432183636640  0.9265412259161092  0.4443781298329516
  0.0736246696699865  0.1958609232526600  0.4440082300995682
  0.9265260238447200  0.8040230675410708  0.4445073309964597
  0.4358341182015538  0.3579681315765603  0.6224411010415044
  0.5641682004536265  0.6420242647249554  0.6224511429388072
  0.3579764245834831  0.5641623578772785  0.6224517179502776
  0.6420271729502063  0.4358333852641449  0.6224412834683034
  0.7603408681014221  0.1031085525970380  0.4441331378219949
  0.2397388013540391  0.8970703527226412  0.4443107252312394
  0.1031028484941032  0.2396540876366629  0.4439747517189850
  0.8970531709267130  0.7602425634209410  0.4444768683040945
  0.3965513681201274  0.4519993567625311  0.5313379656442461
  0.6034516134946608  0.5479984703103661  0.5313392525475111
  0.4520019170470813  0.6034523849926928  0.5313434542523920
  0.5479982637196152  0.3965460156316901  0.5313329912178901
  0.8883068285299957  0.1020191847733102  0.4435266683751609
  0.1117571580458687  0.8981637806150429  0.4434964865738448
  0.1020004770200600  0.1116728559925458  0.4434514613643412
  0.8981618696085752  0.8882095567908050  0.4435717775732543
  0.4341970714699652  0.4278985389514925  0.5629550838555433
  0.5658044381414639  0.5720991398310165  0.5629586397389803
  0.4279045584937185  0.5658039725318097  0.5629605309662848
  0.5720991051357998  0.4341939356276771  0.5629520923648997
  0.8428337633454178  0.1012242272015026  0.4090499736222086
  0.1572720412482967  0.8990647087018134  0.4091093586929442
  0.1012055571793899  0.1571353087420987  0.4089547610076378
  0.8990515294814725  0.8426810439684751  0.4092137012245323
  0.3965483847946560  0.4520015304281488  0.4686607505562781
  0.6034486308939182  0.5480006441781166  0.4686620310832498
  0.4520017361847041  0.6034539825943904  0.4686670055653016
  0.5479980829165398  0.3965476138922032  0.4686565486136949
  0.9184504149856236  0.1466111685426444  0.4436314688979149
  0.0816204952737962  0.8535767750261658  0.4433488345642779
  0.1465907909804970  0.0815324088911754  0.4435729635482302
  0.8535798093170911  0.9183523161635541  0.4434119271064987
  0.3101185358304729  0.4331151306064156  0.4670633842652934
  0.6898819044742309  0.5668859250281520  0.4670644291478188
  0.4331157221129401  0.6898824796196813  0.4670715277416020
  0.5668835266048872  0.3101179553132460  0.4670557962209261
  0.9183795043986381  0.1464232246614784  0.5566511655903218
  0.0815495849409905  0.8533888310998660  0.5563685319949506
  0.1464201906705613  0.0816476828691409  0.5565880729755474
  0.8534092087604607  0.9184675907373843  0.5564270364045687
  0.3508408105765567  0.4616354525121167  0.4304822423916037
  0.6491566848825886  0.5383683231946002  0.4304820980433860
  0.4616343143902574  0.6491617411067711  0.4304885659307165
  0.5383640545072264  0.3508412941553877  0.4304759401584259
  0.9380634728212821  0.1648802993636501  0.5002016587071141
  0.0619365279087593  0.8351197003131815  0.4997983418110287
  0.1648670627575248  0.0619403329678868  0.5001489044588665
  0.8351329370201508  0.9380596673462026  0.4998510954817413
  0.2936592275923302  0.3415220366702387  0.4675360556662603
  0.7063398020847923  0.6584799941834972  0.4675450607010767
  0.3415194904768571  0.7063357364289445  0.4675503503123519
  0.6584790687309561  0.2936647732649380  0.4675307605567006
  0.8518354605126136  0.1912220923968854  0.6133076160952283
  0.1480241018661679  0.8084041279571373  0.6129271624173606
  0.1912382978904226  0.1482058809361322  0.6131959352950682
  0.8084235353868714  0.8520151400116790  0.6130343438292997
  0.2982151716164788  0.3888061722608065  0.4361223921583693
  0.7017846829748642  0.6111969861283689  0.4361256198471606
  0.3888044862862395  0.7017835636267439  0.4361319157848341
  0.6111937510660033  0.2982180918263665  0.4361160944496144
  0.9021800221741550  0.1888272992017426  0.5911873037199316
  0.0977017061363732  0.8108696232624297  0.5907362707692597
  0.1888360886881266  0.0978544492113443  0.5911090748447281
  0.8108940404892918  0.9023285940801279  0.5908114799085218
  0.3249478721791673  0.3071332705287038  0.4357514726128842
  0.6750511396626661  0.6928697345655223  0.4357634702131635
  0.3071310894700254  0.6750454031665500  0.4357674788345424
  0.6928686273550375  0.3249556340893653  0.4357474687404119
  0.8308108151719649  0.2370388486356597  0.5913440545328296
  0.1690758130011486  0.7626560515314346  0.5907818713917693
  0.2370513642434791  0.1692188900849594  0.5912027312475109
  0.7626679715052808  0.8309610676818316  0.5909195066571507
  0.3624230367485708  0.2796403736529605  0.5324159129568203
  0.6375785077886506  0.7203574766970798  0.5324330384122460
  0.2796436071634263  0.6375687621590708  0.5324341623736836
  0.7203591272160501  0.3624305826424217  0.5324145171690550
  0.7552239522215808  0.1915692605511597  0.5566040391790295
  0.2447006515712369  0.8082520556757774  0.5563866468578611
  0.1915837922193831  0.2447956475213918  0.5564224595926250
  0.8082483203625602  0.7553151996648366  0.5565699880435474
  0.4089056057552042  0.2890538822789852  0.5637946469750610
  0.5910956277094243  0.7109429239846232  0.5638097995085148
  0.2890590698928996  0.5910875268529401  0.5638092479843201
  0.7109446210898176  0.4089110765767674  0.5637951515371664
  0.7356710920431646  0.1733436263201626  0.5000508965199340
  0.2643289080267965  0.8266563737083059  0.4999491034300543
  0.1733576879846796  0.2643324549187510  0.4998582334173168
  0.8266423118415218  0.7356675437038187  0.5001417661913223
  0.3624214929043885  0.2796425234861103  0.4675669618410313
  0.6375769640671309  0.7203596264452975  0.4675840869058817
  0.2796408724803381  0.6375694181441366  0.4675854827652619
  0.7203563928947366  0.3624312387726617  0.4675658375121542
  0.7854258441521457  0.2361021372125555  0.5567684990845408
  0.2145028063281745  0.7637116156239764  0.5562931812526466
  0.2361183757495720  0.2145940889620229  0.5566069352175527
  0.7637141916462887  0.7855204786804825  0.5564580714302643
  0.4763043983234904  0.3484992278867967  0.5695356272430091
  0.5236972234260441  0.6514973367783545  0.5695460251378726
  0.3485058739680029  0.5236921261883994  0.5695458048282896
  0.6514956456346523  0.4763054539213343  0.5695362399203358
  0.7714212125337132  0.1493613124780143  0.4089906694934684
  0.2286936435461432  0.8509264494796885  0.4089375544287642
  0.1493533515119574  0.2285517266778805  0.4088340590443044
  0.8509091743501548  0.7712738836775276  0.4091080740920097
  0.4626177085850943  0.3933511337801791  0.5314381323729001
  0.5373843882873528  0.6066467188268672  0.5314474788020128
  0.3933569757072273  0.5373814339597555  0.5314476721850709
  0.6066436450214642  0.4626172684482209  0.5314377875638393
  0.8217927190971831  0.1470096167017547  0.3869861083073827
  0.1783446696385486  0.8533539069331665  0.3868620687667261
  0.1469905618687217  0.1781657367529300  0.3868686377859851
  0.8533344022458994  0.8216095900395695  0.3869900291154679
  0.4517184048706057  0.3054712430873397  0.5328795647976144
  0.5482813477893033  0.6945262340259875  0.5328948775836763
  0.3054762041027930  0.5482767717024647  0.5328928055311070
  0.6945243748079539  0.4517222955779231  0.5328814351691178
  0.7552993484770650  0.1917479443522399  0.4436133535860494
  0.2447760479082147  0.8084307390320401  0.4433959605930657
  0.1917516794871393  0.2446847993103379  0.4434300112490125
  0.8084162076101753  0.7552043517061234  0.4435775401049029
  0.4341955627025632  0.4279008604415980  0.4370413585259130
  0.5658029292665062  0.5721014616118349  0.4370449167095082
  0.4279008953867645  0.5658060643346001  0.4370479093583371
  0.5720954412170476  0.4341960270076778  0.4370394676970232
  0.9022982939226928  0.1891303764728383  0.4092637298038565
  0.0978199780775901  0.8111727004447435  0.4088126968274708
  0.1891059594108129  0.0976714052267055  0.4091885195821759
  0.8111639110678996  0.9021455500551090  0.4088909250263530
  0.4626156125442524  0.3933532827738033  0.4685525251629346
  0.5373822926832266  0.6066488675745142  0.4685618627051815
  0.3933563539758280  0.5373827316122012  0.4685622093746700
  0.6066430239252262  0.4626185666892331  0.4685523312617002
  0.8519758979200244  0.1915958718780899  0.3870728383201781
  0.1481645391178683  0.8087779071071147  0.3866923836658923
  0.1915764645089992  0.1479848587684643  0.3869656549711951
  0.8087617022282613  0.8517941180347389  0.3868040646521269
  0.3642968727929417  0.4224810798675281  0.3776013203822912
  0.6356999030352806  0.5775260647785456  0.3776053622402410
  0.4224777925752175  0.6357037853118015  0.3776092075718763
  0.5775183537318976  0.3643015899158716  0.3775969599292234
  0.9350910643284503  0.2204098215433177  0.5003323381072239
  0.0649089359782228  0.7795901785911069  0.4996676626763968
  0.2203981534170600  0.0649075588197416  0.5002607796561555
  0.7796018460352041  0.9350924405991472  0.4997392200765238
  0.3306409305050200  0.3821608004961690  0.3822280886225706
  0.6693561787378188  0.6178456535262462  0.3822335770399090
  0.3821566865263076  0.6693572053792437  0.3822384204777986
  0.6178398010728755  0.3306467736602519  0.3822224529127137
  0.9132828237436311  0.2350831301923625  0.5561095742290658
  0.0866390817913637  0.7647291930766623  0.5554130846412948
  0.2350821609114478  0.0867372473106903  0.5560180695935736
  0.7647456976725301  0.9133838450156758  0.5555010580255666
  0.3470824980624285  0.3316665993319590  0.3817466448472580
  0.6529154745214150  0.6683403650410260  0.3817573070859134
  0.3316618508642992  0.6529131250362945  0.3817610417878142
  0.6683342765993989  0.3470906424960162  0.3817429515031026
  0.8695298643456039  0.2646183190396526  0.5561659263873378
  0.1303943723167283  0.7351779633512927  0.5553985355865746
  0.2646231886895004  0.1304911410891925  0.5560471064783934
  0.7351935247824840  0.8696325070680029  0.5555184468945491
  0.4158569555389968  0.4077048008820812  0.3798066842484386
  0.5841405908745887  0.5923046264209774  0.3798133924295984
  0.4077009024789472  0.5841441642612378  0.3798155419718038
  0.5922942175661606  0.4158610252144441  0.3798041345616285
  0.9133609187552315  0.2352708069810097  0.4445869161376113
  0.0867171766716814  0.7649168699597633  0.4438904262531690
  0.2352543019949390  0.0866161541685328  0.4444989413375933
  0.7649178389153057  0.9132627522668350  0.4439819304837569
  0.4089043732509255  0.2890570768118627  0.4361902004408461
  0.5910943954969621  0.7109461184963721  0.4362053531223122
  0.2890553779980964  0.5910889238827548  0.4362048485003598
  0.7109409289963700  0.4089124734927568  0.4361907522077876
  0.7953270757874311  0.2610282652844653  0.5003062745648590
  0.2046729239590661  0.7389717345623876  0.4996937256009020
  0.2610333377895266  0.2046670380917562  0.5001459390198630
  0.7389666616670705  0.7953329609767664  0.4998540602498268
  0.4517186531255679  0.3054737678626439  0.4671051232773240
  0.5482815961227708  0.6945287582195018  0.4671204335874362
  0.3054756243442273  0.5482777044478846  0.4671185643503026
  0.6945237952893845  0.4517232283666248  0.4671071952014570
  0.7854971937872962  0.2362883838603553  0.4437068192882965
  0.2145741559958164  0.7638978617169947  0.4432315005172204
  0.2362858088387593  0.2144795207760414  0.4435419275074010
  0.7638816246006982  0.7854059099610431  0.4433930642777885
  0.4763027772156311  0.3485026639961766  0.4304539745793641
  0.5236956026411754  0.6515007726995077  0.4304643721993366
  0.3485043532564321  0.5236945462225272  0.4304637608723150
  0.6514941251936048  0.4763078738175819  0.4304541943049601
  0.8309241868825734  0.2373439489034676  0.4092181285658646
  0.1691891844570040  0.7629611511874402  0.4086559455077636
  0.2373320281020104  0.1690389313782157  0.4090804924241828
  0.7629486354822735  0.8307811091400803  0.4087972679960185
  0.3990264690173044  0.3205282621650696  0.3822486710916533
  0.6009716580150227  0.6794787451417652  0.3822612062136549
  0.3205244024220135  0.6009699217867586  0.3822614865169356
  0.6794718888374177  0.3990345328891052  0.3822481672114364
  0.8477257985359876  0.2794311918943750  0.5004013068144625
  0.1522742017508608  0.7205688081642231  0.4995986939102786
  0.2794304251400421  0.1522681574391389  0.5002675304968976
  0.7205695747401442  0.8477318421108113  0.4997324686703336
  0.4358317995453209  0.3579757361399027  0.3775488561570069
  0.5641658820853555  0.6420318695990322  0.3775588995776833
  0.3579728265366927  0.5641666152445919  0.3775587168957560
  0.6420235751596240  0.4358376426233244  0.3775482815954267
  0.8696056283439821  0.2648220366546217  0.4446014655974217
  0.1304701364348347  0.7353816808077490  0.4438340740206342
  0.2648064750325979  0.1303674926286683  0.4444815517401245
  0.7353768113075820  0.8695088582935330  0.4439528930088838
 
  0.00000000E+00  0.00000000E+00  0.00000000E+00
  0.00000000E+00  0.00000000E+00  0.00000000E+00
  0.00000000E+00  0.00000000E+00  0.00000000E+00
  0.00000000E+00  0.00000000E+00  0.00000000E+00
  0.00000000E+00  0.00000000E+00  0.00000000E+00
  0.00000000E+00  0.00000000E+00  0.00000000E+00
  0.00000000E+00  0.00000000E+00  0.00000000E+00
  0.00000000E+00  0.00000000E+00  0.00000000E+00
  0.00000000E+00  0.00000000E+00  0.00000000E+00
  0.00000000E+00  0.00000000E+00  0.00000000E+00
  0.00000000E+00  0.00000000E+00  0.00000000E+00
  0.00000000E+00  0.00000000E+00  0.00000000E+00
  0.00000000E+00  0.00000000E+00  0.00000000E+00
  0.00000000E+00  0.00000000E+00  0.00000000E+00
  0.00000000E+00  0.00000000E+00  0.00000000E+00
  0.00000000E+00  0.00000000E+00  0.00000000E+00
  0.00000000E+00  0.00000000E+00  0.00000000E+00
  0.00000000E+00  0.00000000E+00  0.00000000E+00
  0.00000000E+00  0.00000000E+00  0.00000000E+00
  0.00000000E+00  0.00000000E+00  0.00000000E+00
  0.00000000E+00  0.00000000E+00  0.00000000E+00
  0.00000000E+00  0.00000000E+00  0.00000000E+00
  0.00000000E+00  0.00000000E+00  0.00000000E+00
  0.00000000E+00  0.00000000E+00  0.00000000E+00
  0.00000000E+00  0.00000000E+00  0.00000000E+00
  0.00000000E+00  0.00000000E+00  0.00000000E+00
  0.00000000E+00  0.00000000E+00  0.00000000E+00
  0.00000000E+00  0.00000000E+00  0.00000000E+00
  0.00000000E+00  0.00000000E+00  0.00000000E+00
  0.00000000E+00  0.00000000E+00  0.00000000E+00
  0.00000000E+00  0.00000000E+00  0.00000000E+00
  0.00000000E+00  0.00000000E+00  0.00000000E+00
  0.00000000E+00  0.00000000E+00  0.00000000E+00
  0.00000000E+00  0.00000000E+00  0.00000000E+00
  0.00000000E+00  0.00000000E+00  0.00000000E+00
  0.00000000E+00  0.00000000E+00  0.00000000E+00
  0.00000000E+00  0.00000000E+00  0.00000000E+00
  0.00000000E+00  0.00000000E+00  0.00000000E+00
  0.00000000E+00  0.00000000E+00  0.00000000E+00
  0.00000000E+00  0.00000000E+00  0.00000000E+00
  0.00000000E+00  0.00000000E+00  0.00000000E+00
  0.00000000E+00  0.00000000E+00  0.00000000E+00
  0.00000000E+00  0.00000000E+00  0.00000000E+00
  0.00000000E+00  0.00000000E+00  0.00000000E+00
  0.00000000E+00  0.00000000E+00  0.00000000E+00
  0.00000000E+00  0.00000000E+00  0.00000000E+00
  0.00000000E+00  0.00000000E+00  0.00000000E+00
  0.00000000E+00  0.00000000E+00  0.00000000E+00
  0.00000000E+00  0.00000000E+00  0.00000000E+00
  0.00000000E+00  0.00000000E+00  0.00000000E+00
  0.00000000E+00  0.00000000E+00  0.00000000E+00
  0.00000000E+00  0.00000000E+00  0.00000000E+00
  0.00000000E+00  0.00000000E+00  0.00000000E+00
  0.00000000E+00  0.00000000E+00  0.00000000E+00
  0.00000000E+00  0.00000000E+00  0.00000000E+00
  0.00000000E+00  0.00000000E+00  0.00000000E+00
  0.00000000E+00  0.00000000E+00  0.00000000E+00
  0.00000000E+00  0.00000000E+00  0.00000000E+00
  0.00000000E+00  0.00000000E+00  0.00000000E+00
  0.00000000E+00  0.00000000E+00  0.00000000E+00
  0.00000000E+00  0.00000000E+00  0.00000000E+00
  0.00000000E+00  0.00000000E+00  0.00000000E+00
  0.00000000E+00  0.00000000E+00  0.00000000E+00
  0.00000000E+00  0.00000000E+00  0.00000000E+00
  0.00000000E+00  0.00000000E+00  0.00000000E+00
  0.00000000E+00  0.00000000E+00  0.00000000E+00
  0.00000000E+00  0.00000000E+00  0.00000000E+00
  0.00000000E+00  0.00000000E+00  0.00000000E+00
  0.00000000E+00  0.00000000E+00  0.00000000E+00
  0.00000000E+00  0.00000000E+00  0.00000000E+00
  0.00000000E+00  0.00000000E+00  0.00000000E+00
  0.00000000E+00  0.00000000E+00  0.00000000E+00
  0.00000000E+00  0.00000000E+00  0.00000000E+00
  0.00000000E+00  0.00000000E+00  0.00000000E+00
  0.00000000E+00  0.00000000E+00  0.00000000E+00
  0.00000000E+00  0.00000000E+00  0.00000000E+00
  0.00000000E+00  0.00000000E+00  0.00000000E+00
  0.00000000E+00  0.00000000E+00  0.00000000E+00
  0.00000000E+00  0.00000000E+00  0.00000000E+00
  0.00000000E+00  0.00000000E+00  0.00000000E+00
  0.00000000E+00  0.00000000E+00  0.00000000E+00
  0.00000000E+00  0.00000000E+00  0.00000000E+00
  0.00000000E+00  0.00000000E+00  0.00000000E+00
  0.00000000E+00  0.00000000E+00  0.00000000E+00
  0.00000000E+00  0.00000000E+00  0.00000000E+00
  0.00000000E+00  0.00000000E+00  0.00000000E+00
  0.00000000E+00  0.00000000E+00  0.00000000E+00
  0.00000000E+00  0.00000000E+00  0.00000000E+00
  0.00000000E+00  0.00000000E+00  0.00000000E+00
  0.00000000E+00  0.00000000E+00  0.00000000E+00
  0.00000000E+00  0.00000000E+00  0.00000000E+00
  0.00000000E+00  0.00000000E+00  0.00000000E+00
  0.00000000E+00  0.00000000E+00  0.00000000E+00
  0.00000000E+00  0.00000000E+00  0.00000000E+00
  0.00000000E+00  0.00000000E+00  0.00000000E+00
  0.00000000E+00  0.00000000E+00  0.00000000E+00
  0.00000000E+00  0.00000000E+00  0.00000000E+00
  0.00000000E+00  0.00000000E+00  0.00000000E+00
  0.00000000E+00  0.00000000E+00  0.00000000E+00
  0.00000000E+00  0.00000000E+00  0.00000000E+00
  0.00000000E+00  0.00000000E+00  0.00000000E+00
  0.00000000E+00  0.00000000E+00  0.00000000E+00
  0.00000000E+00  0.00000000E+00  0.00000000E+00
  0.00000000E+00  0.00000000E+00  0.00000000E+00
  0.00000000E+00  0.00000000E+00  0.00000000E+00
  0.00000000E+00  0.00000000E+00  0.00000000E+00
  0.00000000E+00  0.00000000E+00  0.00000000E+00
  0.00000000E+00  0.00000000E+00  0.00000000E+00
  0.00000000E+00  0.00000000E+00  0.00000000E+00
  0.00000000E+00  0.00000000E+00  0.00000000E+00
  0.00000000E+00  0.00000000E+00  0.00000000E+00
  0.00000000E+00  0.00000000E+00  0.00000000E+00
  0.00000000E+00  0.00000000E+00  0.00000000E+00
  0.00000000E+00  0.00000000E+00  0.00000000E+00
  0.00000000E+00  0.00000000E+00  0.00000000E+00
  0.00000000E+00  0.00000000E+00  0.00000000E+00
  0.00000000E+00  0.00000000E+00  0.00000000E+00
  0.00000000E+00  0.00000000E+00  0.00000000E+00
  0.00000000E+00  0.00000000E+00  0.00000000E+00
  0.00000000E+00  0.00000000E+00  0.00000000E+00
  0.00000000E+00  0.00000000E+00  0.00000000E+00
  0.00000000E+00  0.00000000E+00  0.00000000E+00
  0.00000000E+00  0.00000000E+00  0.00000000E+00
  0.00000000E+00  0.00000000E+00  0.00000000E+00
  0.00000000E+00  0.00000000E+00  0.00000000E+00
  0.00000000E+00  0.00000000E+00  0.00000000E+00
  0.00000000E+00  0.00000000E+00  0.00000000E+00
  0.00000000E+00  0.00000000E+00  0.00000000E+00
  0.00000000E+00  0.00000000E+00  0.00000000E+00
  0.00000000E+00  0.00000000E+00  0.00000000E+00
  0.00000000E+00  0.00000000E+00  0.00000000E+00
  0.00000000E+00  0.00000000E+00  0.00000000E+00
  0.00000000E+00  0.00000000E+00  0.00000000E+00
  0.00000000E+00  0.00000000E+00  0.00000000E+00
  0.00000000E+00  0.00000000E+00  0.00000000E+00
  0.00000000E+00  0.00000000E+00  0.00000000E+00
  0.00000000E+00  0.00000000E+00  0.00000000E+00
  0.00000000E+00  0.00000000E+00  0.00000000E+00
  0.00000000E+00  0.00000000E+00  0.00000000E+00
  0.00000000E+00  0.00000000E+00  0.00000000E+00
  0.00000000E+00  0.00000000E+00  0.00000000E+00
  0.00000000E+00  0.00000000E+00  0.00000000E+00
  0.00000000E+00  0.00000000E+00  0.00000000E+00
  0.00000000E+00  0.00000000E+00  0.00000000E+00
  0.00000000E+00  0.00000000E+00  0.00000000E+00
  0.00000000E+00  0.00000000E+00  0.00000000E+00
  0.00000000E+00  0.00000000E+00  0.00000000E+00
  0.00000000E+00  0.00000000E+00  0.00000000E+00
  0.00000000E+00  0.00000000E+00  0.00000000E+00
  0.00000000E+00  0.00000000E+00  0.00000000E+00
  0.00000000E+00  0.00000000E+00  0.00000000E+00
  0.00000000E+00  0.00000000E+00  0.00000000E+00
  0.00000000E+00  0.00000000E+00  0.00000000E+00
  0.00000000E+00  0.00000000E+00  0.00000000E+00
  0.00000000E+00  0.00000000E+00  0.00000000E+00
  0.00000000E+00  0.00000000E+00  0.00000000E+00
  0.00000000E+00  0.00000000E+00  0.00000000E+00
  0.00000000E+00  0.00000000E+00  0.00000000E+00
  0.00000000E+00  0.00000000E+00  0.00000000E+00
  0.00000000E+00  0.00000000E+00  0.00000000E+00
  0.00000000E+00  0.00000000E+00  0.00000000E+00
  0.00000000E+00  0.00000000E+00  0.00000000E+00
  0.00000000E+00  0.00000000E+00  0.00000000E+00
  0.00000000E+00  0.00000000E+00  0.00000000E+00
  0.00000000E+00  0.00000000E+00  0.00000000E+00
  0.00000000E+00  0.00000000E+00  0.00000000E+00
  0.00000000E+00  0.00000000E+00  0.00000000E+00
  0.00000000E+00  0.00000000E+00  0.00000000E+00
  0.00000000E+00  0.00000000E+00  0.00000000E+00
  0.00000000E+00  0.00000000E+00  0.00000000E+00
  0.00000000E+00  0.00000000E+00  0.00000000E+00
  0.00000000E+00  0.00000000E+00  0.00000000E+00
  0.00000000E+00  0.00000000E+00  0.00000000E+00
  0.00000000E+00  0.00000000E+00  0.00000000E+00
  0.00000000E+00  0.00000000E+00  0.00000000E+00
  0.00000000E+00  0.00000000E+00  0.00000000E+00
  0.00000000E+00  0.00000000E+00  0.00000000E+00
  0.00000000E+00  0.00000000E+00  0.00000000E+00
  0.00000000E+00  0.00000000E+00  0.00000000E+00
  0.00000000E+00  0.00000000E+00  0.00000000E+00
  0.00000000E+00  0.00000000E+00  0.00000000E+00
  0.00000000E+00  0.00000000E+00  0.00000000E+00
  0.00000000E+00  0.00000000E+00  0.00000000E+00
  0.00000000E+00  0.00000000E+00  0.00000000E+00
  0.00000000E+00  0.00000000E+00  0.00000000E+00
  0.00000000E+00  0.00000000E+00  0.00000000E+00
  0.00000000E+00  0.00000000E+00  0.00000000E+00
  0.00000000E+00  0.00000000E+00  0.00000000E+00
  0.00000000E+00  0.00000000E+00  0.00000000E+00
  0.00000000E+00  0.00000000E+00  0.00000000E+00
  0.00000000E+00  0.00000000E+00  0.00000000E+00
  0.00000000E+00  0.00000000E+00  0.00000000E+00
  0.00000000E+00  0.00000000E+00  0.00000000E+00
  0.00000000E+00  0.00000000E+00  0.00000000E+00
  0.00000000E+00  0.00000000E+00  0.00000000E+00
  0.00000000E+00  0.00000000E+00  0.00000000E+00
  0.00000000E+00  0.00000000E+00  0.00000000E+00
  0.00000000E+00  0.00000000E+00  0.00000000E+00
  0.00000000E+00  0.00000000E+00  0.00000000E+00
  0.00000000E+00  0.00000000E+00  0.00000000E+00
  0.00000000E+00  0.00000000E+00  0.00000000E+00
  0.00000000E+00  0.00000000E+00  0.00000000E+00
  0.00000000E+00  0.00000000E+00  0.00000000E+00
  0.00000000E+00  0.00000000E+00  0.00000000E+00
  0.00000000E+00  0.00000000E+00  0.00000000E+00
  0.00000000E+00  0.00000000E+00  0.00000000E+00
  0.00000000E+00  0.00000000E+00  0.00000000E+00
  0.00000000E+00  0.00000000E+00  0.00000000E+00
  0.00000000E+00  0.00000000E+00  0.00000000E+00
  0.00000000E+00  0.00000000E+00  0.00000000E+00
  0.00000000E+00  0.00000000E+00  0.00000000E+00
  0.00000000E+00  0.00000000E+00  0.00000000E+00
  0.00000000E+00  0.00000000E+00  0.00000000E+00
  0.00000000E+00  0.00000000E+00  0.00000000E+00
  0.00000000E+00  0.00000000E+00  0.00000000E+00
  0.00000000E+00  0.00000000E+00  0.00000000E+00
  0.00000000E+00  0.00000000E+00  0.00000000E+00
  0.00000000E+00  0.00000000E+00  0.00000000E+00
  0.00000000E+00  0.00000000E+00  0.00000000E+00
  0.00000000E+00  0.00000000E+00  0.00000000E+00
  0.00000000E+00  0.00000000E+00  0.00000000E+00
  0.00000000E+00  0.00000000E+00  0.00000000E+00
  0.00000000E+00  0.00000000E+00  0.00000000E+00
  0.00000000E+00  0.00000000E+00  0.00000000E+00
  0.00000000E+00  0.00000000E+00  0.00000000E+00
  0.00000000E+00  0.00000000E+00  0.00000000E+00
  0.00000000E+00  0.00000000E+00  0.00000000E+00
  0.00000000E+00  0.00000000E+00  0.00000000E+00
  0.00000000E+00  0.00000000E+00  0.00000000E+00
  0.00000000E+00  0.00000000E+00  0.00000000E+00
  0.00000000E+00  0.00000000E+00  0.00000000E+00
  0.00000000E+00  0.00000000E+00  0.00000000E+00
  0.00000000E+00  0.00000000E+00  0.00000000E+00
  0.00000000E+00  0.00000000E+00  0.00000000E+00
  0.00000000E+00  0.00000000E+00  0.00000000E+00
  0.00000000E+00  0.00000000E+00  0.00000000E+00
  0.00000000E+00  0.00000000E+00  0.00000000E+00
  0.00000000E+00  0.00000000E+00  0.00000000E+00
  0.00000000E+00  0.00000000E+00  0.00000000E+00
  0.00000000E+00  0.00000000E+00  0.00000000E+00
  0.00000000E+00  0.00000000E+00  0.00000000E+00
  0.00000000E+00  0.00000000E+00  0.00000000E+00
  0.00000000E+00  0.00000000E+00  0.00000000E+00
  0.00000000E+00  0.00000000E+00  0.00000000E+00
  0.00000000E+00  0.00000000E+00  0.00000000E+00
  0.00000000E+00  0.00000000E+00  0.00000000E+00
  0.00000000E+00  0.00000000E+00  0.00000000E+00
  0.00000000E+00  0.00000000E+00  0.00000000E+00
  0.00000000E+00  0.00000000E+00  0.00000000E+00
  0.00000000E+00  0.00000000E+00  0.00000000E+00
  0.00000000E+00  0.00000000E+00  0.00000000E+00
  0.00000000E+00  0.00000000E+00  0.00000000E+00
  0.00000000E+00  0.00000000E+00  0.00000000E+00
  0.00000000E+00  0.00000000E+00  0.00000000E+00
  0.00000000E+00  0.00000000E+00  0.00000000E+00
  0.00000000E+00  0.00000000E+00  0.00000000E+00
  0.00000000E+00  0.00000000E+00  0.00000000E+00
  0.00000000E+00  0.00000000E+00  0.00000000E+00
  0.00000000E+00  0.00000000E+00  0.00000000E+00
  0.00000000E+00  0.00000000E+00  0.00000000E+00
  0.00000000E+00  0.00000000E+00  0.00000000E+00
  0.00000000E+00  0.00000000E+00  0.00000000E+00
  0.00000000E+00  0.00000000E+00  0.00000000E+00
  0.00000000E+00  0.00000000E+00  0.00000000E+00
  0.00000000E+00  0.00000000E+00  0.00000000E+00
  0.00000000E+00  0.00000000E+00  0.00000000E+00
  0.00000000E+00  0.00000000E+00  0.00000000E+00
  0.00000000E+00  0.00000000E+00  0.00000000E+00
  0.00000000E+00  0.00000000E+00  0.00000000E+00
  0.00000000E+00  0.00000000E+00  0.00000000E+00
  0.00000000E+00  0.00000000E+00  0.00000000E+00
  0.00000000E+00  0.00000000E+00  0.00000000E+00
  0.00000000E+00  0.00000000E+00  0.00000000E+00
  0.00000000E+00  0.00000000E+00  0.00000000E+00
  0.00000000E+00  0.00000000E+00  0.00000000E+00
  0.00000000E+00  0.00000000E+00  0.00000000E+00
  0.00000000E+00  0.00000000E+00  0.00000000E+00
  0.00000000E+00  0.00000000E+00  0.00000000E+00
  0.00000000E+00  0.00000000E+00  0.00000000E+00
  0.00000000E+00  0.00000000E+00  0.00000000E+00
  0.00000000E+00  0.00000000E+00  0.00000000E+00
  0.00000000E+00  0.00000000E+00  0.00000000E+00
  0.00000000E+00  0.00000000E+00  0.00000000E+00
  0.00000000E+00  0.00000000E+00  0.00000000E+00
  0.00000000E+00  0.00000000E+00  0.00000000E+00
  0.00000000E+00  0.00000000E+00  0.00000000E+00
  0.00000000E+00  0.00000000E+00  0.00000000E+00
  0.00000000E+00  0.00000000E+00  0.00000000E+00
  0.00000000E+00  0.00000000E+00  0.00000000E+00
  0.00000000E+00  0.00000000E+00  0.00000000E+00
  0.00000000E+00  0.00000000E+00  0.00000000E+00
  0.00000000E+00  0.00000000E+00  0.00000000E+00
  0.00000000E+00  0.00000000E+00  0.00000000E+00
  0.00000000E+00  0.00000000E+00  0.00000000E+00
  0.00000000E+00  0.00000000E+00  0.00000000E+00
  0.00000000E+00  0.00000000E+00  0.00000000E+00
  0.00000000E+00  0.00000000E+00  0.00000000E+00
  0.00000000E+00  0.00000000E+00  0.00000000E+00
  0.00000000E+00  0.00000000E+00  0.00000000E+00
  0.00000000E+00  0.00000000E+00  0.00000000E+00
  0.00000000E+00  0.00000000E+00  0.00000000E+00
  0.00000000E+00  0.00000000E+00  0.00000000E+00
  0.00000000E+00  0.00000000E+00  0.00000000E+00
  0.00000000E+00  0.00000000E+00  0.00000000E+00
  0.00000000E+00  0.00000000E+00  0.00000000E+00
  0.00000000E+00  0.00000000E+00  0.00000000E+00
  0.00000000E+00  0.00000000E+00  0.00000000E+00
  0.00000000E+00  0.00000000E+00  0.00000000E+00
  0.00000000E+00  0.00000000E+00  0.00000000E+00
  0.00000000E+00  0.00000000E+00  0.00000000E+00
  0.00000000E+00  0.00000000E+00  0.00000000E+00
  0.00000000E+00  0.00000000E+00  0.00000000E+00
  0.00000000E+00  0.00000000E+00  0.00000000E+00
  0.00000000E+00  0.00000000E+00  0.00000000E+00
  0.00000000E+00  0.00000000E+00  0.00000000E+00
  0.00000000E+00  0.00000000E+00  0.00000000E+00
  0.00000000E+00  0.00000000E+00  0.00000000E+00
  0.00000000E+00  0.00000000E+00  0.00000000E+00
  0.00000000E+00  0.00000000E+00  0.00000000E+00
  0.00000000E+00  0.00000000E+00  0.00000000E+00
  0.00000000E+00  0.00000000E+00  0.00000000E+00
  0.00000000E+00  0.00000000E+00  0.00000000E+00
  0.00000000E+00  0.00000000E+00  0.00000000E+00
  0.00000000E+00  0.00000000E+00  0.00000000E+00
  0.00000000E+00  0.00000000E+00  0.00000000E+00
  0.00000000E+00  0.00000000E+00  0.00000000E+00
  0.00000000E+00  0.00000000E+00  0.00000000E+00
  0.00000000E+00  0.00000000E+00  0.00000000E+00
  0.00000000E+00  0.00000000E+00  0.00000000E+00
  0.00000000E+00  0.00000000E+00  0.00000000E+00
  0.00000000E+00  0.00000000E+00  0.00000000E+00
  0.00000000E+00  0.00000000E+00  0.00000000E+00
  0.00000000E+00  0.00000000E+00  0.00000000E+00
  0.00000000E+00  0.00000000E+00  0.00000000E+00
  0.00000000E+00  0.00000000E+00  0.00000000E+00
  0.00000000E+00  0.00000000E+00  0.00000000E+00
  0.00000000E+00  0.00000000E+00  0.00000000E+00
  0.00000000E+00  0.00000000E+00  0.00000000E+00
  0.00000000E+00  0.00000000E+00  0.00000000E+00
  0.00000000E+00  0.00000000E+00  0.00000000E+00
  0.00000000E+00  0.00000000E+00  0.00000000E+00
  0.00000000E+00  0.00000000E+00  0.00000000E+00
  0.00000000E+00  0.00000000E+00  0.00000000E+00
  0.00000000E+00  0.00000000E+00  0.00000000E+00
  0.00000000E+00  0.00000000E+00  0.00000000E+00
  0.00000000E+00  0.00000000E+00  0.00000000E+00
  0.00000000E+00  0.00000000E+00  0.00000000E+00
  0.00000000E+00  0.00000000E+00  0.00000000E+00
  0.00000000E+00  0.00000000E+00  0.00000000E+00
  0.00000000E+00  0.00000000E+00  0.00000000E+00
  0.00000000E+00  0.00000000E+00  0.00000000E+00
  0.00000000E+00  0.00000000E+00  0.00000000E+00
  0.00000000E+00  0.00000000E+00  0.00000000E+00
  0.00000000E+00  0.00000000E+00  0.00000000E+00
  0.00000000E+00  0.00000000E+00  0.00000000E+00
  0.00000000E+00  0.00000000E+00  0.00000000E+00
  0.00000000E+00  0.00000000E+00  0.00000000E+00
  0.00000000E+00  0.00000000E+00  0.00000000E+00
  0.00000000E+00  0.00000000E+00  0.00000000E+00
  0.00000000E+00  0.00000000E+00  0.00000000E+00
  0.00000000E+00  0.00000000E+00  0.00000000E+00
  0.00000000E+00  0.00000000E+00  0.00000000E+00
  0.00000000E+00  0.00000000E+00  0.00000000E+00
  0.00000000E+00  0.00000000E+00  0.00000000E+00
  0.00000000E+00  0.00000000E+00  0.00000000E+00
  0.00000000E+00  0.00000000E+00  0.00000000E+00
  0.00000000E+00  0.00000000E+00  0.00000000E+00
  0.00000000E+00  0.00000000E+00  0.00000000E+00
  0.00000000E+00  0.00000000E+00  0.00000000E+00
  0.00000000E+00  0.00000000E+00  0.00000000E+00
  0.00000000E+00  0.00000000E+00  0.00000000E+00
  0.00000000E+00  0.00000000E+00  0.00000000E+00
  0.00000000E+00  0.00000000E+00  0.00000000E+00
  0.00000000E+00  0.00000000E+00  0.00000000E+00
  0.00000000E+00  0.00000000E+00  0.00000000E+00
  0.00000000E+00  0.00000000E+00  0.00000000E+00
  0.00000000E+00  0.00000000E+00  0.00000000E+00
  0.00000000E+00  0.00000000E+00  0.00000000E+00
  0.00000000E+00  0.00000000E+00  0.00000000E+00
  0.00000000E+00  0.00000000E+00  0.00000000E+00
  0.00000000E+00  0.00000000E+00  0.00000000E+00
  0.00000000E+00  0.00000000E+00  0.00000000E+00
  0.00000000E+00  0.00000000E+00  0.00000000E+00
  0.00000000E+00  0.00000000E+00  0.00000000E+00
  0.00000000E+00  0.00000000E+00  0.00000000E+00
  0.00000000E+00  0.00000000E+00  0.00000000E+00
  0.00000000E+00  0.00000000E+00  0.00000000E+00
  0.00000000E+00  0.00000000E+00  0.00000000E+00
  0.00000000E+00  0.00000000E+00  0.00000000E+00
  0.00000000E+00  0.00000000E+00  0.00000000E+00
  0.00000000E+00  0.00000000E+00  0.00000000E+00
  0.00000000E+00  0.00000000E+00  0.00000000E+00
  0.00000000E+00  0.00000000E+00  0.00000000E+00
  0.00000000E+00  0.00000000E+00  0.00000000E+00
  0.00000000E+00  0.00000000E+00  0.00000000E+00
  0.00000000E+00  0.00000000E+00  0.00000000E+00
  0.00000000E+00  0.00000000E+00  0.00000000E+00
  0.00000000E+00  0.00000000E+00  0.00000000E+00
  0.00000000E+00  0.00000000E+00  0.00000000E+00
  0.00000000E+00  0.00000000E+00  0.00000000E+00
  0.00000000E+00  0.00000000E+00  0.00000000E+00
  0.00000000E+00  0.00000000E+00  0.00000000E+00
  0.00000000E+00  0.00000000E+00  0.00000000E+00
  0.00000000E+00  0.00000000E+00  0.00000000E+00
  0.00000000E+00  0.00000000E+00  0.00000000E+00
  0.00000000E+00  0.00000000E+00  0.00000000E+00
  0.00000000E+00  0.00000000E+00  0.00000000E+00
  0.00000000E+00  0.00000000E+00  0.00000000E+00
