Generated by VASPKIT code               
   1.00000000000000     
    16.8788543801041016    0.0000308434147070    0.0000000000000000
     0.0000302145897610   16.6975517555325261    0.0000000000000000
     0.0000000000000014    0.0000000000000014   21.9873968956888319
  C             
   192
Direct
  0.6894965271145255  0.4241148726432231  0.4670786296017837
  0.1894991391176769  0.0758855989815124  0.4670793378543642
  0.6894935489260907  0.4241119860029581  0.5329356003630739
  0.1894955835800705  0.0758879347012397  0.5329359204905753
  0.6393964338897078  0.3588670102405448  0.5530304757284048
  0.1393960433399890  0.1411321045742504  0.5530305066029340
  0.6394011959627024  0.3588687894898758  0.4469793942375042
  0.1394011740433068  0.1411310883572360  0.4469803958283172
  0.6100073444529046  0.3193867693366778  0.5000034712480672
  0.1100066952068846  0.1806119332577711  0.5000044857807626
  0.5933319917663422  0.3684829052607470  0.3939808248774033
  0.0933332523723119  0.1315177309541493  0.3939811130504429
  0.5943295006252964  0.4430919668771134  0.3611019436305480
  0.0943313636021232  0.0569080288923035  0.3611021706324553
  0.6902772672103192  0.4957398471094566  0.4348389179593541
  0.1902788343561598  0.0042603673853564  0.4348388231285575
  0.6433265268798400  0.5062106075976420  0.3805590050289226
  0.1433286109370890  0.9937898513251615  0.3805591866219326
  0.6910757808423378  0.5703781491901387  0.4680853303361159
  0.1910771793663038  0.9296222888209740  0.4680852416947903
  0.6902726862531419  0.4957407095109253  0.5651755922682216
  0.1902728875359470  0.0042593634109109  0.5651767528089815
  0.6910730913627752  0.5703777130170822  0.5319287806719404
  0.1910738709249760  0.9296226680623216  0.5319292384441519
  0.6433151780577344  0.5062080845100345  0.6194511072894460
  0.1433158706613232  0.9937918676961792  0.6194515900098738
  0.5933211881781559  0.3684809814523008  0.6060247625113937
  0.0933217213744476  0.1315186160583943  0.6060255941572827
  0.5943154439279319  0.4430904951472564  0.6389043669153112
  0.0943159344039693  0.0569090370288442  0.6389048147231546
  0.5116475919690977  0.3399930438248222  0.6051701686576902
  0.0116477892898135  0.1600056411767391  0.6051694321784187
  0.5327313594997445  0.2780944859725328  0.5000008475362703
  0.0327308142288730  0.2219022764389734  0.5000011414924233
  0.4817578442115887  0.3030685168653968  0.5537892239212134
  0.9817578856704510  0.1969298116655689  0.5537880695560886
  0.5116618666718802  0.3399934422570123  0.3948299458677540
  0.0116626281565086  0.1600057044459799  0.3948310435512313
  0.4817636847792059  0.3030682681875858  0.4462081065994554
  0.9817645770459529  0.1969298786791097  0.4462097085988569
  0.5140296648036273  0.4605369349385386  0.3407699924779597
  0.0140312264129062  0.0394630466263592  0.3407696997734238
  0.4631456350189335  0.3960592558649167  0.3611906733299399
  0.9631466333227401  0.1039404219194665  0.3611911978582263
  0.4859878258953609  0.5394645191810672  0.3407690386438508
  0.9859880821493181  0.9605354639942556  0.3407687125013279
  0.6142758164214426  0.5877448208914391  0.3805486851143618
  0.1142761586255573  0.9122554811784183  0.3805490402356075
  0.6447923521465901  0.6274929137209913  0.4342203633499909
  0.1447931478018566  0.8725080386027551  0.4342206168357000
  0.5368694266370311  0.6039420741661985  0.3611938422343107
  0.0368694563644896  0.8960583521654704  0.3611944576754080
  0.5964003255241237  0.6799786343555132  0.4668995928549969
  0.0963997723069631  0.8200228455863858  0.4668999335532649
  0.6447860980514819  0.6274916688688239  0.5657912625839558
  0.1447864111665988  0.8725089445175711  0.5657912725644496
  0.6142632121205471  0.5877429773765583  0.6194596772454777
  0.1142624210432484  0.9122565665123434  0.6194597984326546
  0.5963970484076471  0.6799778795175533  0.5331084674188249
  0.0963959326327571  0.8200233882243597  0.5331079693733258
  0.5368543647286010  0.6039407414750033  0.6388093239533661
  0.0368533648545692  0.8960595788817396  0.6388087996679572
  0.5140121746946129  0.4605354795717557  0.6592309609074003
  0.0140119174187007  0.0394645368020495  0.6592312874409612
  0.4631305732110275  0.3960579232122050  0.6388061600650035
  0.9631305418827747  0.1039416485265646  0.6388055444554115
  0.4859703356646610  0.5394630637993603  0.6592300075544588
  0.9859687730490632  0.9605369542216791  0.6592302999532031
  0.3857241861547328  0.4122551786375114  0.6194513129786936
  0.8857238436604196  0.0877445188407232  0.6194509572242171
  0.4035996713839914  0.3200213597157988  0.5331004079317014
  0.9036002240546366  0.1799771596909411  0.5331000670458477
  0.4036029481978535  0.3200221143136224  0.4668915318217086
  0.9036040636228870  0.1799766172640448  0.4668920300644255
  0.3552076476571825  0.3725070857031919  0.5657796363110157
  0.8552068518337685  0.1274919616256456  0.5657793828054052
  0.3857367904096741  0.4122570219112176  0.3805403244071557
  0.8857375811586876  0.0877434337230819  0.3805402039192483
  0.3552139015352753  0.3725083303608033  0.4342087377289902
  0.8552135883254761  0.1274910558072513  0.4342087277779184
  0.4056845535633277  0.5569095009399423  0.3610956312242836
  0.9056840628215168  0.9430909662298306  0.3610951847505046
  0.3566848246432787  0.4937919158681839  0.3805488944922605
  0.8566841308147994  0.0062081320086680  0.3805484117294861
  0.4883524090180813  0.6600069535887907  0.3948298315048833
  0.9883522093648316  0.8399943610116378  0.3948305685272545
  0.5182421570152436  0.6969314871846608  0.4462107747923230
  0.0182421145171092  0.8030701841683092  0.4462119301686669
  0.4066788146152406  0.6315190123081100  0.3939752411454319
  0.9066782802631244  0.8684813891421408  0.3939744098967818
  0.5182363162577874  0.6969317354487583  0.5537918944424389
  0.0182354230016130  0.8030701176246378  0.5537902915437858
  0.4883381340274765  0.6600065549608432  0.6051700536237539
  0.9883373703185536  0.8399942979934614  0.6051689554606261
  0.4672686389832783  0.7219055121329163  0.4999991523475720
  0.9672691845819315  0.7780977287608191  0.4999988584153852
  0.4056704968646047  0.5569080294501512  0.6388980578427086
  0.9056686335495123  0.9430919742242878  0.6388978295923073
  0.3566734758322828  0.4937893927997663  0.6194409929399594
  0.8566713905211314  0.0062101482545248  0.6194408114390617
  0.4066680106987411  0.6315170885202073  0.6060191712571361
  0.9066667489790867  0.8684822742253395  0.6060188827465633
  0.3089242200060396  0.4296218500947552  0.5319146700294839
  0.8089228205100307  0.0703777126695917  0.5319147587851374
  0.3089269093699285  0.4296222861851996  0.4680712189681071
  0.8089261289159502  0.0703773334978333  0.4680707611333953
  0.3097273160658884  0.5042592879382195  0.4348244097385827
  0.8097271136089133  0.9957406388517360  0.4348232495137716
  0.3097227351291099  0.5042601502830808  0.5651610798674600
  0.8097211667867006  0.9957396347950920  0.5651611744306919
  0.3606035661127672  0.6411329867995770  0.4469695238281030
  0.8606039569619752  0.8588678982810378  0.4469694940231972
  0.3899926573480793  0.6806132264022791  0.4999965285166740
  0.8899933053297779  0.8193880722498517  0.4999955140665892
  0.3605988037338244  0.6411312076234053  0.5530206057216815
  0.8605988261100830  0.8588689144428172  0.5530196031974053
  0.3105064559669632  0.5758880097367656  0.4670644018315769
  0.8105044207005132  0.9241120693258598  0.4670640814895461
  0.3105034778156236  0.5758851231293429  0.5329213678469529
  0.8105008651692227  0.9241144049883214  0.5329206599048331
  0.4324419232624827  0.8559084508380086  0.5571383884302612
  0.8700297475125152  0.5903871186918630  0.5570598485970657
  0.4638025123623721  0.8178393736387886  0.4999986787410017
  0.8402501928418133  0.5623765296848191  0.5000000038301988
  0.5481632910541667  0.8493732572211186  0.4999990574000834
  0.8454652954314046  0.4752910591201897  0.5000003103245647
  0.4965282002420137  0.8904992556228761  0.5924470163179323
  0.8934125301448765  0.5195283932205272  0.5933420590399858
  0.5672979665023925  0.8853736444977760  0.5566557067491742
  0.8779663088645164  0.4501657225567525  0.5569003118812550
  0.4720582342164302  0.9676082587522141  0.6158078844137900
  0.9720597749646240  0.5323917121238759  0.6158045002954049
  0.3700242061322963  0.9096097945407631  0.5570607378992465
  0.9324424487895850  0.6440919585327669  0.5571404607226964
  0.3934136906452989  0.9804713265358296  0.5933423083013263
  0.9965297248774179  0.6095034440962472  0.5924471168159331
  0.3402510810532408  0.9376211859627195  0.4999997519635593
  0.9638066349394765  0.6821582225927467  0.4999993130731004
  0.4324417027684884  0.8559093801731850  0.4428598548122954
  0.8700296860949410  0.5903865701485504  0.4429400100987126
  0.3700250565625208  0.9096110237440664  0.4429383507641576
  0.9324423970834512  0.6440914894187955  0.4428586645602085
  0.5672978766057775  0.8853751863942538  0.4433428864068707
  0.8779658559363579  0.4501651572006151  0.4431002919042383
  0.4965286965314725  0.8905011092033615  0.4075518959198170
  0.8934122524655665  0.5195272987562303  0.4066584038250864
  0.6220354019324630  0.9501662986666572  0.4430975858671869
  0.9327027917255051  0.3853722702268463  0.4433463444127500
  0.6220351938258681  0.9501650179361585  0.5569012374429434
  0.9327031682078020  0.3853728833225433  0.5566544807962599
  0.6545330975633199  0.9752884995666551  0.4999993896124780
  0.9518339702973220  0.3493630127775490  0.5000005540508221
  0.5279394077380748  0.0323889288906832  0.6158079916969470
  0.0279405885543736  0.4676093855707754  0.6158046128597565
  0.6065838371746270  0.0195257392153252  0.5933415093565944
  0.0034708076174169  0.3904971713402091  0.5924477634645136
  0.5034713052660067  0.1094988911120665  0.5924481038427456
  0.1065877447715893  0.4804726974647864  0.5933415978547296
  0.3779645961406876  0.0498337069423851  0.5569024145762289
  0.0672972080234936  0.6146277331086936  0.5566536582219466
  0.3454669046178187  0.0247115032877629  0.5000006105397556
  0.0481660326990430  0.6506369949040562  0.4999994460937807
  0.4327021252568259  0.1146248134114582  0.5566571120073660
  0.1220341385138860  0.5498348401768287  0.5568997076903899
  0.3934161630598546  0.9804742664382986  0.4066584907993303
  0.9965291922470412  0.6095028293599973  0.4075522345117319
  0.4720605916349454  0.9676110736522907  0.3841920065020822
  0.9720594061201990  0.5323906166579844  0.3841953851789024
  0.3779648042933587  0.0498349875287597  0.4430987622923332
  0.0672968315665536  0.6146271199096514  0.4433455169858107
  0.6065863098630806  0.0195286793075266  0.4066576916668501
  0.0034702750669046  0.3904965566859194  0.4075528856846355
  0.5279417653526137  0.0323917438320355  0.3841921175333299
  0.0279402199880391  0.4676082899566868  0.3841955020526752
  0.6597489212772141  0.0623788144428176  0.5000002483454542
  0.0361933646660783  0.3178417746442364  0.5000006870821008
  0.6299749440037528  0.0903889752844016  0.5570616499290537
  0.0675576016702903  0.3559085086909113  0.5571413357645221
  0.5675582971562929  0.1440906192658348  0.5571401461388530
  0.1299703140153259  0.4096134239382230  0.5570599912870307
  0.6299757944846931  0.0903902044733100  0.4429392616651988
  0.0675575496417304  0.3559080399680841  0.4428595397855090
  0.4518367095411701  0.1506267359981618  0.5000009426107748
  0.1545347007776748  0.5247089415507904  0.4999996899451650
  0.4327020353765133  0.1146263551176262  0.4433442950185436
  0.1220336856167968  0.5498342747823737  0.4430996889125062
  0.5034718016978952  0.1095007447910262  0.4075529840740281
  0.1065874672348593  0.4804716029340456  0.4066579397215265
  0.5361974834615881  0.1821606289809291  0.5000013213430778
  0.1597498093408423  0.4376234637928484  0.4999999966037016
  0.5675580764741968  0.1440915483768500  0.4428616112110109
  0.1299702525175972  0.4096128756077370  0.4429401505760951
