Generated by VASPKIT code               
   1.00000000000000     
    23.6438052680311408   -0.0000029388095635    0.0000000000000000
    -0.0000029303668812   23.7151747138563778    0.0000000000000000
     0.0000000000000013    0.0000000000000013   21.9614565617903779
  C             
   264
Direct
  0.5956842397772784  0.5358783032638350  0.3807451443536923
  0.0956842134844116  0.9641215399194671  0.3807450428719601
  0.5924427659322327  0.5871486970693565  0.4162832123146865
  0.0924427056100927  0.9128513146943267  0.4162832319133076
  0.6221867627146471  0.5776097204713020  0.4727816588870439
  0.1221869888239174  0.9223899822078203  0.4727815519042889
  0.6283132069724642  0.4953645183225678  0.4157219228531644
  0.1283131602224051  0.0046353887178282  0.4157218180573620
  0.6454317512364514  0.5216696683106272  0.4724971083391758
  0.1454316594447707  0.9783302516787824  0.4724970738893991
  0.6120923728130190  0.4389331245072942  0.4158527873679289
  0.1120923278114447  0.0610667913481937  0.4158526284302242
  0.5636694174458039  0.4203127065909504  0.3806589411219296
  0.0636694318793348  0.0796871913272691  0.3806588601945987
  0.5486843383048021  0.5183972394967318  0.3469219577417250
  0.0486842602970967  0.9816026326529306  0.3469219512827134
  0.5324450494585722  0.4593356898737189  0.3467399948773068
  0.0324449703986821  0.0406641605818668  0.3467400241281048
  0.4974420914642891  0.5521576738021579  0.3471497438878872
  0.9974420699310456  0.9478422178881338  0.3471498966498052
  0.5438051718272010  0.6203153467536837  0.4161655846024798
  0.0438051579427093  0.8796845650300045  0.4161657072281144
  0.4951602955170554  0.6022603096467511  0.3810715381452207
  0.9951601751622792  0.8977395831905670  0.3810716599857784
  0.5239482281901529  0.6452242751570427  0.4727811993846811
  0.0239482088610639  0.8547756083248284  0.4727813619929594
  0.6029977187194906  0.6014493607562617  0.5270775441616045
  0.1029975341630016  0.8985507441111036  0.5270776083048363
  0.5532388159564956  0.6363804796623027  0.5273064651794064
  0.0532388763486142  0.8636192797361857  0.5273066403597833
  0.6058165972843772  0.5706635838927463  0.5836741517832011
  0.1058167958812638  0.9293362490822310  0.5836741615886436
  0.6471418149552155  0.4912722736380765  0.5271187261670358
  0.1471417513480359  0.0087276599321792  0.5271186405726778
  0.6274275174998578  0.5160271852974807  0.5838050182169288
  0.1274275511316918  0.9839727482418561  0.5838048969136684
  0.6122714260108606  0.4082815632917077  0.4726962874028729
  0.1122712914721165  0.0917183003923198  0.4726961448349423
  0.6301569466968071  0.4330579577922273  0.5269752815499722
  0.1301568080324623  0.0669420247206948  0.5269751824682301
  0.5349139286172977  0.3771251079949527  0.4158235913234714
  0.0349138343235419  0.1228748003632025  0.4158234745938006
  0.5648985406501430  0.3699583475656868  0.4726872899148242
  0.0648985811240825  0.1300415456249091  0.4726871463404551
  0.4760986682858014  0.3741305218834036  0.4158159987272672
  0.9760987300214632  0.1258693821168971  0.4158158850202527
  0.4711004593972161  0.4566018866171377  0.3469021704594107
  0.9711004565461321  0.0433980745051374  0.3469021411535250
  0.4495186500768130  0.5139682607685720  0.3471798573400499
  0.9495186297249405  0.9860317480368017  0.3471799621625314
  0.4436584828467580  0.4148254793517304  0.3808148364370326
  0.9436583559106146  0.0851745336585558  0.3808148378946133
  0.4011137473281124  0.5272709913201357  0.3811209803915078
  0.9011137217109648  0.9727288688040279  0.3811211900005047
  0.4451773140334006  0.6156734908103250  0.4163424784797525
  0.9451771798466573  0.8843265085285417  0.4163427642302184
  0.4631036034624497  0.6421001139444380  0.4729088543343571
  0.9631036007842653  0.8578998706206078  0.4729089838413076
  0.3993058986300662  0.5787661624959637  0.4164704438039224
  0.8993057978261332  0.9212337916123816  0.4164706387415684
  0.4351014645647593  0.6300418107112642  0.5273131664653361
  0.9351014208907005  0.8699582278974429  0.5273133703054536
  0.5239012011052329  0.6258694561881759  0.5841843456390026
  0.0239011149611604  0.8741305674841224  0.5841844195400927
  0.5563414228914454  0.5851745711763392  0.6191853795141498
  0.0563414525538173  0.9148254783382976  0.6191853045867712
  0.4650861890535829  0.6228749374168359  0.5841767464040064
  0.9650861457161426  0.8771250534386008  0.5841769229297247
  0.5288994252813706  0.5433981651680779  0.6530980296514572
  0.0288994103238780  0.9566018478603966  0.6530980728038880
  0.5988862150405367  0.4727290307221865  0.6188794373467272
  0.0988862093700277  0.0272709222043443  0.6188793368233527
  0.6006939543235668  0.4212339300181625  0.5835299315161537
  0.1006939325407413  0.0787660023204130  0.5835298310955068
  0.5504811621643422  0.4860317662220095  0.6528203759079276
  0.0504812933859662  0.0139682214665047  0.6528204095504762
  0.5368963947440861  0.3578998911773542  0.5270911995779155
  0.0368964791474229  0.1420999809188712  0.5270911675283156
  0.5548226371189644  0.3843264757990612  0.5836577806092087
  0.0548226492970064  0.1156734589688503  0.5836576593478096
  0.4467611265865592  0.3636194209345877  0.4726936142900248
  0.9467611901677739  0.1363804436578732  0.4726936644258476
  0.4760516887459481  0.3547756283256831  0.5272189961301390
  0.9760517839425393  0.1452243066380764  0.5272190032109474
  0.3941831942854334  0.4293363492467464  0.4163260160003720
  0.8941831956563444  0.0706635192259352  0.4163261251606591
  0.3725723774769264  0.4839730619918169  0.4161954380568352
  0.8725724050058219  0.0160269906279484  0.4161955962904968
  0.3970026797347209  0.3985509578348984  0.4729227118825606
  0.8970023230569333  0.1014491794359755  0.4729228314400160
  0.3698426971186489  0.5669423386998054  0.4730250838908655
  0.8698425223946658  0.9330575850196077  0.4730253651412798
  0.3877283373239188  0.5917185874661746  0.5273039966079438
  0.8877282035542893  0.9082812720220210  0.5273040734881598
  0.3528581962134456  0.5087280354339665  0.4728816155676019
  0.8528580923235838  0.9912718174532111  0.4728816943869626
  0.4363305400433261  0.5796873252990542  0.6193413344691032
  0.9363304879811607  0.9203127236208963  0.6193415132805564
  0.4675549611142272  0.5406642382945921  0.6532601119772581
  0.9675550223385869  0.9593357188674676  0.6532603823897194
  0.3879075442247749  0.5610669181604198  0.5841477127651888
  0.8879075872133793  0.9389330949213495  0.5841478646704923
  0.5025578887152946  0.4478423432252977  0.6528503995135657
  0.0025580227264387  0.0521577280570662  0.6528504670237851
  0.5048397244616840  0.3977396623278912  0.6189286302626020
  0.0048397275471824  0.1022603350616131  0.6189285618679756
  0.4561947420403840  0.3796846669797598  0.5838346634184590
  0.9561947683623071  0.1203154202590695  0.5838346268417791
  0.4513155582057243  0.4816027560683916  0.6530781723427268
  0.9513155391403945  0.0183972214036461  0.6530783002872063
  0.3778128566755147  0.4223899755992357  0.5272184918971548
  0.8778129988649597  0.0776098401466667  0.5272186559853935
  0.3545681538206857  0.4783304739993934  0.5275030438981039
  0.8545681356741601  0.0216694478859302  0.5275032743742898
  0.3716867290168961  0.5046354239614179  0.5842782405264275
  0.8716867573338993  0.9953645988805664  0.5842784735222804
  0.4075573353848913  0.4128513194011539  0.5837169742971411
  0.9075571645423626  0.0871486779877380  0.5837170708239934
  0.4043157078464245  0.4641216759836515  0.6192550099875547
  0.9043157693824089  0.0358783137982742  0.6192551785807843
  0.3034334839386883  0.8033894046688177  0.6191117094581267
  0.6966263293923389  0.1966877851246963  0.6193043534448381
  0.8034333091403130  0.6966102513798227  0.6191115245959724
  0.1966267497331948  0.3033116577889293  0.6193035890176495
  0.3185916048386975  0.7457667481018007  0.6189689035694217
  0.6815181928145184  0.2542500202266658  0.6192372963216657
  0.7456494701830747  0.6816049620284137  0.6191067610008212
  0.2543973276223123  0.3183525096407476  0.6191608325881675
  0.3544836794853217  0.7366793510955272  0.5644820586741730
  0.6455605229063888  0.2633881628685002  0.5645888082037411
  0.7364194483904909  0.6456262118532945  0.5646653184340149
  0.2634775031896078  0.3540629819061063  0.5645912991634401
  0.3306027510946550  0.8304781167186224  0.5651069287402906
  0.6694249268418127  0.1696700571118706  0.5651018469646605
  0.8306023721141804  0.6695214557305149  0.5651065055983007
  0.1694253211481008  0.3303294871979775  0.5651005881212579
  0.3626705046512987  0.7887684159178239  0.5328182921715150
  0.6373084190129490  0.2112414935431518  0.5328824517275490
  0.7888941956946975  0.6377981400873445  0.5328770049505704
  0.2110893533480492  0.3621240449714610  0.5328466761501152
  0.2888944370118453  0.8622000957041369  0.5328770203361903
  0.7110900871639383  0.1378774746768329  0.5328471490704032
  0.8626720269287260  0.7112307500821418  0.5328182917700957
  0.1373070213158941  0.2887585279003358  0.5328819286520654
  0.2456497836186917  0.8183948061385100  0.6191068862014106
  0.7543977914647106  0.1816473364925080  0.6191599188235573
  0.8185917562884066  0.7542328111908481  0.6189689625815133
  0.1815185042500890  0.2457502024311837  0.6192377288674793
  0.2364201561473974  0.8543736385205056  0.5646656964222647
  0.7634784895301665  0.1459372399201030  0.5645910850615068
  0.8544841470135891  0.7633199618509827  0.5644822761095760
  0.1455606043525456  0.2366118987998358  0.5645884742375979
  0.2032860028678202  0.7760029959646757  0.6191450004700234
  0.7968526004563996  0.2239446366916079  0.6191185140848352
  0.7761981509929052  0.7965068081446294  0.6189235391050283
  0.2239020428372913  0.2034702247771364  0.6192450733839707
  0.2761977149256514  0.7034929476720464  0.6189233406648038
  0.7239022345961117  0.2965304984979955  0.6192443957349700
  0.7032855602556323  0.7239968462714950  0.6191452852768937
  0.2968516997751675  0.2760556608157124  0.6191194305810122
  0.2184118467055400  0.7183665599404268  0.6192207302665318
  0.7817141317417544  0.2815097505594352  0.6192658168767693
  0.7184120461210277  0.7816331605742470  0.6192213456650475
  0.2817135721205072  0.2184913102620683  0.6192663757059882
  0.3334960267744391  0.6886857189553772  0.5323328586455627
  0.6665913271617743  0.3111404054833289  0.5326716767644060
  0.6887476853610635  0.6670989499382940  0.5326428506837717
  0.3112452894298003  0.3327613105261835  0.5325594424548630
  0.2854086185757804  0.6677422333282255  0.5643281727632377
  0.7146678891046232  0.3321845371741188  0.5646019134097910
  0.6675487857025098  0.7149849472676548  0.5646334951263865
  0.3327644539444985  0.2852074347462951  0.5645752279607814
  0.3334120184851583  0.6888564391312693  0.4673280969973531
  0.6665009747363675  0.3113174120322548  0.4676667865537439
  0.6887530388793326  0.6672384915125262  0.4674404894342012
  0.3112524758693422  0.3329026180678867  0.4673568869582353
  0.3626964649047532  0.7887589149442655  0.4671176594700036
  0.6373245904082026  0.2112297957689095  0.4671813609693644
  0.7889101058832246  0.6378754965254692  0.4671534352597045
  0.2111043585707391  0.3622037266040895  0.4671230780317277
  0.3544386553478581  0.7366124051201477  0.4354129965597525
  0.6455181305699227  0.2633194321383053  0.4355197226833786
  0.7365213735144671  0.6459398773066112  0.4354107033274581
  0.2635790820307219  0.3543724147496102  0.4353354941791995
  0.2889111422098699  0.8621266014773605  0.4671531643138971
  0.7111039859539716  0.1377946871317112  0.4671237776088306
  0.8626945910946813  0.7112408597070035  0.4671178587456923
  0.1373262132452018  0.2887689990156677  0.4671811972197659
  0.3305739604132123  0.8303285076323619  0.4349007213927847
  0.6693984615744961  0.1695222102521948  0.4348953246411685
  0.8305734481244600  0.6696713687151512  0.4349000133778770
  0.1693981423353293  0.3304774931858607  0.4348942008285495
  0.2365223940261431  0.8540620927492153  0.4354095879829342
  0.7635793481602149  0.1456281719618688  0.4353365569951627
  0.8544384927370863  0.7633869695838740  0.4354125360363621
  0.1455175329735214  0.2366796117550992  0.4355191341901622
  0.1887497208846791  0.8328998371979033  0.5326426345879847
  0.8112445790903755  0.1672402465932652  0.5325598767156392
  0.8334974577125058  0.8113152769167147  0.5323336042474822
  0.1665902153171009  0.1888580290373516  0.5326712273863909
  0.1675491402620208  0.7850150509767804  0.5646331873313681
  0.8327650385966563  0.2147928914803968  0.5645754350359442
  0.7854092241496649  0.8322576492778362  0.5643286856515535
  0.2146680953894115  0.1678160852058919  0.5646019309367181
  0.1887524459734057  0.8327634211950252  0.4674398234802656
  0.8112546073162419  0.1670965997670280  0.4673572987329564
  0.8334105254038673  0.8111418579714396  0.4673287327677729
  0.1665019399853690  0.1886830919265690  0.4676664242295274
  0.1912777455595993  0.6911961513575162  0.5651320283367312
  0.8088112871896875  0.3086859651616436  0.5651949432744985
  0.6912777776675418  0.8088035614006128  0.5651324704454972
  0.3088109381778568  0.1913152423885065  0.5651943442055125
  0.2331489717180641  0.6594077747668645  0.5327512798042213
  0.7669089982936717  0.3405463574351885  0.5329479413394771
  0.6594550153146947  0.7672180185532120  0.5328812538067085
  0.3405909114148848  0.2328517518186504  0.5328533795577439
  0.1594566174872533  0.7327826208723531  0.5328808499148856
  0.8405892077552179  0.2671483276975908  0.5328535364783999
  0.7331488111945073  0.8405938950830161  0.5327522970558722
  0.2669097082615003  0.1594524462579886  0.5329477786066481
  0.2853322412353606  0.6678170421130989  0.4353993604095800
  0.7145919894766404  0.3322558916299261  0.4356734697560151
  0.6672370025045797  0.7147941044247130  0.4354261869398914
  0.3324498706281603  0.2850155403200398  0.4353676779956372
  0.2330900784921256  0.6594482517017806  0.4670530591991254
  0.7668522842623207  0.3405969841970165  0.4672483567875864
  0.6594074968886243  0.7671508352920444  0.4671474498187331
  0.3405469387793048  0.2327827429046572  0.4671188936327964
  0.3184834647077917  0.7457494568876182  0.3807602397435573
  0.6814071383865559  0.2542334362796644  0.3810286818337145
  0.7456016978546782  0.6816462664306959  0.3808372281804676
  0.2543506603910199  0.3183957434315012  0.3808906115658268
  0.3033748230446879  0.8033125780982948  0.3806931829049497
  0.6965657096454836  0.1966095223926746  0.3808860224242857
  0.8033744564528895  0.6966874771908984  0.3806928489548348
  0.1965655111432190  0.3033904245736957  0.3808861943860030
  0.2456021952115353  0.8183542442480856  0.3808371446016573
  0.7543506812475844  0.1816041750262160  0.3808909225207239
  0.8184830723308651  0.7542504860069206  0.3807600328910959
  0.1814068401330197  0.2457663113479260  0.3810292075304764
  0.2760987006567581  0.7034682732525881  0.3807526902149356
  0.7238015598510146  0.2965081008011067  0.3810741886133820
  0.7031460739790978  0.7239446369837181  0.3808783288136502
  0.2967161150798111  0.2760041860201884  0.3808529472226164
  0.1672372020214825  0.7852065690369183  0.4354263198894240
  0.8324492354292019  0.2149852014101992  0.4353682994417682
  0.7853322407850933  0.8321823373818760  0.4354001466503197
  0.2145918789651781  0.1677436493052615  0.4356727015620457
  0.1594055941419108  0.7328485860462852  0.4671463897246266
  0.8405487076969715  0.2672185772105883  0.4671194599254234
  0.7330908200563730  0.8405500411877298  0.4670538425771563
  0.2668520029906157  0.1594050152343406  0.4672479297250692
  0.1911902189444056  0.6913153854964094  0.4348066481584067
  0.8087212942220163  0.3088022658008508  0.4348697930373602
  0.6911903134651907  0.8086849786755623  0.4348070310973609
  0.3087216198832979  0.1911975159703380  0.4348687123457947
  0.2031464032628106  0.7760560878913272  0.3808784428805241
  0.7967157304857906  0.2239964952014573  0.3808523968471768
  0.7760985541018732  0.7965320223800929  0.3807530589611127
  0.2238018936262558  0.2034913999192509  0.3810748425655242
  0.2182857893188048  0.7184897648999529  0.3807314320985490
  0.7815885408429883  0.2816338652121930  0.3807765219437577
  0.7182856277719161  0.7815109073912108  0.3807316748337303
  0.2815892584739146  0.2183663484230566  0.3807772832343533
