Generated by VASPKIT code               
   1.00000000000000     
    28.5830107053567275    0.0000268392272806    0.0000000000000000
     0.0000267978856627   28.5827508253064515    0.0000000000000000
     0.0000000000000013    0.0000000000000013   21.9857438466114772
  C             
   408
Direct
  0.0253787539529015  0.4088150546972591  0.3948546052272867
  0.4088191898669096  0.9746212027348526  0.3948545494289765
  0.9746282122041562  0.4088195431770409  0.3948504237552442
  0.4088214493736583  0.0253725984736186  0.3948501974315863
  0.9589981820690738  0.4499938031554204  0.3616735031734755
  0.4499956526915992  0.0410027819838587  0.3616741614653968
  0.0410148444066212  0.4499880991752117  0.3616776396614141
  0.4499919700356098  0.9589868624025255  0.3616793462621847
  0.0000091833677965  0.4754985489317798  0.3412408244243768
  0.4754998186362248  0.9999929451065984  0.3412419042324357
  0.0804192207556624  0.4745684438801308  0.3814444813919911
  0.4745719016907217  0.9195819066005299  0.3814450068580221
  0.1053960793346288  0.4588897537455594  0.4351580163075632
  0.4588935312144296  0.8946035865653497  0.4351579466867642
  0.0497461665082034  0.3936536531774468  0.4464929726702300
  0.3936568634138602  0.9502544798235395  0.4464935839132413
  0.0906448353003237  0.4192113441723265  0.4669828365516187
  0.4192147276801904  0.9093539341451430  0.4669822813421000
  0.0244459923429084  0.3779114233870143  0.5000311600000106
  0.3779145705841134  0.9755535281156611  0.5000312667964364
  0.9502547026533923  0.3936573580916016  0.4464868929340106
  0.3936592307874316  0.0497441847112265  0.4464883956261232
  0.9755466753733032  0.3779115295625760  0.5000305966626298
  0.3779156466702250  0.0244521398960490  0.5000306573473454
  0.9093543255417982  0.4192184338710437  0.4669699738341085
  0.4192194564484924  0.0906458517772162  0.4669710218516317
  0.9195910232899870  0.4745770582127498  0.3814355465523929
  0.4745784527351176  0.0804097933659850  0.3814357800861701
  0.8946060912923358  0.4588981249084880  0.4351444724246570
  0.4588988865416816  0.1053938911621360  0.4351455946056224
  0.9195919719225938  0.5254272648462429  0.3814402401667806
  0.5254275138021260  0.0804098981469172  0.3814395944132235
  0.0000087719452405  0.5245009989500521  0.3412453645724295
  0.5245027558667504  0.9999926182900399  0.3412434905768005
  0.9589987694542113  0.5500101294078080  0.3616805793512433
  0.5500107873335226  0.0410032573931421  0.3616784740191079
  0.0804197146120403  0.5254217951224406  0.3814493568125014
  0.5254251338920339  0.9195808796676993  0.3814495268642762
  0.0410153144592633  0.5500043362124010  0.3616844422550150
  0.5500067555411889  0.9589859193317385  0.3616836207651297
  0.1204064676798543  0.4999932651750769  0.4682945542270484
  0.4999976566188845  0.8795918834721181  0.4682932370889802
  0.1053959508697262  0.5410992638470955  0.4351661028063557
  0.5411028151129729  0.8946041695991507  0.4351651344080615
  0.1204045487126885  0.4999933252445828  0.5317949029414987
  0.4999978130748013  0.8795930644265217  0.5317936508800045
  0.0906395738796541  0.4192120968960075  0.5330915210162223
  0.4192160275145146  0.9093579869487234  0.5330913342244518
  0.0497392668234485  0.3936559644320042  0.5535748677140002
  0.3936586897892964  0.9502586637315786  0.5535757692461390
  0.1053858802049363  0.4588880132707978  0.5649214802479174
  0.4588924030360311  0.8946107391706429  0.5649222032963315
  0.0253647818974240  0.4088147215961947  0.6052085947663413
  0.4088170814940986  0.9746341850080088  0.6052092766708874
  0.9502478276435153  0.3936577754670749  0.5535683914512280
  0.3936599377569560  0.0497522048232953  0.5535702630018642
  0.9093513423008259  0.4192181444376977  0.5330775964100027
  0.4192203727269438  0.0906485690354808  0.5330779530503692
  0.9746161968402095  0.4088166599447295  0.6052045927823477
  0.4088187577076264  0.0253822386561848  0.6052040578023544
  0.8946009813097365  0.4588940846996561  0.5649018235951545
  0.4588954086541598  0.1053995413001636  0.5649025008812310
  0.8795942436131301  0.5000030565929615  0.4682746430783679
  0.5000035247159395  0.1204070240703170  0.4682740672958133
  0.8946113990551219  0.5411057769619301  0.4351492213570169
  0.5411064429505789  0.1053897498849416  0.4351491764104248
  0.8795904727074894  0.5000020741187389  0.5317745776793652
  0.5000029220231205  0.1204092617906314  0.5317744141111744
  0.9093594071563972  0.5807818367039925  0.4669804145880344
  0.5807821839056156  0.0906426731315246  0.4669792065524674
  0.9746326017969449  0.5911823400567394  0.3948599552078279
  0.5911823339277996  0.0253705065543303  0.3948572309618921
  0.0253808773902439  0.5911786541306697  0.3948643481124405
  0.5911802422455843  0.9746207528956475  0.3948636418464084
  0.9502619479048963  0.6063414984366476  0.4465001533606371
  0.6063419306005353  0.0497406216364204  0.4464970310073907
  0.0906432205905456  0.5807754330338782  0.4669937352268392
  0.5807792172771671  0.9093557075977987  0.4669927057446401
  0.0497449949304136  0.6063383190189467  0.4465071289049106
  0.6063396651223416  0.9502556644272948  0.4465052988382994
  0.1053883608332745  0.5410981626453630  0.5649270291406818
  0.5411023305198053  0.8946097633777105  0.5649272561143375
  0.0906402089404397  0.5807755756546644  0.5331034989927247
  0.5807780751765003  0.9093599001980568  0.5331020442906639
  0.0803998243744286  0.4745684026766775  0.6186232308493340
  0.4745720296871363  0.9195989289450998  0.6186223407727374
  0.0409945868490352  0.4499870917713598  0.6383846985111861
  0.4499897261930175  0.9590041328966168  0.6383838240651520
  0.0804028714859841  0.5254173424615420  0.6186288505897497
  0.5254210682143025  0.9195956275343036  0.6186273465919996
  0.9589860832456820  0.4499916721308322  0.6383805165777161
  0.4499931747986545  0.0410130830834773  0.6383791885753338
  0.9195832227219555  0.4745730462952993  0.6186104098356983
  0.4745752761529946  0.0804164491462123  0.6186094572877574
  0.9999905192952622  0.4754930737554445  0.6588226232416997
  0.4754964883696936  0.0000087243913607  0.6588212262004295
  0.8946059369302405  0.5411036881453913  0.5649068611948579
  0.5411043712070456  0.1053948421274560  0.5649072978568934
  0.9093554950537964  0.5807792480246411  0.5330846325353999
  0.5807790423169399  0.0906450961931288  0.5330834606381032
  0.9195846308837941  0.5254214760814517  0.6186144089278012
  0.5254229560325411  0.0804146233951833  0.6186127777417231
  0.9755539368198863  0.6220853894862992  0.5000423608146108
  0.6220865199010001  0.0244475139212442  0.5000401076727563
  0.0244502665764454  0.6220823797088626  0.5000470394307123
  0.6220840657086467  0.9755502632333173  0.5000458448382783
  0.0497445334158041  0.6063377725686729  0.5535922853694250
  0.6063400339045733  0.9502558162928204  0.5535907113255881
  0.9502542587057702  0.6063394300006798  0.5535811949274626
  0.6063403754341187  0.0497460389805313  0.5535793322203082
  0.0409995427381760  0.5500012722855117  0.6383976528017654
  0.5500039587842029  0.9589985618560893  0.6383955240216448
  0.9999932201032352  0.5244974205681393  0.6588288576342354
  0.5244996427524907  0.0000057565201549  0.6588265345208258
  0.9589877402021406  0.5500068333185821  0.6383877218584311
  0.5500079884391470  0.0410117116303440  0.6383860007903914
  0.0253708573358207  0.5911761379182108  0.6052230666547572
  0.5911792495150094  0.9746285832707794  0.6052217511336794
  0.9746204177538733  0.5911809178707603  0.6052191438285000
  0.5911823944359124  0.0253787710816173  0.6052162450899937
  0.5247565104488199  0.7335540916400490  0.6188089869111303
  0.4752402193700383  0.2664377869589084  0.6188074290545981
  0.7335624511542136  0.4752497128190394  0.6188190606145244
  0.2664388079399732  0.5247561308092689  0.6188083988245807
  0.8781045831897707  0.8080956090921300  0.4976314977607000
  0.1218989040930013  0.1919081798839304  0.4976145417943725
  0.8080939335917872  0.1219001054920322  0.4976150943575381
  0.1919044934223919  0.8781014936160867  0.4976191813856331
  0.5494183492139298  0.6906558310628605  0.6187578042116565
  0.4505796746511508  0.3093340601162984  0.6187624529735428
  0.6906707019603140  0.4505846063606973  0.6187692404674876
  0.3093336601850923  0.5494180292875908  0.6187567345713356
  0.8612501949008069  0.8262493667693638  0.5532421732686823
  0.1387524867996796  0.1737493468043159  0.5532223515374391
  0.8262537919034361  0.1387517809590061  0.5532230145345768
  0.1737480465249809  0.8612476168383818  0.5532265336246234
  0.5802994038385151  0.6907552964730916  0.5643743769581457
  0.4196981165654555  0.3092410699018567  0.5643761473464565
  0.6907688037547300  0.4197039064597997  0.5643848084585308
  0.3092327171182693  0.5802965455547948  0.5643654303530470
  0.8433421033537518  0.7861813282864281  0.5896594574711227
  0.1566596328674336  0.2138147218836711  0.5896457156860639
  0.7861880301100109  0.1566587984143523  0.5896466293029455
  0.2138159646875955  0.8433405827504586  0.5896479346624566
  0.5402433941892131  0.7604684930092848  0.5644602812883239
  0.4597533849975570  0.2395257309066778  0.5644554196914422
  0.7604747664749133  0.4597633914347017  0.5644660473206732
  0.2395246748598094  0.5402408027101917  0.5644547491351773
  0.8708594594957797  0.7565010724741842  0.4988087501582052
  0.1291445481397585  0.2435016683998285  0.4988000033733501
  0.7565021667041062  0.1291486253977153  0.4987973428758351
  0.2434974511583531  0.8708554896658169  0.4987999165114753
  0.5748064170631884  0.7341205148916542  0.5324539906439524
  0.4251914512701120  0.2658756711990198  0.5324500710749804
  0.7341317339024234  0.4251972210739743  0.5324613968295201
  0.2658668712713679  0.5748077703356670  0.5324471988614691
  0.8503632588208982  0.7437947201396656  0.5559558812405188
  0.1496360027746793  0.2562035945596918  0.5559493002369609
  0.7438007283352095  0.1496381316829218  0.5559464207019608
  0.2562015088141820  0.8503627305913181  0.5559472295123377
  0.4999941327909351  0.7771516316857893  0.5324663563220207
  0.5000044721218555  0.2228451809804084  0.5324617600186302
  0.7771568168855562  0.5000121713666976  0.5324694562255916
  0.2228360412286274  0.4999925791842822  0.5324572970665613
  0.8489928149570911  0.7424393939266836  0.4430556723258519
  0.1510126028302843  0.2575708164114117  0.4430514945346366
  0.7424331265533950  0.1510161748522131  0.4430478763995237
  0.2575644444724031  0.8489871564462071  0.4430493727583577
  0.4752342072081144  0.7335525370967290  0.6188067854446927
  0.5247605079061580  0.2664389391880706  0.6188096997467323
  0.7335594674674796  0.5247708832295941  0.6188135466540435
  0.2664402672652621  0.4752327087647901  0.6188078802012237
  0.8598962116985291  0.8249259993328339  0.4420410128739394
  0.1401098383829519  0.1750817101195543  0.4420219891006439
  0.8249211504493548  0.1401125888963478  0.4420227338100347
  0.1750757640484592  0.8598913490826224  0.4420273999281361
  0.4597461719323628  0.7604641853651366  0.5644609173097576
  0.5402524547432965  0.2395277077093535  0.5644598495202305
  0.7604666469005354  0.5402575293053947  0.5644635178395531
  0.2395285766682264  0.4597467394493586  0.5644485861424876
  0.8411233022983480  0.7840202154730613  0.4080206345661586
  0.1588855131098905  0.2159940817702455  0.4080083950367581
  0.7840105400543164  0.1588886992374839  0.4080091413043658
  0.2159857743856413  0.8411156049891729  0.4080097080156052
  0.4505776687054844  0.6906527434458076  0.6187573958735724
  0.5494202819127632  0.3093364696728090  0.6187662951692576
  0.6906621672351281  0.5494255549698452  0.6187663769259633
  0.3093380525596538  0.4505713911539708  0.6187538610301474
  0.8249317680724679  0.8598962813958387  0.4420526975420250
  0.1750747222176335  0.1401127410935593  0.4420312163671796
  0.8598900544140252  0.1750763287406062  0.4420326869857478
  0.1401061886123603  0.8249254901560150  0.4420379940703827
  0.5247602391392082  0.6476381705804635  0.6188497244411516
  0.4752393812894223  0.3523511218110195  0.6188608632338907
  0.6476535889742202  0.4752417798630303  0.6188641809505026
  0.3523523636673008  0.5247591715695830  0.6188447792090371
  0.8262843877542344  0.8612188938117956  0.5532597785948589
  0.1737211150056068  0.1387796755320548  0.5532379690064462
  0.8612243063861458  0.1737182706498715  0.5532398771384287
  0.1387792015411710  0.8262809441088012  0.5532437509348660
  0.4752382844242866  0.6476351033323980  0.6188491934495011
  0.5247596451203964  0.3523528573942789  0.6188611802470957
  0.6476475423544774  0.5247624430494842  0.6188609362193737
  0.3523566874488146  0.4752360609932903  0.6188425764926130
  0.8081191632262267  0.8780904067135716  0.4976635164985375
  0.1918851261332448  0.1219133529753642  0.4976408395735256
  0.8780909034387873  0.1918834745993771  0.4976435099708432
  0.1219100433449351  0.8081151237943497  0.4976475348812947
  0.5745118856682372  0.6477855031264153  0.5324443508120623
  0.4254894378626062  0.3522110722637631  0.5324505978928565
  0.6478000320768080  0.4254876801045481  0.5324535954078904
  0.3522037973929799  0.5745128508753999  0.5324327484529171
  0.7977833346221144  0.7977397587706725  0.6125213506249675
  0.2022163108331092  0.2022555438606622  0.6125098856956326
  0.7977494983721279  0.2022160080579596  0.6125135873540989
  0.2022553123083879  0.7977829285081206  0.6125125652355690
  0.5402621592949765  0.6206727742687546  0.5646007686725421
  0.4597365481570241  0.3793216642271929  0.5646139214134495
  0.6206890108461890  0.4597377991405593  0.5646112271746292
  0.3793120576649935  0.5402596717725692  0.5645876551743857
  0.7862211912758261  0.8433083561854050  0.5896819975052399
  0.2137821823587036  0.1566888736965841  0.5896646255681888
  0.8433155098066628  0.2137812915151741  0.5896698625681698
  0.1566891485646182  0.7862181927843153  0.5896719896847866
  0.5745062737122788  0.6477821828810714  0.4670338917791688
  0.4254923541300362  0.3522181573949561  0.4670382184376408
  0.6477957618314212  0.4254859710884772  0.4670421645852257
  0.3521998738263749  0.5745073757090109  0.4670223081429769
  0.7621716410534545  0.7621383902512532  0.6139948302347145
  0.2378268355618443  0.2378553366132553  0.6139952530207141
  0.7621493053554960  0.2378255488064508  0.6139971659110738
  0.2378571598053733  0.7621729772637801  0.6139940618642731
  0.5747805025646419  0.7341067096954731  0.4669682417641736
  0.4252178691290253  0.2658925784996057  0.4669653998767577
  0.7341201680613489  0.4252174196465275  0.4669756423063544
  0.2658792539966562  0.5747795745764738  0.4669613684945295
  0.8147768424461975  0.7081637684722939  0.5574289968642927
  0.1852219140359679  0.2918360203428916  0.5574337027590984
  0.7081700065059877  0.1852243582395939  0.5574307483134593
  0.2918330956856300  0.8147772323153883  0.5574276317420392
  0.5803065497150998  0.6907400981140730  0.4350689328897638
  0.4196945030187393  0.3092604551138501  0.4350712005453453
  0.6907532590309177  0.4196842153571488  0.4350793672037614
  0.3092438265515042  0.5803152677349640  0.4350591351223477
  0.7732035519913824  0.7160449001431649  0.5925291478412558
  0.2267946931398114  0.2839505705702060  0.5925365064107161
  0.7160545884685312  0.2267954569264938  0.5925348204232493
  0.2839513316631160  0.7732043076630455  0.5925314019665502
  0.4999930745931281  0.7771529025452136  0.4669369363679145
  0.5000056816328652  0.2228434940051266  0.4669336002860113
  0.7771631616086959  0.5000121373309052  0.4669394100308607
  0.2228358632694884  0.4999930017428115  0.4669282441104760
  0.8134062265191744  0.7068076956219229  0.4444333280538730
  0.1865985332196925  0.2932031302810906  0.4444385681153313
  0.7068011091448553  0.1866039984761957  0.4444359077593280
  0.2931965093069048  0.8134006546783289  0.4444327751915618
  0.5402297234952310  0.7604376131520877  0.4349482595333752
  0.4597702256003944  0.2395629247646485  0.4349450886133528
  0.7604516833410879  0.4597689578549349  0.4349553993426447
  0.2395444566362556  0.5402345560057655  0.4349420679058166
  0.8007422039487209  0.6863852814198862  0.5016352060629702
  0.1992582469648267  0.3136177744099590  0.5016420899806585
  0.6863866529999040  0.1992629105728204  0.5016415977492747
  0.3136136398475791  0.8007410928900435  0.5016372422631793
  0.4597589118743189  0.7604348264165880  0.4349468135939077
  0.5402428957396130  0.2395628689519420  0.4349471789035280
  0.7604450342630252  0.5402465222152406  0.4349514799046895
  0.2395475024505583  0.4597601361291540  0.4349365072300013
  0.7709928383051361  0.7138541155821209  0.4107367189624880
  0.2290127786600359  0.2861572732212162  0.4107404118872076
  0.7138476292492385  0.2290201508977865  0.4107395835197224
  0.2861516553258239  0.7709864517752499  0.4107369148167519
  0.4251860118034347  0.7341131630601483  0.5324499883889995
  0.5748122039477119  0.2658785298604981  0.5324539567801261
  0.7341192333622389  0.5748180872293067  0.5324528261725934
  0.2658760464720114  0.4251832886901232  0.5324400230250553
  0.7950198121561652  0.7950373538288960  0.3865755111582596
  0.2049877518130934  0.2049754614564482  0.3865650140331718
  0.7950292110508561  0.2049901486224803  0.3865679912357640
  0.2049691027029994  0.7950127997115325  0.3865682350286618
  0.4196955654292957  0.6907457850715907  0.5643714973020638
  0.5803037364269479  0.3092443452280689  0.5643823512139006
  0.6907533283701871  0.5803046983647147  0.5643749088622140
  0.3092441394958027  0.4196959474821367  0.5643591135288816
  0.7840106816483807  0.8411380941263283  0.4080434129175305
  0.2160000072882318  0.1588766320468538  0.4080278095196682
  0.8411271169207012  0.2160025699913675  0.4080313311949607
  0.1588686779225096  0.7840013344573064  0.4080328196753450
  0.4252086422962333  0.7341003639540050  0.4669662233309297
  0.5747928756833748  0.2658936814981450  0.4669703820697027
  0.7341075340339975  0.5747969583343291  0.4669680623355288
  0.2658868310911760  0.4252131311238302  0.4669542814708031
  0.7594183840287145  0.7594416655282398  0.3879174058549318
  0.2405872045063865  0.2405726128175520  0.3879163470420597
  0.7594336674270847  0.2405921178777557  0.3879186909014914
  0.2405660369808038  0.7594110441865261  0.3879154004932585
  0.4597383910102178  0.6206700813757643  0.5646007170642408
  0.5402618171004978  0.3793214487431309  0.5646158325747276
  0.6206830426776050  0.5402585378277099  0.5646054905980042
  0.3793160158770578  0.4597407972390047  0.5645847589796190
  0.7565269733596992  0.8708528487654116  0.4988591027856047
  0.2434807032089047  0.1291516171377046  0.4988400442781339
  0.8708525021858123  0.2434797190637393  0.4988441177726840
  0.1291493229112352  0.7565197070104955  0.4988467206413142
  0.5000012946984249  0.6038491833115760  0.5325690730041892
  0.4999994030882831  0.3961434900792770  0.5325815362550107
  0.6038619598684406  0.4999948438369677  0.5325750058635489
  0.3961404738426996  0.5000011846390225  0.5325539147129276
  0.7438260034289645  0.8503427920434083  0.5560041376586038
  0.2561762392112857  0.1496565555642984  0.5559877188883133
  0.8503477138906161  0.2561768955052064  0.5559913566428781
  0.1496567775031237  0.7438228623983053  0.5559946818052650
  0.4254846785824135  0.6477802260899926  0.5324436345931555
  0.5745155609767687  0.3522131239060498  0.5324585834873734
  0.6477873039688755  0.5745135369029295  0.5324470492040283
  0.3522106423918850  0.4254844899426961  0.5324285283841835
  0.7424433613101813  0.8489997005952259  0.4431021784793461
  0.2575629205730497  0.1510069939917092  0.4430903542859502
  0.8489963154663718  0.2575656195838966  0.4430940451062040
  0.1510033146077155  0.7424369606907149  0.4430943015582942
  0.5402504804401743  0.6206695844767406  0.4349032196553651
  0.4597510003688955  0.3793283552710426  0.4349136732459690
  0.6206781086339659  0.4597396156303465  0.4349110803031361
  0.3793164662699536  0.5402579635161838  0.4348886244810224
  0.7160772463014055  0.7731768955100988  0.5925543557055949
  0.2839225366010101  0.2268196242125086  0.5925555169356554
  0.7731849589189778  0.2839230878849893  0.5925588774956599
  0.2268213312583799  0.7160758476352144  0.5925545326534416
  0.4999985489939792  0.6038404419642616  0.4669421305598455
  0.5000023613783140  0.3961582162771985  0.4669543638361445
  0.6038495324534084  0.4999949250556220  0.4669483809706167
  0.3961439194470101  0.5000013410410055  0.4669241310224078
  0.7081885648260855  0.8147625666463993  0.5574752523434174
  0.2918136212360470  0.1852375312520827  0.5574698224881486
  0.8147668588357121  0.2918156987788622  0.5574733431922038
  0.1852371425029265  0.7081850276023255  0.5574707148873258
  0.5494284854475060  0.6906127604325095  0.3806643425611616
  0.4505727236261207  0.3093901000808146  0.3806699135291848
  0.6906241275174396  0.4505668100459395  0.3806785211718113
  0.3093707805227393  0.5494321395834572  0.3806611163567389
  0.7323410377513864  0.6973738958915033  0.5585207931581581
  0.2676608406878832  0.3026260459952423  0.5585291044655502
  0.6973794673064849  0.2676630750400337  0.5585297086127738
  0.3026256036103221  0.7323377179067946  0.5585246782555103
  0.5247519767470823  0.7335093089947460  0.3805732001427258
  0.4752494125201400  0.2664915451275965  0.3805719616742652
  0.7335203666251614  0.4752442057630251  0.3805817721704177
  0.2664723274091796  0.5247569907127370  0.3805716616690310
  0.7492315897236503  0.6794861928714085  0.5028327617007615
  0.2507723355287404  0.3205168973346231  0.5028459491559469
  0.6794879905633895  0.2507760590211803  0.5028452093542322
  0.3205149090313856  0.7492272054037893  0.5028383421245413
  0.4752349020361134  0.7335066925042226  0.3805712742916648
  0.5247669950363339  0.2664944829334410  0.3805731167934890
  0.7335166889801513  0.5247620699548269  0.3805777011883885
  0.2664757268130005  0.4752398347023720  0.3805685285168007
  0.7309901357497454  0.6960431799724941  0.4471630421642993
  0.2690146385206865  0.3039666337931357  0.4471757479348938
  0.6960405027198916  0.2690209818661417  0.4471767751247882
  0.3039602277781714  0.7309853322265933  0.4471694044817646
  0.5247606207070366  0.6476080752080361  0.3806243533709711
  0.4752420908320605  0.3523939689318389  0.3806336765481975
  0.6476187895704164  0.4752300310464336  0.3806370933142460
  0.3523732331146904  0.5247656501589013  0.3806170514904855
  0.6973916055610204  0.7323258528986004  0.5585362212601600
  0.3026097807538473  0.2676760822837986  0.5585405904875302
  0.7323308375125713  0.3026105135633390  0.5585424480350635
  0.2676748087413468  0.6973895940476423  0.5585393272552230
  0.4196847774484636  0.6907307066303553  0.4350688110555914
  0.5803176525337571  0.3092672517772579  0.4350788490937660
  0.6907363998610989  0.5803196513361083  0.4350685065019189
  0.3092547151601318  0.4196830627281433  0.4350519682507596
  0.7138401997562386  0.7710126467336902  0.4107641643575000
  0.2861675084529486  0.2290003961016311  0.4107640672269663
  0.7710055849366667  0.2861734633367934  0.4107678166950868
  0.2289932601230073  0.7138315799431176  0.4107641949381088
  0.4254886753100198  0.6477732929748913  0.4670336219094576
  0.5745135068038152  0.3522224343102694  0.4670452454423514
  0.6477813210701752  0.5745105997449172  0.4670348064041238
  0.3522086474987705  0.4254932061293321  0.4670181681975515
  0.7068077180596901  0.8134183069816666  0.4444765586942520
  0.2931983908588598  0.1865893701000673  0.4444697901066344
  0.8134163318360996  0.2932006901928913  0.4444756496610412
  0.1865861854460575  0.7068012011250839  0.4444727371374592
  0.4597452621962633  0.6206661487961634  0.4349032027790903
  0.5402575440649342  0.3793320373974681  0.4349167256437716
  0.6206723165869020  0.5402517100679168  0.4349060886503278
  0.3793193540535831  0.4597460047363750  0.4348851535022270
  0.6863987707328817  0.8007466649840238  0.5016823454947030
  0.3136047647221374  0.1992569112192711  0.5016828430189180
  0.8007486110014765  0.3136064709994221  0.5016846303671499
  0.1992558537774876  0.6863944765344956  0.5016815765344218
  0.4505632604725523  0.6906078333351209  0.3806643425744674
  0.5494400119956414  0.3093932274386059  0.3806729967828900
  0.6906154801461328  0.5494338628999674  0.3806730921437053
  0.3093763134370404  0.4505681971479537  0.3806588874235080
  0.6960338440004290  0.7310020821307942  0.4471753550856395
  0.3039704993429300  0.2690072083790034  0.4471843536859127
  0.7309980433557326  0.3039752106356977  0.4471895408433905
  0.2690024397452501  0.6960294615646314  0.4471814074742703
  0.4752342285456488  0.6476050887418302  0.3806249020788242
  0.5247700605873771  0.3523958935324322  0.3806356395617801
  0.6476136989236918  0.5247606035364486  0.3806349810326755
  0.3523743148657436  0.4752378193987433  0.3806165679391015
  0.6794913436338361  0.7492328784811156  0.5028631232227719
  0.3205112838966438  0.2507733417488916  0.5028678229381252
  0.7492318997589961  0.3205130783798800  0.5028722160191857
  0.2507713902906505  0.6794878823784952  0.5028665328347155
 
  0.00000000E+00  0.00000000E+00  0.00000000E+00
  0.00000000E+00  0.00000000E+00  0.00000000E+00
  0.00000000E+00  0.00000000E+00  0.00000000E+00
  0.00000000E+00  0.00000000E+00  0.00000000E+00
  0.00000000E+00  0.00000000E+00  0.00000000E+00
  0.00000000E+00  0.00000000E+00  0.00000000E+00
  0.00000000E+00  0.00000000E+00  0.00000000E+00
  0.00000000E+00  0.00000000E+00  0.00000000E+00
  0.00000000E+00  0.00000000E+00  0.00000000E+00
  0.00000000E+00  0.00000000E+00  0.00000000E+00
  0.00000000E+00  0.00000000E+00  0.00000000E+00
  0.00000000E+00  0.00000000E+00  0.00000000E+00
  0.00000000E+00  0.00000000E+00  0.00000000E+00
  0.00000000E+00  0.00000000E+00  0.00000000E+00
  0.00000000E+00  0.00000000E+00  0.00000000E+00
  0.00000000E+00  0.00000000E+00  0.00000000E+00
  0.00000000E+00  0.00000000E+00  0.00000000E+00
  0.00000000E+00  0.00000000E+00  0.00000000E+00
  0.00000000E+00  0.00000000E+00  0.00000000E+00
  0.00000000E+00  0.00000000E+00  0.00000000E+00
  0.00000000E+00  0.00000000E+00  0.00000000E+00
  0.00000000E+00  0.00000000E+00  0.00000000E+00
  0.00000000E+00  0.00000000E+00  0.00000000E+00
  0.00000000E+00  0.00000000E+00  0.00000000E+00
  0.00000000E+00  0.00000000E+00  0.00000000E+00
  0.00000000E+00  0.00000000E+00  0.00000000E+00
  0.00000000E+00  0.00000000E+00  0.00000000E+00
  0.00000000E+00  0.00000000E+00  0.00000000E+00
  0.00000000E+00  0.00000000E+00  0.00000000E+00
  0.00000000E+00  0.00000000E+00  0.00000000E+00
  0.00000000E+00  0.00000000E+00  0.00000000E+00
  0.00000000E+00  0.00000000E+00  0.00000000E+00
  0.00000000E+00  0.00000000E+00  0.00000000E+00
  0.00000000E+00  0.00000000E+00  0.00000000E+00
  0.00000000E+00  0.00000000E+00  0.00000000E+00
  0.00000000E+00  0.00000000E+00  0.00000000E+00
  0.00000000E+00  0.00000000E+00  0.00000000E+00
  0.00000000E+00  0.00000000E+00  0.00000000E+00
  0.00000000E+00  0.00000000E+00  0.00000000E+00
  0.00000000E+00  0.00000000E+00  0.00000000E+00
  0.00000000E+00  0.00000000E+00  0.00000000E+00
  0.00000000E+00  0.00000000E+00  0.00000000E+00
  0.00000000E+00  0.00000000E+00  0.00000000E+00
  0.00000000E+00  0.00000000E+00  0.00000000E+00
  0.00000000E+00  0.00000000E+00  0.00000000E+00
  0.00000000E+00  0.00000000E+00  0.00000000E+00
  0.00000000E+00  0.00000000E+00  0.00000000E+00
  0.00000000E+00  0.00000000E+00  0.00000000E+00
  0.00000000E+00  0.00000000E+00  0.00000000E+00
  0.00000000E+00  0.00000000E+00  0.00000000E+00
  0.00000000E+00  0.00000000E+00  0.00000000E+00
  0.00000000E+00  0.00000000E+00  0.00000000E+00
  0.00000000E+00  0.00000000E+00  0.00000000E+00
  0.00000000E+00  0.00000000E+00  0.00000000E+00
  0.00000000E+00  0.00000000E+00  0.00000000E+00
  0.00000000E+00  0.00000000E+00  0.00000000E+00
  0.00000000E+00  0.00000000E+00  0.00000000E+00
  0.00000000E+00  0.00000000E+00  0.00000000E+00
  0.00000000E+00  0.00000000E+00  0.00000000E+00
  0.00000000E+00  0.00000000E+00  0.00000000E+00
  0.00000000E+00  0.00000000E+00  0.00000000E+00
  0.00000000E+00  0.00000000E+00  0.00000000E+00
  0.00000000E+00  0.00000000E+00  0.00000000E+00
  0.00000000E+00  0.00000000E+00  0.00000000E+00
  0.00000000E+00  0.00000000E+00  0.00000000E+00
  0.00000000E+00  0.00000000E+00  0.00000000E+00
  0.00000000E+00  0.00000000E+00  0.00000000E+00
  0.00000000E+00  0.00000000E+00  0.00000000E+00
  0.00000000E+00  0.00000000E+00  0.00000000E+00
  0.00000000E+00  0.00000000E+00  0.00000000E+00
  0.00000000E+00  0.00000000E+00  0.00000000E+00
  0.00000000E+00  0.00000000E+00  0.00000000E+00
  0.00000000E+00  0.00000000E+00  0.00000000E+00
  0.00000000E+00  0.00000000E+00  0.00000000E+00
  0.00000000E+00  0.00000000E+00  0.00000000E+00
  0.00000000E+00  0.00000000E+00  0.00000000E+00
  0.00000000E+00  0.00000000E+00  0.00000000E+00
  0.00000000E+00  0.00000000E+00  0.00000000E+00
  0.00000000E+00  0.00000000E+00  0.00000000E+00
  0.00000000E+00  0.00000000E+00  0.00000000E+00
  0.00000000E+00  0.00000000E+00  0.00000000E+00
  0.00000000E+00  0.00000000E+00  0.00000000E+00
  0.00000000E+00  0.00000000E+00  0.00000000E+00
  0.00000000E+00  0.00000000E+00  0.00000000E+00
  0.00000000E+00  0.00000000E+00  0.00000000E+00
  0.00000000E+00  0.00000000E+00  0.00000000E+00
  0.00000000E+00  0.00000000E+00  0.00000000E+00
  0.00000000E+00  0.00000000E+00  0.00000000E+00
  0.00000000E+00  0.00000000E+00  0.00000000E+00
  0.00000000E+00  0.00000000E+00  0.00000000E+00
  0.00000000E+00  0.00000000E+00  0.00000000E+00
  0.00000000E+00  0.00000000E+00  0.00000000E+00
  0.00000000E+00  0.00000000E+00  0.00000000E+00
  0.00000000E+00  0.00000000E+00  0.00000000E+00
  0.00000000E+00  0.00000000E+00  0.00000000E+00
  0.00000000E+00  0.00000000E+00  0.00000000E+00
  0.00000000E+00  0.00000000E+00  0.00000000E+00
  0.00000000E+00  0.00000000E+00  0.00000000E+00
  0.00000000E+00  0.00000000E+00  0.00000000E+00
  0.00000000E+00  0.00000000E+00  0.00000000E+00
  0.00000000E+00  0.00000000E+00  0.00000000E+00
  0.00000000E+00  0.00000000E+00  0.00000000E+00
  0.00000000E+00  0.00000000E+00  0.00000000E+00
  0.00000000E+00  0.00000000E+00  0.00000000E+00
  0.00000000E+00  0.00000000E+00  0.00000000E+00
  0.00000000E+00  0.00000000E+00  0.00000000E+00
  0.00000000E+00  0.00000000E+00  0.00000000E+00
  0.00000000E+00  0.00000000E+00  0.00000000E+00
  0.00000000E+00  0.00000000E+00  0.00000000E+00
  0.00000000E+00  0.00000000E+00  0.00000000E+00
  0.00000000E+00  0.00000000E+00  0.00000000E+00
  0.00000000E+00  0.00000000E+00  0.00000000E+00
  0.00000000E+00  0.00000000E+00  0.00000000E+00
  0.00000000E+00  0.00000000E+00  0.00000000E+00
  0.00000000E+00  0.00000000E+00  0.00000000E+00
  0.00000000E+00  0.00000000E+00  0.00000000E+00
  0.00000000E+00  0.00000000E+00  0.00000000E+00
  0.00000000E+00  0.00000000E+00  0.00000000E+00
  0.00000000E+00  0.00000000E+00  0.00000000E+00
  0.00000000E+00  0.00000000E+00  0.00000000E+00
  0.00000000E+00  0.00000000E+00  0.00000000E+00
  0.00000000E+00  0.00000000E+00  0.00000000E+00
  0.00000000E+00  0.00000000E+00  0.00000000E+00
  0.00000000E+00  0.00000000E+00  0.00000000E+00
  0.00000000E+00  0.00000000E+00  0.00000000E+00
  0.00000000E+00  0.00000000E+00  0.00000000E+00
  0.00000000E+00  0.00000000E+00  0.00000000E+00
  0.00000000E+00  0.00000000E+00  0.00000000E+00
  0.00000000E+00  0.00000000E+00  0.00000000E+00
  0.00000000E+00  0.00000000E+00  0.00000000E+00
  0.00000000E+00  0.00000000E+00  0.00000000E+00
  0.00000000E+00  0.00000000E+00  0.00000000E+00
  0.00000000E+00  0.00000000E+00  0.00000000E+00
  0.00000000E+00  0.00000000E+00  0.00000000E+00
  0.00000000E+00  0.00000000E+00  0.00000000E+00
  0.00000000E+00  0.00000000E+00  0.00000000E+00
  0.00000000E+00  0.00000000E+00  0.00000000E+00
  0.00000000E+00  0.00000000E+00  0.00000000E+00
  0.00000000E+00  0.00000000E+00  0.00000000E+00
  0.00000000E+00  0.00000000E+00  0.00000000E+00
  0.00000000E+00  0.00000000E+00  0.00000000E+00
  0.00000000E+00  0.00000000E+00  0.00000000E+00
  0.00000000E+00  0.00000000E+00  0.00000000E+00
  0.00000000E+00  0.00000000E+00  0.00000000E+00
  0.00000000E+00  0.00000000E+00  0.00000000E+00
  0.00000000E+00  0.00000000E+00  0.00000000E+00
  0.00000000E+00  0.00000000E+00  0.00000000E+00
  0.00000000E+00  0.00000000E+00  0.00000000E+00
  0.00000000E+00  0.00000000E+00  0.00000000E+00
  0.00000000E+00  0.00000000E+00  0.00000000E+00
  0.00000000E+00  0.00000000E+00  0.00000000E+00
  0.00000000E+00  0.00000000E+00  0.00000000E+00
  0.00000000E+00  0.00000000E+00  0.00000000E+00
  0.00000000E+00  0.00000000E+00  0.00000000E+00
  0.00000000E+00  0.00000000E+00  0.00000000E+00
  0.00000000E+00  0.00000000E+00  0.00000000E+00
  0.00000000E+00  0.00000000E+00  0.00000000E+00
  0.00000000E+00  0.00000000E+00  0.00000000E+00
  0.00000000E+00  0.00000000E+00  0.00000000E+00
  0.00000000E+00  0.00000000E+00  0.00000000E+00
  0.00000000E+00  0.00000000E+00  0.00000000E+00
  0.00000000E+00  0.00000000E+00  0.00000000E+00
  0.00000000E+00  0.00000000E+00  0.00000000E+00
  0.00000000E+00  0.00000000E+00  0.00000000E+00
  0.00000000E+00  0.00000000E+00  0.00000000E+00
  0.00000000E+00  0.00000000E+00  0.00000000E+00
  0.00000000E+00  0.00000000E+00  0.00000000E+00
  0.00000000E+00  0.00000000E+00  0.00000000E+00
  0.00000000E+00  0.00000000E+00  0.00000000E+00
  0.00000000E+00  0.00000000E+00  0.00000000E+00
  0.00000000E+00  0.00000000E+00  0.00000000E+00
  0.00000000E+00  0.00000000E+00  0.00000000E+00
  0.00000000E+00  0.00000000E+00  0.00000000E+00
  0.00000000E+00  0.00000000E+00  0.00000000E+00
  0.00000000E+00  0.00000000E+00  0.00000000E+00
  0.00000000E+00  0.00000000E+00  0.00000000E+00
  0.00000000E+00  0.00000000E+00  0.00000000E+00
  0.00000000E+00  0.00000000E+00  0.00000000E+00
  0.00000000E+00  0.00000000E+00  0.00000000E+00
  0.00000000E+00  0.00000000E+00  0.00000000E+00
  0.00000000E+00  0.00000000E+00  0.00000000E+00
  0.00000000E+00  0.00000000E+00  0.00000000E+00
  0.00000000E+00  0.00000000E+00  0.00000000E+00
  0.00000000E+00  0.00000000E+00  0.00000000E+00
  0.00000000E+00  0.00000000E+00  0.00000000E+00
  0.00000000E+00  0.00000000E+00  0.00000000E+00
  0.00000000E+00  0.00000000E+00  0.00000000E+00
  0.00000000E+00  0.00000000E+00  0.00000000E+00
  0.00000000E+00  0.00000000E+00  0.00000000E+00
  0.00000000E+00  0.00000000E+00  0.00000000E+00
  0.00000000E+00  0.00000000E+00  0.00000000E+00
  0.00000000E+00  0.00000000E+00  0.00000000E+00
  0.00000000E+00  0.00000000E+00  0.00000000E+00
  0.00000000E+00  0.00000000E+00  0.00000000E+00
  0.00000000E+00  0.00000000E+00  0.00000000E+00
  0.00000000E+00  0.00000000E+00  0.00000000E+00
  0.00000000E+00  0.00000000E+00  0.00000000E+00
  0.00000000E+00  0.00000000E+00  0.00000000E+00
  0.00000000E+00  0.00000000E+00  0.00000000E+00
  0.00000000E+00  0.00000000E+00  0.00000000E+00
  0.00000000E+00  0.00000000E+00  0.00000000E+00
  0.00000000E+00  0.00000000E+00  0.00000000E+00
  0.00000000E+00  0.00000000E+00  0.00000000E+00
  0.00000000E+00  0.00000000E+00  0.00000000E+00
  0.00000000E+00  0.00000000E+00  0.00000000E+00
  0.00000000E+00  0.00000000E+00  0.00000000E+00
  0.00000000E+00  0.00000000E+00  0.00000000E+00
  0.00000000E+00  0.00000000E+00  0.00000000E+00
  0.00000000E+00  0.00000000E+00  0.00000000E+00
  0.00000000E+00  0.00000000E+00  0.00000000E+00
  0.00000000E+00  0.00000000E+00  0.00000000E+00
  0.00000000E+00  0.00000000E+00  0.00000000E+00
  0.00000000E+00  0.00000000E+00  0.00000000E+00
  0.00000000E+00  0.00000000E+00  0.00000000E+00
  0.00000000E+00  0.00000000E+00  0.00000000E+00
  0.00000000E+00  0.00000000E+00  0.00000000E+00
  0.00000000E+00  0.00000000E+00  0.00000000E+00
  0.00000000E+00  0.00000000E+00  0.00000000E+00
  0.00000000E+00  0.00000000E+00  0.00000000E+00
  0.00000000E+00  0.00000000E+00  0.00000000E+00
  0.00000000E+00  0.00000000E+00  0.00000000E+00
  0.00000000E+00  0.00000000E+00  0.00000000E+00
  0.00000000E+00  0.00000000E+00  0.00000000E+00
  0.00000000E+00  0.00000000E+00  0.00000000E+00
  0.00000000E+00  0.00000000E+00  0.00000000E+00
  0.00000000E+00  0.00000000E+00  0.00000000E+00
  0.00000000E+00  0.00000000E+00  0.00000000E+00
  0.00000000E+00  0.00000000E+00  0.00000000E+00
  0.00000000E+00  0.00000000E+00  0.00000000E+00
  0.00000000E+00  0.00000000E+00  0.00000000E+00
  0.00000000E+00  0.00000000E+00  0.00000000E+00
  0.00000000E+00  0.00000000E+00  0.00000000E+00
  0.00000000E+00  0.00000000E+00  0.00000000E+00
  0.00000000E+00  0.00000000E+00  0.00000000E+00
  0.00000000E+00  0.00000000E+00  0.00000000E+00
  0.00000000E+00  0.00000000E+00  0.00000000E+00
  0.00000000E+00  0.00000000E+00  0.00000000E+00
  0.00000000E+00  0.00000000E+00  0.00000000E+00
  0.00000000E+00  0.00000000E+00  0.00000000E+00
  0.00000000E+00  0.00000000E+00  0.00000000E+00
  0.00000000E+00  0.00000000E+00  0.00000000E+00
  0.00000000E+00  0.00000000E+00  0.00000000E+00
  0.00000000E+00  0.00000000E+00  0.00000000E+00
  0.00000000E+00  0.00000000E+00  0.00000000E+00
  0.00000000E+00  0.00000000E+00  0.00000000E+00
  0.00000000E+00  0.00000000E+00  0.00000000E+00
  0.00000000E+00  0.00000000E+00  0.00000000E+00
  0.00000000E+00  0.00000000E+00  0.00000000E+00
  0.00000000E+00  0.00000000E+00  0.00000000E+00
  0.00000000E+00  0.00000000E+00  0.00000000E+00
  0.00000000E+00  0.00000000E+00  0.00000000E+00
  0.00000000E+00  0.00000000E+00  0.00000000E+00
  0.00000000E+00  0.00000000E+00  0.00000000E+00
  0.00000000E+00  0.00000000E+00  0.00000000E+00
  0.00000000E+00  0.00000000E+00  0.00000000E+00
  0.00000000E+00  0.00000000E+00  0.00000000E+00
  0.00000000E+00  0.00000000E+00  0.00000000E+00
  0.00000000E+00  0.00000000E+00  0.00000000E+00
  0.00000000E+00  0.00000000E+00  0.00000000E+00
  0.00000000E+00  0.00000000E+00  0.00000000E+00
  0.00000000E+00  0.00000000E+00  0.00000000E+00
  0.00000000E+00  0.00000000E+00  0.00000000E+00
  0.00000000E+00  0.00000000E+00  0.00000000E+00
  0.00000000E+00  0.00000000E+00  0.00000000E+00
  0.00000000E+00  0.00000000E+00  0.00000000E+00
  0.00000000E+00  0.00000000E+00  0.00000000E+00
  0.00000000E+00  0.00000000E+00  0.00000000E+00
  0.00000000E+00  0.00000000E+00  0.00000000E+00
  0.00000000E+00  0.00000000E+00  0.00000000E+00
  0.00000000E+00  0.00000000E+00  0.00000000E+00
  0.00000000E+00  0.00000000E+00  0.00000000E+00
  0.00000000E+00  0.00000000E+00  0.00000000E+00
  0.00000000E+00  0.00000000E+00  0.00000000E+00
  0.00000000E+00  0.00000000E+00  0.00000000E+00
  0.00000000E+00  0.00000000E+00  0.00000000E+00
  0.00000000E+00  0.00000000E+00  0.00000000E+00
  0.00000000E+00  0.00000000E+00  0.00000000E+00
  0.00000000E+00  0.00000000E+00  0.00000000E+00
  0.00000000E+00  0.00000000E+00  0.00000000E+00
  0.00000000E+00  0.00000000E+00  0.00000000E+00
  0.00000000E+00  0.00000000E+00  0.00000000E+00
  0.00000000E+00  0.00000000E+00  0.00000000E+00
  0.00000000E+00  0.00000000E+00  0.00000000E+00
  0.00000000E+00  0.00000000E+00  0.00000000E+00
  0.00000000E+00  0.00000000E+00  0.00000000E+00
  0.00000000E+00  0.00000000E+00  0.00000000E+00
  0.00000000E+00  0.00000000E+00  0.00000000E+00
  0.00000000E+00  0.00000000E+00  0.00000000E+00
  0.00000000E+00  0.00000000E+00  0.00000000E+00
  0.00000000E+00  0.00000000E+00  0.00000000E+00
  0.00000000E+00  0.00000000E+00  0.00000000E+00
  0.00000000E+00  0.00000000E+00  0.00000000E+00
  0.00000000E+00  0.00000000E+00  0.00000000E+00
  0.00000000E+00  0.00000000E+00  0.00000000E+00
  0.00000000E+00  0.00000000E+00  0.00000000E+00
  0.00000000E+00  0.00000000E+00  0.00000000E+00
  0.00000000E+00  0.00000000E+00  0.00000000E+00
  0.00000000E+00  0.00000000E+00  0.00000000E+00
  0.00000000E+00  0.00000000E+00  0.00000000E+00
  0.00000000E+00  0.00000000E+00  0.00000000E+00
  0.00000000E+00  0.00000000E+00  0.00000000E+00
  0.00000000E+00  0.00000000E+00  0.00000000E+00
  0.00000000E+00  0.00000000E+00  0.00000000E+00
  0.00000000E+00  0.00000000E+00  0.00000000E+00
  0.00000000E+00  0.00000000E+00  0.00000000E+00
  0.00000000E+00  0.00000000E+00  0.00000000E+00
  0.00000000E+00  0.00000000E+00  0.00000000E+00
  0.00000000E+00  0.00000000E+00  0.00000000E+00
  0.00000000E+00  0.00000000E+00  0.00000000E+00
  0.00000000E+00  0.00000000E+00  0.00000000E+00
  0.00000000E+00  0.00000000E+00  0.00000000E+00
  0.00000000E+00  0.00000000E+00  0.00000000E+00
  0.00000000E+00  0.00000000E+00  0.00000000E+00
  0.00000000E+00  0.00000000E+00  0.00000000E+00
  0.00000000E+00  0.00000000E+00  0.00000000E+00
  0.00000000E+00  0.00000000E+00  0.00000000E+00
  0.00000000E+00  0.00000000E+00  0.00000000E+00
  0.00000000E+00  0.00000000E+00  0.00000000E+00
  0.00000000E+00  0.00000000E+00  0.00000000E+00
  0.00000000E+00  0.00000000E+00  0.00000000E+00
  0.00000000E+00  0.00000000E+00  0.00000000E+00
  0.00000000E+00  0.00000000E+00  0.00000000E+00
  0.00000000E+00  0.00000000E+00  0.00000000E+00
  0.00000000E+00  0.00000000E+00  0.00000000E+00
  0.00000000E+00  0.00000000E+00  0.00000000E+00
  0.00000000E+00  0.00000000E+00  0.00000000E+00
  0.00000000E+00  0.00000000E+00  0.00000000E+00
  0.00000000E+00  0.00000000E+00  0.00000000E+00
  0.00000000E+00  0.00000000E+00  0.00000000E+00
  0.00000000E+00  0.00000000E+00  0.00000000E+00
  0.00000000E+00  0.00000000E+00  0.00000000E+00
  0.00000000E+00  0.00000000E+00  0.00000000E+00
  0.00000000E+00  0.00000000E+00  0.00000000E+00
  0.00000000E+00  0.00000000E+00  0.00000000E+00
  0.00000000E+00  0.00000000E+00  0.00000000E+00
  0.00000000E+00  0.00000000E+00  0.00000000E+00
  0.00000000E+00  0.00000000E+00  0.00000000E+00
  0.00000000E+00  0.00000000E+00  0.00000000E+00
  0.00000000E+00  0.00000000E+00  0.00000000E+00
  0.00000000E+00  0.00000000E+00  0.00000000E+00
  0.00000000E+00  0.00000000E+00  0.00000000E+00
  0.00000000E+00  0.00000000E+00  0.00000000E+00
  0.00000000E+00  0.00000000E+00  0.00000000E+00
  0.00000000E+00  0.00000000E+00  0.00000000E+00
  0.00000000E+00  0.00000000E+00  0.00000000E+00
  0.00000000E+00  0.00000000E+00  0.00000000E+00
  0.00000000E+00  0.00000000E+00  0.00000000E+00
  0.00000000E+00  0.00000000E+00  0.00000000E+00
  0.00000000E+00  0.00000000E+00  0.00000000E+00
  0.00000000E+00  0.00000000E+00  0.00000000E+00
  0.00000000E+00  0.00000000E+00  0.00000000E+00
  0.00000000E+00  0.00000000E+00  0.00000000E+00
  0.00000000E+00  0.00000000E+00  0.00000000E+00
  0.00000000E+00  0.00000000E+00  0.00000000E+00
  0.00000000E+00  0.00000000E+00  0.00000000E+00
  0.00000000E+00  0.00000000E+00  0.00000000E+00
  0.00000000E+00  0.00000000E+00  0.00000000E+00
  0.00000000E+00  0.00000000E+00  0.00000000E+00
  0.00000000E+00  0.00000000E+00  0.00000000E+00
  0.00000000E+00  0.00000000E+00  0.00000000E+00
  0.00000000E+00  0.00000000E+00  0.00000000E+00
  0.00000000E+00  0.00000000E+00  0.00000000E+00
  0.00000000E+00  0.00000000E+00  0.00000000E+00
  0.00000000E+00  0.00000000E+00  0.00000000E+00
  0.00000000E+00  0.00000000E+00  0.00000000E+00
  0.00000000E+00  0.00000000E+00  0.00000000E+00
  0.00000000E+00  0.00000000E+00  0.00000000E+00
  0.00000000E+00  0.00000000E+00  0.00000000E+00
  0.00000000E+00  0.00000000E+00  0.00000000E+00
  0.00000000E+00  0.00000000E+00  0.00000000E+00
  0.00000000E+00  0.00000000E+00  0.00000000E+00
  0.00000000E+00  0.00000000E+00  0.00000000E+00
  0.00000000E+00  0.00000000E+00  0.00000000E+00
  0.00000000E+00  0.00000000E+00  0.00000000E+00
  0.00000000E+00  0.00000000E+00  0.00000000E+00
  0.00000000E+00  0.00000000E+00  0.00000000E+00
  0.00000000E+00  0.00000000E+00  0.00000000E+00
  0.00000000E+00  0.00000000E+00  0.00000000E+00
  0.00000000E+00  0.00000000E+00  0.00000000E+00
  0.00000000E+00  0.00000000E+00  0.00000000E+00
  0.00000000E+00  0.00000000E+00  0.00000000E+00
  0.00000000E+00  0.00000000E+00  0.00000000E+00
  0.00000000E+00  0.00000000E+00  0.00000000E+00
  0.00000000E+00  0.00000000E+00  0.00000000E+00
  0.00000000E+00  0.00000000E+00  0.00000000E+00
  0.00000000E+00  0.00000000E+00  0.00000000E+00
  0.00000000E+00  0.00000000E+00  0.00000000E+00
  0.00000000E+00  0.00000000E+00  0.00000000E+00
  0.00000000E+00  0.00000000E+00  0.00000000E+00
  0.00000000E+00  0.00000000E+00  0.00000000E+00
  0.00000000E+00  0.00000000E+00  0.00000000E+00
  0.00000000E+00  0.00000000E+00  0.00000000E+00
  0.00000000E+00  0.00000000E+00  0.00000000E+00
  0.00000000E+00  0.00000000E+00  0.00000000E+00
  0.00000000E+00  0.00000000E+00  0.00000000E+00
  0.00000000E+00  0.00000000E+00  0.00000000E+00
  0.00000000E+00  0.00000000E+00  0.00000000E+00
  0.00000000E+00  0.00000000E+00  0.00000000E+00
  0.00000000E+00  0.00000000E+00  0.00000000E+00
  0.00000000E+00  0.00000000E+00  0.00000000E+00
  0.00000000E+00  0.00000000E+00  0.00000000E+00
  0.00000000E+00  0.00000000E+00  0.00000000E+00
  0.00000000E+00  0.00000000E+00  0.00000000E+00
  0.00000000E+00  0.00000000E+00  0.00000000E+00
  0.00000000E+00  0.00000000E+00  0.00000000E+00
  0.00000000E+00  0.00000000E+00  0.00000000E+00
  0.00000000E+00  0.00000000E+00  0.00000000E+00
  0.00000000E+00  0.00000000E+00  0.00000000E+00
