Generated by VASPKIT code               
   1.00000000000000     
    17.8812313717004194    0.0407213442822933    0.0000000000000000
    -8.9056060835321773   15.5029248963331217    0.0000000000000000
     0.0000000000000014    0.0000000000000025   21.9881276219179398
   C 
   204
Direct
  0.1286525245544741  0.6318450263727797  0.5481719064363368
  0.1806929518384826  0.6820940148210074  0.5990782814942218
  0.2029329866406189  0.6278145432942857  0.6353269615251310
  0.1193482860085290  0.5472786943154320  0.5528375060810464
  0.1638033352237588  0.5436652468706467  0.6067652121497249
  0.1195357168001377  0.5041237976759442  0.5002704174688375
  0.1261725623764673  0.5410895052183277  0.4408456939224376
  0.1365731746880839  0.6689380761750218  0.4906619674382990
  0.1349353128730971  0.6226719561705089  0.4359173197237368
  0.1988346991915867  0.7586914715655523  0.4814340922650215
  0.2411369262424524  0.7687094026855870  0.5901981649164851
  0.2503350306191077  0.8065828552550411  0.5303026461371848
  0.3262313178565470  0.8043138368744802  0.6171031406899269
  0.2848069625456100  0.6621751542218709  0.6613655799781402
  0.3479131499088451  0.7525243408009894  0.6522000823423917
  0.3298236480715299  0.6133067506519511  0.6601070893994934
  0.2065024850706113  0.4961007716915010  0.6057842299054006
  0.2912718278630566  0.5316620862176390  0.6329365004058845
  0.1617465960278913  0.4535381371773860  0.4990625090314874
  0.2051837510402306  0.4500701816304241  0.5509267461262917
  0.1751890135429509  0.5153334596625068  0.4024681887547891
  0.1971431755474118  0.4609410271498328  0.4385504120480736
  0.2340056774507802  0.5739500414980583  0.3607972128935844
  0.1958462708897705  0.6835159712535903  0.3927086799786320
  0.2356210504588784  0.7677420779723432  0.4210327919996206
  0.2447368004240631  0.6597763721420463  0.3558795272251981
  0.3231338858867511  0.8245265472863932  0.4117110813131634
  0.3407671395158194  0.8643633513848333  0.5202807327865364
  0.3876669593122682  0.8639669379422743  0.5737490487971422
  0.3761456663552650  0.8733405947314125  0.4625343562700020
  0.4687974962517129  0.8719207724845988  0.5673970418958239
  0.4319193728831640  0.7597160989598127  0.6453129427381503
  0.4206780943385411  0.6736888329650099  0.6501911574366505
  0.4914773763635559  0.8187446274243693  0.6037243616754613
  0.4692630429767501  0.6501296616552174  0.6132876053916471
  0.3419107865550357  0.5073190515087204  0.5946949137395794
  0.2885935522458365  0.4568899457719405  0.5440358942072118
  0.4288756234944102  0.5658239888003501  0.5849730864495032
  0.2774610267143208  0.4670690458775842  0.4318913850424165
  0.3237785801960585  0.4656207114113448  0.4857262677844557
  0.3180351289189446  0.5807996875198985  0.3539317281351397
  0.3391519942315461  0.5283704129097895  0.3888872215393787
  0.3355943104766552  0.7196766011842147  0.3460202904423873
  0.3741351887088772  0.8009893329434776  0.3733726670619817
  0.3809135925075309  0.6709777455973642  0.3447708567849066
  0.4602513547007566  0.8817052267449617  0.4555972357377999
  0.5051647142570417  0.8803667615195743  0.5070547822782111
  0.4592411271874152  0.8367734666183418  0.4005028377438325
  0.5421239942531970  0.7944305925174161  0.5655290703104821
  0.5302507524356477  0.7115007489116819  0.5701131652596207
  0.5510331887218988  0.8328771133827919  0.5058232299194664
  0.4642790049604285  0.5756107947093021  0.5243765956741943
  0.4138642424955947  0.5263488969356646  0.4758452638248390
  0.4237676296129802  0.5647479603752690  0.4161615382258210
  0.5263368578503401  0.6653320393407717  0.5152681540695574
  0.4628968369644566  0.7057381260452482  0.3709391507766942
  0.5030908853361860  0.7904576563946337  0.3991632034183028
  0.5493172458401580  0.7884756304516465  0.4528907212195048
  0.4842288141477405  0.6514805899483826  0.4072946156125299
  0.5370416422066693  0.7025552483017338  0.4579645456544014
  0.0933838864845126  0.0293256447410811  0.6211712274631739
  0.6667501032954208  0.0599356209660881  0.5576442781344946
  0.9391498706194469  0.6044849477473624  0.5578223463735339
  0.3923081437788716  0.3328606421578859  0.5586972869352677
  0.0594608094769327  0.0866283643575227  0.6183471219052838
  0.6463282727539410  0.1236533819040190  0.5554492819303187
  0.8748737128712284  0.5210582052078564  0.5558220262573262
  0.4764711524776428  0.3538464789569675  0.5566047977920555
  0.0938787184781348  0.1390297452861898  0.5634194566022864
  0.7055118509920706  0.1986312488518067  0.5916340191686855
  0.8002410501467494  0.5062698392089614  0.5920455897430423
  0.4926354301957570  0.2939529874509397  0.5920368210297865
  0.1578288241207287  0.0493319925104028  0.5667405945468684
  0.7458814433090584  0.0959803546868302  0.5957257602447147
  0.9037026468407565  0.6483954565844313  0.5958777973390051
  0.3497400959006721  0.2531152307832191  0.5960904228739786
  0.1392097620155048  0.1088629616884934  0.5302269673492408
  0.7685658218804771  0.1841879779294260  0.6181030870503107
  0.8154608844565790  0.5840819617308480  0.6183641760748991
  0.4154500664887012  0.2301967686871102  0.6180454116860623
  0.1190341176574224  0.9666219904205199  0.5308132380206368
  0.8070480546730386  0.0965841082944748  0.5579890091911645
  0.9033067144021901  0.7088849745692937  0.5579036569639974
  0.2901044496732021  0.1925525104435065  0.5577421694172543
  0.0305233725188503  0.9410976638331308  0.6180665317312466
  0.6831146339477535  0.0337299678524394  0.4979277202514491
  0.9651264913666366  0.6464909892657011  0.4979641122053306
  0.3500235445228351  0.3173969853375578  0.4989241484322890
  0.0479592664253059  0.9060772060369273  0.5630617948347214
  0.7698798328172856  0.0598085956904939  0.4985322622893720
  0.9397567706137904  0.7079686333525470  0.4984778132709916
  0.2901084508379233  0.2305004191927766  0.4987722825738022
  0.9397244072276025  0.9076683780942086  0.6214414721305452
  0.6680523097203446  0.0603676075476296  0.4378956483724089
  0.9379148419785123  0.6047718870109299  0.4380577435525141
  0.3920551846732190  0.3332544357239589  0.4390909020252000
  0.9711828026780217  0.0616596600592112  0.6217303450187370
  0.6252856785889169  0.1527229548410777  0.4973280377633492
  0.8457146651184756  0.4708872159964507  0.4979156958445418
  0.5269487693092184  0.3764496887428690  0.4986286505961158
  0.9142589943884233  0.9708604146009631  0.6186275194594707
  0.6473640276307570  0.1239814477601536  0.4394915632266236
  0.8739758279023009  0.5211727496335934  0.4399439390141506
  0.4763363440659093  0.3546369587066502  0.4406621606347724
  0.0331219795794725  0.1500309962689876  0.5315445970906455
  0.7287958766071959  0.2744114716683888  0.5553151594614102
  0.7241071240862612  0.4542410638887742  0.5560633743657111
  0.5456882092298259  0.2715014470738511  0.5555865843457679
  0.9505789615028170  0.1064712021279788  0.5676613002158931
  0.6908220323598032  0.2472914739583970  0.4975577992592835
  0.7509191295523194  0.4422937535446252  0.4983074911748522
  0.5565852114159380  0.3107567963042452  0.4981388423469190
  0.0330088923864247  0.1500413011338686  0.4675953092160962
  0.8135161490243007  0.3415534116582887  0.5565917610459731
  0.6570976928069817  0.4726448583686533  0.5574677840641227
  0.5290453588314177  0.1868099895322283  0.5561167534792945
  0.1390081644374520  0.1089197105820321  0.4679355017090599
  0.8567787564906363  0.2537783726256114  0.6175112424771320
  0.7462932750000221  0.6037124187207926  0.6178859238324361
  0.3978720639751159  0.1421962421600963  0.6166886736902465
  0.0934607230598637  0.1391967195653759  0.4351870033516368
  0.8751122540894111  0.3366252290944508  0.5917257858726276
  0.6631785377413481  0.5399401292301046  0.5923310758207599
  0.4627153598318939  0.1244787657168802  0.5907210994229233
  0.1187951051456754  0.9666690815936083  0.4668626668124022
  0.9016518630196828  0.1587772783776338  0.5624749618155228
  0.8416228412732958  0.7422481611584355  0.5623974244415123
  0.2585507906901198  0.0979843900760624  0.5613839203823037
  0.1572116083884244  0.0494540352680532  0.4309511590251165
  0.9251764536468010  0.2409920613339707  0.5972440459745005
  0.7595399409962653  0.6849779882379881  0.5975527421223665
  0.3171176197103163  0.0738747282498232  0.5958638119556412
  0.0473375428581986  0.9061487429166850  0.4349076246650043
  0.9300826890457036  0.1960103674457641  0.4996132512056831
  0.8041823237496581  0.7340552092526748  0.4995933855237483
  0.2672205506355793  0.0700912779884215  0.4981917173991085
  0.9723857498541828  0.8604668100939452  0.5303465201986264
  0.8081161214631883  0.0972979449023851  0.4396096410478766
  0.9021226635536848  0.7090743870087708  0.4395667357501624
  0.2895732958787230  0.1930383147289535  0.4394260307628770
  0.8949399850752481  0.8429529311566795  0.5672917706571167
  0.7480373796213297  0.0966423215342396  0.4007560726305493
  0.9019510279538111  0.6490133980237850  0.4009185012272236
  0.3491870770118686  0.2539450145072896  0.4012759917415757
  0.9720665493249604  0.8604443598916052  0.4679619649701628
  0.9024827346641283  0.1594905892174158  0.4364647682334346
  0.8405073828160219  0.7425410714897691  0.4363498095357655
  0.2580486491676890  0.0984968265547636  0.4353402664903090
  0.8615659925497229  0.9534941347038245  0.5638571608297561
  0.7075690847214057  0.1992818103316021  0.4039463743727990
  0.7986358108947642  0.5068794887126497  0.4046102459673919
  0.4920727337712056  0.2948829972331313  0.4045627091558431
  0.8911281772612576  0.0289300385129370  0.5309611060501738
  0.7299950186423154  0.2749369952050673  0.4399690341992389
  0.7231613890233466  0.4546742641448376  0.4409838502977567
  0.5452946336610766  0.2720083209300142  0.4404335427643621
  0.8512107340299919  0.8823787378202785  0.5315767682564242
  0.7714653344109041  0.1850675816817280  0.3784688370706009
  0.8132500256122077  0.5848616467765876  0.3789362710451625
  0.4147102082166174  0.2313790336189187  0.3785837432376658
  0.9503593608003748  0.1064977800086399  0.4317963558330252
  0.8532349611773338  0.3912163751557284  0.4982013910217948
  0.6067858458725032  0.4631412753977965  0.4992397940616225
  0.5391490395173638  0.1474555378879432  0.4974228287209555
  0.8908933735990221  0.0290283414479369  0.4686234285359460
  0.8146966044346340  0.3420355078031298  0.4395090832671014
  0.6563599057077737  0.4733817623204655  0.4406618335711754
  0.5285962302872049  0.1872860457152746  0.4392220372048506
  0.0584415024453567  0.0867968088890711  0.3802735322921542
  0.9552843196477420  0.3746813028987441  0.5569280695997275
  0.6254709872915321  0.5825739962882229  0.5576593117337449
  0.4213972757532106  0.0446637739928400  0.5551696535810080
  0.0921969212040316  0.0294298416843275  0.3769664139393071
  0.9818056022291186  0.3125105549415241  0.5589719088559111
  0.6879270120040386  0.6707097079687533  0.5594197258911942
  0.3328291296226109  0.0185489276787842  0.5570038649577113
  0.0293345282527072  0.9412064707138998  0.3801741438220075
  0.9881604663970374  0.2810918864189724  0.4996658614752651
  0.7191589733148896  0.7079000632789495  0.5000350168394916
  0.2949957074868992  0.0122344247026668  0.4977533088604756
  0.9701668961998607  0.0617890681268716  0.3774312474279302
  0.9407609215465818  0.3995097270501752  0.4988579580861384
  0.5988772777368504  0.5429290395679579  0.4998145053836988
  0.4607812023382294  0.0599042330414588  0.4973717258715399
  0.8942037927771542  0.8430931872005671  0.4315273319950089
  0.9275535085708028  0.2417583240560401  0.4014980046596134
  0.7577297103153693  0.6857205991793738  0.4017562059284183
  0.3163707722322405  0.0748010635852671  0.4000913736099784
  0.8509578547797000  0.8825180850175904  0.4677113452808151
  0.8595432372737658  0.2547105118579087  0.3798761388858803
  0.7440757471671938  0.6045128408381227  0.3806021794420220
  0.3969408225287431  0.1432843018535978  0.3792973904709463
  0.8610414458103527  0.9536531111270666  0.4356286320043852
  0.8773173472605846  0.3373471041502135  0.4053847017826054
  0.6613926049907713  0.5407231894874766  0.4064574057450534
  0.4619757616107353  0.1252536987998464  0.4045867677721832
  0.9384980981509430  0.9077719992713380  0.3772878705514696
  0.9832041007061314  0.3126884228646267  0.4400648354643739
  0.6869838581428969  0.6712312903143884  0.4406906055196721
  0.3323158043459626  0.0188608186793505  0.4382498125338538
  0.9131756317342400  0.9710252630934741  0.3805680127374515
  0.9567749448613946  0.3752615442750100  0.4413134384986006
  0.6239008829299632  0.5830408708857138  0.4422005924498345
  0.4208927466165823  0.0451167722137158  0.4396475753828805
 
  0.00000000E+00  0.00000000E+00  0.00000000E+00
  0.00000000E+00  0.00000000E+00  0.00000000E+00
  0.00000000E+00  0.00000000E+00  0.00000000E+00
  0.00000000E+00  0.00000000E+00  0.00000000E+00
  0.00000000E+00  0.00000000E+00  0.00000000E+00
  0.00000000E+00  0.00000000E+00  0.00000000E+00
  0.00000000E+00  0.00000000E+00  0.00000000E+00
  0.00000000E+00  0.00000000E+00  0.00000000E+00
  0.00000000E+00  0.00000000E+00  0.00000000E+00
  0.00000000E+00  0.00000000E+00  0.00000000E+00
  0.00000000E+00  0.00000000E+00  0.00000000E+00
  0.00000000E+00  0.00000000E+00  0.00000000E+00
  0.00000000E+00  0.00000000E+00  0.00000000E+00
  0.00000000E+00  0.00000000E+00  0.00000000E+00
  0.00000000E+00  0.00000000E+00  0.00000000E+00
  0.00000000E+00  0.00000000E+00  0.00000000E+00
  0.00000000E+00  0.00000000E+00  0.00000000E+00
  0.00000000E+00  0.00000000E+00  0.00000000E+00
  0.00000000E+00  0.00000000E+00  0.00000000E+00
  0.00000000E+00  0.00000000E+00  0.00000000E+00
  0.00000000E+00  0.00000000E+00  0.00000000E+00
  0.00000000E+00  0.00000000E+00  0.00000000E+00
  0.00000000E+00  0.00000000E+00  0.00000000E+00
  0.00000000E+00  0.00000000E+00  0.00000000E+00
  0.00000000E+00  0.00000000E+00  0.00000000E+00
  0.00000000E+00  0.00000000E+00  0.00000000E+00
  0.00000000E+00  0.00000000E+00  0.00000000E+00
  0.00000000E+00  0.00000000E+00  0.00000000E+00
  0.00000000E+00  0.00000000E+00  0.00000000E+00
  0.00000000E+00  0.00000000E+00  0.00000000E+00
  0.00000000E+00  0.00000000E+00  0.00000000E+00
  0.00000000E+00  0.00000000E+00  0.00000000E+00
  0.00000000E+00  0.00000000E+00  0.00000000E+00
  0.00000000E+00  0.00000000E+00  0.00000000E+00
  0.00000000E+00  0.00000000E+00  0.00000000E+00
  0.00000000E+00  0.00000000E+00  0.00000000E+00
  0.00000000E+00  0.00000000E+00  0.00000000E+00
  0.00000000E+00  0.00000000E+00  0.00000000E+00
  0.00000000E+00  0.00000000E+00  0.00000000E+00
  0.00000000E+00  0.00000000E+00  0.00000000E+00
  0.00000000E+00  0.00000000E+00  0.00000000E+00
  0.00000000E+00  0.00000000E+00  0.00000000E+00
  0.00000000E+00  0.00000000E+00  0.00000000E+00
  0.00000000E+00  0.00000000E+00  0.00000000E+00
  0.00000000E+00  0.00000000E+00  0.00000000E+00
  0.00000000E+00  0.00000000E+00  0.00000000E+00
  0.00000000E+00  0.00000000E+00  0.00000000E+00
  0.00000000E+00  0.00000000E+00  0.00000000E+00
  0.00000000E+00  0.00000000E+00  0.00000000E+00
  0.00000000E+00  0.00000000E+00  0.00000000E+00
  0.00000000E+00  0.00000000E+00  0.00000000E+00
  0.00000000E+00  0.00000000E+00  0.00000000E+00
  0.00000000E+00  0.00000000E+00  0.00000000E+00
  0.00000000E+00  0.00000000E+00  0.00000000E+00
  0.00000000E+00  0.00000000E+00  0.00000000E+00
  0.00000000E+00  0.00000000E+00  0.00000000E+00
  0.00000000E+00  0.00000000E+00  0.00000000E+00
  0.00000000E+00  0.00000000E+00  0.00000000E+00
  0.00000000E+00  0.00000000E+00  0.00000000E+00
  0.00000000E+00  0.00000000E+00  0.00000000E+00
  0.00000000E+00  0.00000000E+00  0.00000000E+00
  0.00000000E+00  0.00000000E+00  0.00000000E+00
  0.00000000E+00  0.00000000E+00  0.00000000E+00
  0.00000000E+00  0.00000000E+00  0.00000000E+00
  0.00000000E+00  0.00000000E+00  0.00000000E+00
  0.00000000E+00  0.00000000E+00  0.00000000E+00
  0.00000000E+00  0.00000000E+00  0.00000000E+00
  0.00000000E+00  0.00000000E+00  0.00000000E+00
  0.00000000E+00  0.00000000E+00  0.00000000E+00
  0.00000000E+00  0.00000000E+00  0.00000000E+00
  0.00000000E+00  0.00000000E+00  0.00000000E+00
  0.00000000E+00  0.00000000E+00  0.00000000E+00
  0.00000000E+00  0.00000000E+00  0.00000000E+00
  0.00000000E+00  0.00000000E+00  0.00000000E+00
  0.00000000E+00  0.00000000E+00  0.00000000E+00
  0.00000000E+00  0.00000000E+00  0.00000000E+00
  0.00000000E+00  0.00000000E+00  0.00000000E+00
  0.00000000E+00  0.00000000E+00  0.00000000E+00
  0.00000000E+00  0.00000000E+00  0.00000000E+00
  0.00000000E+00  0.00000000E+00  0.00000000E+00
  0.00000000E+00  0.00000000E+00  0.00000000E+00
  0.00000000E+00  0.00000000E+00  0.00000000E+00
  0.00000000E+00  0.00000000E+00  0.00000000E+00
  0.00000000E+00  0.00000000E+00  0.00000000E+00
  0.00000000E+00  0.00000000E+00  0.00000000E+00
  0.00000000E+00  0.00000000E+00  0.00000000E+00
  0.00000000E+00  0.00000000E+00  0.00000000E+00
  0.00000000E+00  0.00000000E+00  0.00000000E+00
  0.00000000E+00  0.00000000E+00  0.00000000E+00
  0.00000000E+00  0.00000000E+00  0.00000000E+00
  0.00000000E+00  0.00000000E+00  0.00000000E+00
  0.00000000E+00  0.00000000E+00  0.00000000E+00
  0.00000000E+00  0.00000000E+00  0.00000000E+00
  0.00000000E+00  0.00000000E+00  0.00000000E+00
  0.00000000E+00  0.00000000E+00  0.00000000E+00
  0.00000000E+00  0.00000000E+00  0.00000000E+00
  0.00000000E+00  0.00000000E+00  0.00000000E+00
  0.00000000E+00  0.00000000E+00  0.00000000E+00
  0.00000000E+00  0.00000000E+00  0.00000000E+00
  0.00000000E+00  0.00000000E+00  0.00000000E+00
  0.00000000E+00  0.00000000E+00  0.00000000E+00
  0.00000000E+00  0.00000000E+00  0.00000000E+00
  0.00000000E+00  0.00000000E+00  0.00000000E+00
  0.00000000E+00  0.00000000E+00  0.00000000E+00
  0.00000000E+00  0.00000000E+00  0.00000000E+00
  0.00000000E+00  0.00000000E+00  0.00000000E+00
  0.00000000E+00  0.00000000E+00  0.00000000E+00
  0.00000000E+00  0.00000000E+00  0.00000000E+00
  0.00000000E+00  0.00000000E+00  0.00000000E+00
  0.00000000E+00  0.00000000E+00  0.00000000E+00
  0.00000000E+00  0.00000000E+00  0.00000000E+00
  0.00000000E+00  0.00000000E+00  0.00000000E+00
  0.00000000E+00  0.00000000E+00  0.00000000E+00
  0.00000000E+00  0.00000000E+00  0.00000000E+00
  0.00000000E+00  0.00000000E+00  0.00000000E+00
  0.00000000E+00  0.00000000E+00  0.00000000E+00
  0.00000000E+00  0.00000000E+00  0.00000000E+00
  0.00000000E+00  0.00000000E+00  0.00000000E+00
  0.00000000E+00  0.00000000E+00  0.00000000E+00
  0.00000000E+00  0.00000000E+00  0.00000000E+00
  0.00000000E+00  0.00000000E+00  0.00000000E+00
  0.00000000E+00  0.00000000E+00  0.00000000E+00
  0.00000000E+00  0.00000000E+00  0.00000000E+00
  0.00000000E+00  0.00000000E+00  0.00000000E+00
  0.00000000E+00  0.00000000E+00  0.00000000E+00
  0.00000000E+00  0.00000000E+00  0.00000000E+00
  0.00000000E+00  0.00000000E+00  0.00000000E+00
  0.00000000E+00  0.00000000E+00  0.00000000E+00
  0.00000000E+00  0.00000000E+00  0.00000000E+00
  0.00000000E+00  0.00000000E+00  0.00000000E+00
  0.00000000E+00  0.00000000E+00  0.00000000E+00
  0.00000000E+00  0.00000000E+00  0.00000000E+00
  0.00000000E+00  0.00000000E+00  0.00000000E+00
  0.00000000E+00  0.00000000E+00  0.00000000E+00
  0.00000000E+00  0.00000000E+00  0.00000000E+00
  0.00000000E+00  0.00000000E+00  0.00000000E+00
  0.00000000E+00  0.00000000E+00  0.00000000E+00
  0.00000000E+00  0.00000000E+00  0.00000000E+00
  0.00000000E+00  0.00000000E+00  0.00000000E+00
  0.00000000E+00  0.00000000E+00  0.00000000E+00
  0.00000000E+00  0.00000000E+00  0.00000000E+00
  0.00000000E+00  0.00000000E+00  0.00000000E+00
  0.00000000E+00  0.00000000E+00  0.00000000E+00
  0.00000000E+00  0.00000000E+00  0.00000000E+00
  0.00000000E+00  0.00000000E+00  0.00000000E+00
  0.00000000E+00  0.00000000E+00  0.00000000E+00
  0.00000000E+00  0.00000000E+00  0.00000000E+00
  0.00000000E+00  0.00000000E+00  0.00000000E+00
  0.00000000E+00  0.00000000E+00  0.00000000E+00
  0.00000000E+00  0.00000000E+00  0.00000000E+00
  0.00000000E+00  0.00000000E+00  0.00000000E+00
  0.00000000E+00  0.00000000E+00  0.00000000E+00
  0.00000000E+00  0.00000000E+00  0.00000000E+00
  0.00000000E+00  0.00000000E+00  0.00000000E+00
  0.00000000E+00  0.00000000E+00  0.00000000E+00
  0.00000000E+00  0.00000000E+00  0.00000000E+00
  0.00000000E+00  0.00000000E+00  0.00000000E+00
  0.00000000E+00  0.00000000E+00  0.00000000E+00
  0.00000000E+00  0.00000000E+00  0.00000000E+00
  0.00000000E+00  0.00000000E+00  0.00000000E+00
  0.00000000E+00  0.00000000E+00  0.00000000E+00
  0.00000000E+00  0.00000000E+00  0.00000000E+00
  0.00000000E+00  0.00000000E+00  0.00000000E+00
  0.00000000E+00  0.00000000E+00  0.00000000E+00
  0.00000000E+00  0.00000000E+00  0.00000000E+00
  0.00000000E+00  0.00000000E+00  0.00000000E+00
  0.00000000E+00  0.00000000E+00  0.00000000E+00
  0.00000000E+00  0.00000000E+00  0.00000000E+00
  0.00000000E+00  0.00000000E+00  0.00000000E+00
  0.00000000E+00  0.00000000E+00  0.00000000E+00
  0.00000000E+00  0.00000000E+00  0.00000000E+00
  0.00000000E+00  0.00000000E+00  0.00000000E+00
  0.00000000E+00  0.00000000E+00  0.00000000E+00
  0.00000000E+00  0.00000000E+00  0.00000000E+00
  0.00000000E+00  0.00000000E+00  0.00000000E+00
  0.00000000E+00  0.00000000E+00  0.00000000E+00
  0.00000000E+00  0.00000000E+00  0.00000000E+00
  0.00000000E+00  0.00000000E+00  0.00000000E+00
  0.00000000E+00  0.00000000E+00  0.00000000E+00
  0.00000000E+00  0.00000000E+00  0.00000000E+00
  0.00000000E+00  0.00000000E+00  0.00000000E+00
  0.00000000E+00  0.00000000E+00  0.00000000E+00
  0.00000000E+00  0.00000000E+00  0.00000000E+00
  0.00000000E+00  0.00000000E+00  0.00000000E+00
  0.00000000E+00  0.00000000E+00  0.00000000E+00
  0.00000000E+00  0.00000000E+00  0.00000000E+00
  0.00000000E+00  0.00000000E+00  0.00000000E+00
  0.00000000E+00  0.00000000E+00  0.00000000E+00
  0.00000000E+00  0.00000000E+00  0.00000000E+00
  0.00000000E+00  0.00000000E+00  0.00000000E+00
  0.00000000E+00  0.00000000E+00  0.00000000E+00
  0.00000000E+00  0.00000000E+00  0.00000000E+00
  0.00000000E+00  0.00000000E+00  0.00000000E+00
  0.00000000E+00  0.00000000E+00  0.00000000E+00
  0.00000000E+00  0.00000000E+00  0.00000000E+00
  0.00000000E+00  0.00000000E+00  0.00000000E+00
  0.00000000E+00  0.00000000E+00  0.00000000E+00
  0.00000000E+00  0.00000000E+00  0.00000000E+00
  0.00000000E+00  0.00000000E+00  0.00000000E+00
  0.00000000E+00  0.00000000E+00  0.00000000E+00
  0.00000000E+00  0.00000000E+00  0.00000000E+00
  0.00000000E+00  0.00000000E+00  0.00000000E+00
  0.00000000E+00  0.00000000E+00  0.00000000E+00
  0.00000000E+00  0.00000000E+00  0.00000000E+00
