Generated by VASPKIT code               
   1.00000000000000     
    29.2079838704448669    0.0328540950424501    0.0000000000000000
   -14.5755298779478757   25.3665395864597230    0.0000000000000000
     0.0000000000000013    0.0000000000000024   21.9866332988236870
  C             
   264
Direct
  0.2973881769992789  0.5395995285362185  0.4429652936547904
  0.7026118094183598  0.4604003136216931  0.4429653297081287
  0.2725745522297690  0.5569619231422313  0.3984691529660906
  0.7274253974170617  0.4430379287951779  0.3984692306806122
  0.3135382472118819  0.5969834684701272  0.3599890636105600
  0.6864616681979677  0.4030164244181601  0.3599892004063991
  0.3535148120915180  0.5694835926122077  0.4319601624305106
  0.6464852428557879  0.4305161961762123  0.4319600368825536
  0.3638081345794961  0.6042674689984624  0.3805576257725132
  0.6361913697706537  0.3957318004955079  0.3805577185953078
  0.3877997834268609  0.5868005630302922  0.4811633359471265
  0.6122001775633967  0.4131992239954799  0.4811635489561967
  0.3690234582952635  0.5735422090033380  0.5427823065764169
  0.6309762483751290  0.4264572184588623  0.5427824815518065
  0.2786207233532915  0.5275682843885490  0.5029851489102293
  0.7213792717960594  0.4724315271321300  0.5029851576300273
  0.3150106407969175  0.5444750163419634  0.5539086909808166
  0.6849891609695916  0.4555246793533569  0.5539087198192247
  0.2342147336182140  0.5331917829226691  0.5213724023743900
  0.7657852797869508  0.4668081222506976  0.5213723878601513
  0.2298695299112439  0.5626035433195821  0.4162785347411024
  0.7701304428499954  0.4373962936759870  0.4162785828403536
  0.2114980305034220  0.5512388834897106  0.4787308087542374
  0.7885019473711776  0.4487609557769403  0.4787308458059700
  0.2262032094904639  0.6079701694539021  0.3961499661055101
  0.7737967363451063  0.3920296978387994  0.3961500032398075
  0.3099097527033839  0.6406479966167767  0.3405434353464014
  0.6900902206881108  0.3593518463692323  0.3405434221286965
  0.2650995161032821  0.6461853723230543  0.3588579212189968
  0.7349004372924376  0.3538144873831274  0.3588579862189887
  0.3563762856113341  0.6927048860842795  0.3406909165888399
  0.6436237913288163  0.3072950394113321  0.3406908812619103
  0.4088226817273578  0.6543722801782745  0.3805163806615142
  0.5911777543871485  0.3456276841264435  0.3805168318950254
  0.4050683338661185  0.6994271849681257  0.3600924120897103
  0.5949315842415784  0.3005722620997761  0.3600924695229241
  0.4347587044715205  0.6377480900049390  0.4810775124136965
  0.5652414214208173  0.3622519183362272  0.4810773842342754
  0.4452983920705108  0.6712141961223945  0.4315676883382731
  0.5547014528841241  0.3287854966451022  0.4315679618429570
  0.4036863530860900  0.6172870769643036  0.5814226111566957
  0.5963134651568411  0.3827124391693079  0.5814224902660245
  0.4444880328566745  0.6569763009959313  0.5430842775828965
  0.5555115645668485  0.3430231571565267  0.5430840476562967
  0.3826516575102341  0.6318817877630041  0.6297188918128286
  0.6173480958475424  0.3681178194877975  0.6297188499616917
  0.2930334742287864  0.5598194307997144  0.6038573288464480
  0.7069665011128548  0.4401803817213126  0.6038573663750481
  0.2428447889044231  0.5528965238740647  0.5836092366949579
  0.7571551535490939  0.4471032901939920  0.5836092199478187
  0.3261705509051711  0.6028265046882627  0.6408852444875787
  0.6738294635218744  0.3971734190943774  0.6408851205539682
  0.2280135406984479  0.5896857645456154  0.6009805089906268
  0.7719864184048089  0.4103140972186994  0.6009805049744849
  0.1980237837957712  0.5902044179437587  0.4970223882340119
  0.8019762726052756  0.4097954792822627  0.4970222837997926
  0.2056065548996825  0.6243531339259523  0.4463071450231481
  0.7943932333259974  0.3756466147114838  0.4463072660142147
  0.2045687476601151  0.6082403810878310  0.5565989507175617
  0.7954311690289136  0.3917594581409932  0.5565989322063376
  0.2222174436264117  0.6772679699211537  0.4570484168183835
  0.7777826113990796  0.3227319700191733  0.4570483327937465
  0.2836587540305693  0.7015660129233648  0.3702971819474091
  0.7163412393754510  0.2984338301123670  0.3702971104469208
  0.3400477148191755  0.7302259808990904  0.3588988931497126
  0.6599522910009867  0.2697739255566002  0.3588989588890972
  0.2623514324195372  0.7167421053699602  0.4182963144704181
  0.7376485765664810  0.2832578865333982  0.4182963655843411
  0.3728823615684630  0.7727053987011971  0.3962113095226184
  0.6271175976531561  0.2272944725312448  0.3962113214002145
  0.4393336087913466  0.7438231758180679  0.3986621882806246
  0.5606663974542511  0.2561765093822979  0.3986623346121010
  0.4644164114410526  0.7264379195994152  0.4428425088395578
  0.5355835740688291  0.2735618535907010  0.4428426593036753
  0.4229892405967361  0.7791461994519436  0.4166128951663157
  0.5770107610588522  0.2208537565266095  0.4166130327158955
  0.4633794937783992  0.7101976103633829  0.5541668751864099
  0.5366205733445584  0.2898021597999187  0.5541668202124136
  0.4728858496327546  0.7451761999519561  0.5029671859787835
  0.5271142171190317  0.2548236241730423  0.5029672408940693
  0.4016133997914383  0.6873645174830240  0.6410864860347643
  0.5983866411497153  0.3126353695208453  0.6410865040255631
  0.4411568367650347  0.7256531996777508  0.6040215917335420
  0.5588432114602846  0.2743466809869467  0.6040215344318834
  0.3101723742936691  0.6404696516588985  0.6591782868622224
  0.6898275695291511  0.3595302075952528  0.6591782902786998
  0.2616834238163228  0.6339361940249097  0.6397164724866505
  0.7383165838622010  0.3660637183295954  0.6397164857256270
  0.3567118388287462  0.6926573274802327  0.6592326686986378
  0.6432881636334565  0.3073424989811719  0.6592327255439465
  0.2219387475486730  0.6630806207700407  0.5681621755363554
  0.7780612641618244  0.3369192792906730  0.5681621320835406
  0.2307865452518010  0.6970353340233438  0.5191305253883726
  0.7692133954775614  0.3029646115199255  0.5191304627421807
  0.2576997989463879  0.6792088840114157  0.6195120785428072
  0.7423002080426232  0.3207910321559678  0.6195120934669334
  0.2963068828615071  0.7609285038309868  0.4569248107872760
  0.7036930419316452  0.2390712782295480  0.4569247589158799
  0.3503956669585369  0.7874570021444374  0.4461205674991761
  0.6496043887442985  0.2125429796773927  0.4461205930345281
  0.2767530464038852  0.7488709181548123  0.5191613502258005
  0.7232470070137523  0.2511288805377903  0.5191613079462479
  0.4307945523213998  0.7971485253694435  0.4789462932358357
  0.5692055410936853  0.2028514583859768  0.4789463617782667
  0.4558684600768472  0.7816846419501551  0.5212684643696882
  0.5441316126749525  0.2183152632446449  0.5212684967149007
  0.4368050617161697  0.7702896443820656  0.5835324780012913
  0.5631949336966080  0.2297102057546531  0.5835323640712651
  0.3860407894311076  0.8019973416652280  0.4970845367568447
  0.6139591417577278  0.1980026318122502  0.4970845279102503
  0.3527651629486272  0.7361215415003695  0.6397805417600467
  0.6472347761523520  0.2638783360548499  0.6397805327009203
  0.3023210491369524  0.7293622643009996  0.6196225458979475
  0.6976789223173075  0.2706375741168912  0.6196226297651589
  0.3118315435920961  0.7642512837868353  0.5683775760799036
  0.6881684493845381  0.2357485731199141  0.5683775930320926
  0.3934498030636036  0.7752866165033095  0.6010158395036129
  0.6065501714788849  0.2247132588485222  0.6010158124717064
  0.3677923757472136  0.7916219574943009  0.5567602895324537
  0.6322075837866802  0.2083779898239233  0.5567602922000916
  0.0259710111147874  0.0556682028105483  0.3813211655075117
  0.4903569424928852  0.0924458396737059  0.4678147750030476
  0.9064589790575127  0.3987903399492508  0.4679611711930383
  0.6019895050860803  0.5089495538537737  0.4680164473545641
  0.9702161666185625  0.0260845840746626  0.3813257171426249
  0.4903915865876047  0.0924823633006911  0.5321327837872790
  0.9063738062528365  0.3987073979556193  0.5322401525372853
  0.6020319586005033  0.5088006603356612  0.5322733574330403
  0.9514346748204857  0.0425389588968681  0.4355165973877739
  0.5395477408160657  0.0942563021885596  0.5523018295714945
  0.9053952399484173  0.4465390940382309  0.5524602006335076
  0.5548256106607107  0.4595357739749502  0.5526391012753542
  0.0423570754199128  0.0907772663783216  0.4355073866652215
  0.5395459581878559  0.0941133361840379  0.4475739190309949
  0.9054152818755863  0.4465476528384429  0.4477258391156037
  0.5545679335890528  0.4600707155699219  0.4478873173082371
  0.9961470149476291  0.0828880190067686  0.4672525714804384
  0.5694267896095393  0.0962434081598817  0.4998495861005837
  0.9041869407312911  0.4747070334250367  0.4999347779923773
  0.5267746342607994  0.4301836744252159  0.5002780285221474
  0.0828665201850833  0.0864356185593659  0.4672537476261046
  0.5280336399917052  0.0558146142185820  0.4013288396912627
  0.9440444249597469  0.4729271148436203  0.4014280877401785
  0.5278126469818215  0.4717667945525169  0.4016911313465189
  0.0557572459071457  0.0295852552315028  0.3813205966096231
  0.4484592572060913  0.0518334160848837  0.4352357604510465
  0.9470549471414323  0.3969660029423404  0.4353008179582028
  0.6031921128145260  0.5510025456949931  0.4354904076983102
  0.0909312844896808  0.0482438672012072  0.4355103043832761
  0.4717968576055696  0.0282212399369688  0.3940127506252341
  0.9711645613740295  0.4438136828929191  0.3942502574716688
  0.5563460028075082  0.5279558092351618  0.3942862145566394
  0.0297840132467820  0.9739153492051517  0.3813257553998888
  0.4063934192310647  0.0104734863277582  0.4676502369998786
  0.9881926331747461  0.3957000062775841  0.4676579054495197
  0.6037932447671605  0.5929761171278607  0.4679641945061125
  0.9442429216054792  0.9704146375388056  0.3813205615454720
  0.4484314898801757  0.0517990983747968  0.5646808768530345
  0.9471251432556601  0.3969475155439701  0.5646759833960959
  0.6031260241090811  0.5507954106015990  0.5648128402836106
  0.9740292010980736  0.9443317171440103  0.3813211656775698
  0.4064630242724228  0.0104780080352464  0.5321167394728497
  0.9882194754761088  0.3956658029893430  0.5321928255289424
  0.6037812828284633  0.5928705976965164  0.5324824083104314
  0.9132701241120966  0.9964503678902603  0.4672504799164879
  0.5280128429326326  0.0558739597137022  0.5984186230549516
  0.9440213283588341  0.4728978648240773  0.5984473730983931
  0.5278179818720049  0.4716199730649134  0.5986001140978184
  0.9090688538291933  0.9517559809714584  0.4355102915767072
  0.4717329888079992  0.0281824281248436  0.6058967119990891
  0.9712683844017354  0.4437877838324307  0.6057547505476314
  0.5561890202238787  0.5276653180761464  0.6057827471359121
  0.9132706420094608  0.9964507617036612  0.5327415090048042
  0.5567918815478170  0.0276347503326246  0.5984058315336483
  0.9727902145041825  0.5297559405097433  0.5984998460334678
  0.4709611695896888  0.4432891403304052  0.5986571362479955
  0.9961467395145975  0.0828877652979154  0.5327392381673303
  0.5988314724701241  0.0691620294889729  0.4998445316847513
  0.9317182660568875  0.5308594190022300  0.4998894469572315
  0.4704159102004137  0.4012644138784148  0.5002444279657454
  0.9514347967990341  0.0425396177795746  0.5644744155830133
  0.5961717164435835  0.0391954165197668  0.5524730282133413
  0.9617192787287786  0.5578742350032198  0.5525768951627390
  0.4431198229887812  0.4040562082288796  0.5529263364610379
  0.0828661851966366  0.0864348429266994  0.5327385792953422
  0.5568690236074096  0.0276250323106101  0.4013171782161201
  0.9727617032297934  0.5297426545488840  0.4013641205698221
  0.4708970804784675  0.4432420375353753  0.4016725886966178
  0.0423582321150198  0.0907773479496151  0.5644827696480977
  0.5962575828973158  0.0391871876582679  0.4471962052547792
  0.9617111714462059  0.5578975070137960  0.4471453199708639
  0.4431470322865455  0.4040152828800315  0.4475830032187198
  0.0909307300754857  0.0482437461944672  0.5644815481063880
  0.5282026890142132  0.9717792755988571  0.3940125950512502
  0.0288352593359842  0.5561858979274930  0.3942516512368544
  0.4436548022785065  0.4720446493564024  0.3942856060148154
  0.0867299957871833  0.0035494889530235  0.4672505056083502
  0.4431301611255562  0.9723757566992225  0.4013174435547959
  0.0272373275755492  0.4702567090536639  0.4013655982424930
  0.5291037200073784  0.5567583430888821  0.4016732252165128
  0.0485654474385009  0.9574609604591271  0.4355166430190587
  0.4037423338993457  0.9608136977924195  0.4471958651515594
  0.0382897927832651  0.4421021035512704  0.4471444843062763
  0.5568539293909847  0.5959845533591484  0.4475836581859329
  0.0867294784391972  0.0035490929877488  0.5327414849129700
  0.4719651680355945  0.9441859227881620  0.4013287561079041
  0.0559557732578927  0.5270722238487983  0.4014266624875811
  0.4721883612475716  0.5282339857039929  0.4016907270317059
  0.9576431318851265  0.9092226665282879  0.4355074165408230
  0.4038276885036378  0.9608055665166089  0.5524730825289109
  0.0382816379257063  0.4421252925856949  0.5525774948719163
  0.5568803896857379  0.5959429974871702  0.5529262313116434
  0.9171336640046199  0.9135642270238293  0.4672537543149431
  0.4432060456314105  0.9723668259035223  0.5984051782089461
  0.0272091830225773  0.4702435326185373  0.5984976080424936
  0.5290392846271567  0.5567105047605250  0.5986569395873437
  0.0038531770343387  0.9171119031934482  0.4672526007238923
  0.4011675886128784  0.9308392503131208  0.4998444892692376
  0.0682802285782467  0.4691398798692695  0.4998891202687574
  0.5295848033914603  0.5987353386911362  0.5002446749386965
  0.9090694068219712  0.9517560995686765  0.5644815575420716
  0.5282651388310040  0.9718187385209159  0.6058976228333343
  0.0287317171602584  0.5562117583040385  0.6057532022027841
  0.4438111517129455  0.4723343094617643  0.6057834751140853
  0.9171339989263735  0.9135650039585831  0.5327385715873907
  0.4719849160096368  0.9441263685865998  0.5984189609643772
  0.0559790126575764  0.5271013254609124  0.5984492186804080
  0.4721822935767516  0.5283798179041352  0.5986006977520962
  0.9702170070281959  0.0260852555410605  0.6186646308258110
  0.5935358237182607  0.9895220389971415  0.5321177687702654
  0.0117823607427375  0.6043358008805263  0.5321923764470666
  0.3962190994475600  0.4071292833675455  0.5324810081079995
  0.0259699048604410  0.0556685312304365  0.6186688246695323
  0.5936061543067015  0.9895264427027973  0.4676512912469027
  0.0118097865857418  0.6043015901260677  0.4676576757149975
  0.3962076887071447  0.4070239839312015  0.4679639593196007
  0.0557568730323249  0.0295856052446720  0.6186695382827838
  0.5515405312513394  0.9481660737998548  0.4352365568541487
  0.0529462817594812  0.6030355369635935  0.4353015796450876
  0.3968083603187058  0.4489971687270288  0.4354897114891929
  0.9442432922899396  0.9704142850304709  0.6186695705889054
  0.5515672407972770  0.9482017205171824  0.5646815286007243
  0.0528761277349579  0.6030539764818024  0.5646749265508362
  0.3968736987953143  0.4492041364366882  0.5648122422892957
  0.0485653193593536  0.9574602961069644  0.5644743715280628
  0.4604531810898710  0.9058870254441218  0.4475741786023700
  0.0945839641560655  0.5534520012286599  0.4477262372353990
  0.4454325695379914  0.5399297527856121  0.4478873215736278
  0.0038534484915464  0.9171121544056396  0.5327392063208767
  0.4305715331886231  0.9037574160011774  0.4998497449784911
  0.0958139557469570  0.5252921645106969  0.4999342880937273
  0.4732259658766883  0.5698167340249335  0.5002782955550398
  0.9576419733519621  0.9092225818857822  0.5644827375146205
  0.4604507146550165  0.9057440408428002  0.5523022837913143
  0.0946043708112930  0.5534606150251429  0.5524597229775718
  0.4451744426637964  0.5404642564767995  0.5526393472808752
  0.0297831670506085  0.9739146752983785  0.6186645896777254
  0.5096430812537653  0.9075541464872696  0.4678158369076090
  0.0935415937329054  0.6012109084538941  0.4679614972930949
  0.3980113096395786  0.4910503910726301  0.4680166480037323
  0.9740303039462328  0.9443313884040044  0.6186688188361997
  0.5096084493558476  0.9075186001627291  0.5321338817703973
  0.0936272824572434  0.6012942504851919  0.5322396219420840
  0.3979679899488689  0.4911988090499880  0.5322726571504712
 
  0.00000000E+00  0.00000000E+00  0.00000000E+00
  0.00000000E+00  0.00000000E+00  0.00000000E+00
  0.00000000E+00  0.00000000E+00  0.00000000E+00
  0.00000000E+00  0.00000000E+00  0.00000000E+00
  0.00000000E+00  0.00000000E+00  0.00000000E+00
  0.00000000E+00  0.00000000E+00  0.00000000E+00
  0.00000000E+00  0.00000000E+00  0.00000000E+00
  0.00000000E+00  0.00000000E+00  0.00000000E+00
  0.00000000E+00  0.00000000E+00  0.00000000E+00
  0.00000000E+00  0.00000000E+00  0.00000000E+00
  0.00000000E+00  0.00000000E+00  0.00000000E+00
  0.00000000E+00  0.00000000E+00  0.00000000E+00
  0.00000000E+00  0.00000000E+00  0.00000000E+00
  0.00000000E+00  0.00000000E+00  0.00000000E+00
  0.00000000E+00  0.00000000E+00  0.00000000E+00
  0.00000000E+00  0.00000000E+00  0.00000000E+00
  0.00000000E+00  0.00000000E+00  0.00000000E+00
  0.00000000E+00  0.00000000E+00  0.00000000E+00
  0.00000000E+00  0.00000000E+00  0.00000000E+00
  0.00000000E+00  0.00000000E+00  0.00000000E+00
  0.00000000E+00  0.00000000E+00  0.00000000E+00
  0.00000000E+00  0.00000000E+00  0.00000000E+00
  0.00000000E+00  0.00000000E+00  0.00000000E+00
  0.00000000E+00  0.00000000E+00  0.00000000E+00
  0.00000000E+00  0.00000000E+00  0.00000000E+00
  0.00000000E+00  0.00000000E+00  0.00000000E+00
  0.00000000E+00  0.00000000E+00  0.00000000E+00
  0.00000000E+00  0.00000000E+00  0.00000000E+00
  0.00000000E+00  0.00000000E+00  0.00000000E+00
  0.00000000E+00  0.00000000E+00  0.00000000E+00
  0.00000000E+00  0.00000000E+00  0.00000000E+00
  0.00000000E+00  0.00000000E+00  0.00000000E+00
  0.00000000E+00  0.00000000E+00  0.00000000E+00
  0.00000000E+00  0.00000000E+00  0.00000000E+00
  0.00000000E+00  0.00000000E+00  0.00000000E+00
  0.00000000E+00  0.00000000E+00  0.00000000E+00
  0.00000000E+00  0.00000000E+00  0.00000000E+00
  0.00000000E+00  0.00000000E+00  0.00000000E+00
  0.00000000E+00  0.00000000E+00  0.00000000E+00
  0.00000000E+00  0.00000000E+00  0.00000000E+00
  0.00000000E+00  0.00000000E+00  0.00000000E+00
  0.00000000E+00  0.00000000E+00  0.00000000E+00
  0.00000000E+00  0.00000000E+00  0.00000000E+00
  0.00000000E+00  0.00000000E+00  0.00000000E+00
  0.00000000E+00  0.00000000E+00  0.00000000E+00
  0.00000000E+00  0.00000000E+00  0.00000000E+00
  0.00000000E+00  0.00000000E+00  0.00000000E+00
  0.00000000E+00  0.00000000E+00  0.00000000E+00
  0.00000000E+00  0.00000000E+00  0.00000000E+00
  0.00000000E+00  0.00000000E+00  0.00000000E+00
  0.00000000E+00  0.00000000E+00  0.00000000E+00
  0.00000000E+00  0.00000000E+00  0.00000000E+00
  0.00000000E+00  0.00000000E+00  0.00000000E+00
  0.00000000E+00  0.00000000E+00  0.00000000E+00
  0.00000000E+00  0.00000000E+00  0.00000000E+00
  0.00000000E+00  0.00000000E+00  0.00000000E+00
  0.00000000E+00  0.00000000E+00  0.00000000E+00
  0.00000000E+00  0.00000000E+00  0.00000000E+00
  0.00000000E+00  0.00000000E+00  0.00000000E+00
  0.00000000E+00  0.00000000E+00  0.00000000E+00
  0.00000000E+00  0.00000000E+00  0.00000000E+00
  0.00000000E+00  0.00000000E+00  0.00000000E+00
  0.00000000E+00  0.00000000E+00  0.00000000E+00
  0.00000000E+00  0.00000000E+00  0.00000000E+00
  0.00000000E+00  0.00000000E+00  0.00000000E+00
  0.00000000E+00  0.00000000E+00  0.00000000E+00
  0.00000000E+00  0.00000000E+00  0.00000000E+00
  0.00000000E+00  0.00000000E+00  0.00000000E+00
  0.00000000E+00  0.00000000E+00  0.00000000E+00
  0.00000000E+00  0.00000000E+00  0.00000000E+00
  0.00000000E+00  0.00000000E+00  0.00000000E+00
  0.00000000E+00  0.00000000E+00  0.00000000E+00
  0.00000000E+00  0.00000000E+00  0.00000000E+00
  0.00000000E+00  0.00000000E+00  0.00000000E+00
  0.00000000E+00  0.00000000E+00  0.00000000E+00
  0.00000000E+00  0.00000000E+00  0.00000000E+00
  0.00000000E+00  0.00000000E+00  0.00000000E+00
  0.00000000E+00  0.00000000E+00  0.00000000E+00
  0.00000000E+00  0.00000000E+00  0.00000000E+00
  0.00000000E+00  0.00000000E+00  0.00000000E+00
  0.00000000E+00  0.00000000E+00  0.00000000E+00
  0.00000000E+00  0.00000000E+00  0.00000000E+00
  0.00000000E+00  0.00000000E+00  0.00000000E+00
  0.00000000E+00  0.00000000E+00  0.00000000E+00
  0.00000000E+00  0.00000000E+00  0.00000000E+00
  0.00000000E+00  0.00000000E+00  0.00000000E+00
  0.00000000E+00  0.00000000E+00  0.00000000E+00
  0.00000000E+00  0.00000000E+00  0.00000000E+00
  0.00000000E+00  0.00000000E+00  0.00000000E+00
  0.00000000E+00  0.00000000E+00  0.00000000E+00
  0.00000000E+00  0.00000000E+00  0.00000000E+00
  0.00000000E+00  0.00000000E+00  0.00000000E+00
  0.00000000E+00  0.00000000E+00  0.00000000E+00
  0.00000000E+00  0.00000000E+00  0.00000000E+00
  0.00000000E+00  0.00000000E+00  0.00000000E+00
  0.00000000E+00  0.00000000E+00  0.00000000E+00
  0.00000000E+00  0.00000000E+00  0.00000000E+00
  0.00000000E+00  0.00000000E+00  0.00000000E+00
  0.00000000E+00  0.00000000E+00  0.00000000E+00
  0.00000000E+00  0.00000000E+00  0.00000000E+00
  0.00000000E+00  0.00000000E+00  0.00000000E+00
  0.00000000E+00  0.00000000E+00  0.00000000E+00
  0.00000000E+00  0.00000000E+00  0.00000000E+00
  0.00000000E+00  0.00000000E+00  0.00000000E+00
  0.00000000E+00  0.00000000E+00  0.00000000E+00
  0.00000000E+00  0.00000000E+00  0.00000000E+00
  0.00000000E+00  0.00000000E+00  0.00000000E+00
  0.00000000E+00  0.00000000E+00  0.00000000E+00
  0.00000000E+00  0.00000000E+00  0.00000000E+00
  0.00000000E+00  0.00000000E+00  0.00000000E+00
  0.00000000E+00  0.00000000E+00  0.00000000E+00
  0.00000000E+00  0.00000000E+00  0.00000000E+00
  0.00000000E+00  0.00000000E+00  0.00000000E+00
  0.00000000E+00  0.00000000E+00  0.00000000E+00
  0.00000000E+00  0.00000000E+00  0.00000000E+00
  0.00000000E+00  0.00000000E+00  0.00000000E+00
  0.00000000E+00  0.00000000E+00  0.00000000E+00
  0.00000000E+00  0.00000000E+00  0.00000000E+00
  0.00000000E+00  0.00000000E+00  0.00000000E+00
  0.00000000E+00  0.00000000E+00  0.00000000E+00
  0.00000000E+00  0.00000000E+00  0.00000000E+00
  0.00000000E+00  0.00000000E+00  0.00000000E+00
  0.00000000E+00  0.00000000E+00  0.00000000E+00
  0.00000000E+00  0.00000000E+00  0.00000000E+00
  0.00000000E+00  0.00000000E+00  0.00000000E+00
  0.00000000E+00  0.00000000E+00  0.00000000E+00
  0.00000000E+00  0.00000000E+00  0.00000000E+00
  0.00000000E+00  0.00000000E+00  0.00000000E+00
  0.00000000E+00  0.00000000E+00  0.00000000E+00
  0.00000000E+00  0.00000000E+00  0.00000000E+00
  0.00000000E+00  0.00000000E+00  0.00000000E+00
  0.00000000E+00  0.00000000E+00  0.00000000E+00
  0.00000000E+00  0.00000000E+00  0.00000000E+00
  0.00000000E+00  0.00000000E+00  0.00000000E+00
  0.00000000E+00  0.00000000E+00  0.00000000E+00
  0.00000000E+00  0.00000000E+00  0.00000000E+00
  0.00000000E+00  0.00000000E+00  0.00000000E+00
  0.00000000E+00  0.00000000E+00  0.00000000E+00
  0.00000000E+00  0.00000000E+00  0.00000000E+00
  0.00000000E+00  0.00000000E+00  0.00000000E+00
  0.00000000E+00  0.00000000E+00  0.00000000E+00
  0.00000000E+00  0.00000000E+00  0.00000000E+00
  0.00000000E+00  0.00000000E+00  0.00000000E+00
  0.00000000E+00  0.00000000E+00  0.00000000E+00
  0.00000000E+00  0.00000000E+00  0.00000000E+00
  0.00000000E+00  0.00000000E+00  0.00000000E+00
  0.00000000E+00  0.00000000E+00  0.00000000E+00
  0.00000000E+00  0.00000000E+00  0.00000000E+00
  0.00000000E+00  0.00000000E+00  0.00000000E+00
  0.00000000E+00  0.00000000E+00  0.00000000E+00
  0.00000000E+00  0.00000000E+00  0.00000000E+00
  0.00000000E+00  0.00000000E+00  0.00000000E+00
  0.00000000E+00  0.00000000E+00  0.00000000E+00
  0.00000000E+00  0.00000000E+00  0.00000000E+00
  0.00000000E+00  0.00000000E+00  0.00000000E+00
  0.00000000E+00  0.00000000E+00  0.00000000E+00
  0.00000000E+00  0.00000000E+00  0.00000000E+00
  0.00000000E+00  0.00000000E+00  0.00000000E+00
  0.00000000E+00  0.00000000E+00  0.00000000E+00
  0.00000000E+00  0.00000000E+00  0.00000000E+00
  0.00000000E+00  0.00000000E+00  0.00000000E+00
  0.00000000E+00  0.00000000E+00  0.00000000E+00
  0.00000000E+00  0.00000000E+00  0.00000000E+00
  0.00000000E+00  0.00000000E+00  0.00000000E+00
  0.00000000E+00  0.00000000E+00  0.00000000E+00
  0.00000000E+00  0.00000000E+00  0.00000000E+00
  0.00000000E+00  0.00000000E+00  0.00000000E+00
  0.00000000E+00  0.00000000E+00  0.00000000E+00
  0.00000000E+00  0.00000000E+00  0.00000000E+00
  0.00000000E+00  0.00000000E+00  0.00000000E+00
  0.00000000E+00  0.00000000E+00  0.00000000E+00
  0.00000000E+00  0.00000000E+00  0.00000000E+00
  0.00000000E+00  0.00000000E+00  0.00000000E+00
  0.00000000E+00  0.00000000E+00  0.00000000E+00
  0.00000000E+00  0.00000000E+00  0.00000000E+00
  0.00000000E+00  0.00000000E+00  0.00000000E+00
  0.00000000E+00  0.00000000E+00  0.00000000E+00
  0.00000000E+00  0.00000000E+00  0.00000000E+00
  0.00000000E+00  0.00000000E+00  0.00000000E+00
  0.00000000E+00  0.00000000E+00  0.00000000E+00
  0.00000000E+00  0.00000000E+00  0.00000000E+00
  0.00000000E+00  0.00000000E+00  0.00000000E+00
  0.00000000E+00  0.00000000E+00  0.00000000E+00
  0.00000000E+00  0.00000000E+00  0.00000000E+00
  0.00000000E+00  0.00000000E+00  0.00000000E+00
  0.00000000E+00  0.00000000E+00  0.00000000E+00
  0.00000000E+00  0.00000000E+00  0.00000000E+00
  0.00000000E+00  0.00000000E+00  0.00000000E+00
  0.00000000E+00  0.00000000E+00  0.00000000E+00
  0.00000000E+00  0.00000000E+00  0.00000000E+00
  0.00000000E+00  0.00000000E+00  0.00000000E+00
  0.00000000E+00  0.00000000E+00  0.00000000E+00
  0.00000000E+00  0.00000000E+00  0.00000000E+00
  0.00000000E+00  0.00000000E+00  0.00000000E+00
  0.00000000E+00  0.00000000E+00  0.00000000E+00
  0.00000000E+00  0.00000000E+00  0.00000000E+00
  0.00000000E+00  0.00000000E+00  0.00000000E+00
  0.00000000E+00  0.00000000E+00  0.00000000E+00
  0.00000000E+00  0.00000000E+00  0.00000000E+00
  0.00000000E+00  0.00000000E+00  0.00000000E+00
  0.00000000E+00  0.00000000E+00  0.00000000E+00
  0.00000000E+00  0.00000000E+00  0.00000000E+00
  0.00000000E+00  0.00000000E+00  0.00000000E+00
  0.00000000E+00  0.00000000E+00  0.00000000E+00
  0.00000000E+00  0.00000000E+00  0.00000000E+00
  0.00000000E+00  0.00000000E+00  0.00000000E+00
  0.00000000E+00  0.00000000E+00  0.00000000E+00
  0.00000000E+00  0.00000000E+00  0.00000000E+00
  0.00000000E+00  0.00000000E+00  0.00000000E+00
  0.00000000E+00  0.00000000E+00  0.00000000E+00
  0.00000000E+00  0.00000000E+00  0.00000000E+00
  0.00000000E+00  0.00000000E+00  0.00000000E+00
  0.00000000E+00  0.00000000E+00  0.00000000E+00
  0.00000000E+00  0.00000000E+00  0.00000000E+00
  0.00000000E+00  0.00000000E+00  0.00000000E+00
  0.00000000E+00  0.00000000E+00  0.00000000E+00
  0.00000000E+00  0.00000000E+00  0.00000000E+00
  0.00000000E+00  0.00000000E+00  0.00000000E+00
  0.00000000E+00  0.00000000E+00  0.00000000E+00
  0.00000000E+00  0.00000000E+00  0.00000000E+00
  0.00000000E+00  0.00000000E+00  0.00000000E+00
  0.00000000E+00  0.00000000E+00  0.00000000E+00
  0.00000000E+00  0.00000000E+00  0.00000000E+00
  0.00000000E+00  0.00000000E+00  0.00000000E+00
  0.00000000E+00  0.00000000E+00  0.00000000E+00
  0.00000000E+00  0.00000000E+00  0.00000000E+00
  0.00000000E+00  0.00000000E+00  0.00000000E+00
  0.00000000E+00  0.00000000E+00  0.00000000E+00
  0.00000000E+00  0.00000000E+00  0.00000000E+00
  0.00000000E+00  0.00000000E+00  0.00000000E+00
  0.00000000E+00  0.00000000E+00  0.00000000E+00
  0.00000000E+00  0.00000000E+00  0.00000000E+00
  0.00000000E+00  0.00000000E+00  0.00000000E+00
  0.00000000E+00  0.00000000E+00  0.00000000E+00
  0.00000000E+00  0.00000000E+00  0.00000000E+00
  0.00000000E+00  0.00000000E+00  0.00000000E+00
  0.00000000E+00  0.00000000E+00  0.00000000E+00
  0.00000000E+00  0.00000000E+00  0.00000000E+00
  0.00000000E+00  0.00000000E+00  0.00000000E+00
  0.00000000E+00  0.00000000E+00  0.00000000E+00
  0.00000000E+00  0.00000000E+00  0.00000000E+00
  0.00000000E+00  0.00000000E+00  0.00000000E+00
  0.00000000E+00  0.00000000E+00  0.00000000E+00
  0.00000000E+00  0.00000000E+00  0.00000000E+00
  0.00000000E+00  0.00000000E+00  0.00000000E+00
  0.00000000E+00  0.00000000E+00  0.00000000E+00
  0.00000000E+00  0.00000000E+00  0.00000000E+00
  0.00000000E+00  0.00000000E+00  0.00000000E+00
  0.00000000E+00  0.00000000E+00  0.00000000E+00
  0.00000000E+00  0.00000000E+00  0.00000000E+00
  0.00000000E+00  0.00000000E+00  0.00000000E+00
  0.00000000E+00  0.00000000E+00  0.00000000E+00
  0.00000000E+00  0.00000000E+00  0.00000000E+00
  0.00000000E+00  0.00000000E+00  0.00000000E+00
  0.00000000E+00  0.00000000E+00  0.00000000E+00
  0.00000000E+00  0.00000000E+00  0.00000000E+00
  0.00000000E+00  0.00000000E+00  0.00000000E+00
  0.00000000E+00  0.00000000E+00  0.00000000E+00
  0.00000000E+00  0.00000000E+00  0.00000000E+00
  0.00000000E+00  0.00000000E+00  0.00000000E+00
  0.00000000E+00  0.00000000E+00  0.00000000E+00
  0.00000000E+00  0.00000000E+00  0.00000000E+00
  0.00000000E+00  0.00000000E+00  0.00000000E+00
  0.00000000E+00  0.00000000E+00  0.00000000E+00
