Generated by VASPKIT code               
   1.00000000000000     
    27.2515323318811333    0.0008536072814647    0.0000000000000000
     0.0008534308299908   27.2505912008468663    0.0000000000000000
     0.0000000000000012    0.0000000000000012   21.9379315070720509
  C             
   408
Direct
  0.9150397321100466  0.5256627325474628  0.3813625770060916
  0.5256207743312419  0.0850060795240966  0.3813587203227053
  0.9156771475311044  0.4723449905078325  0.3813691425049219
  0.4723045323428157  0.0843791143438131  0.3813751477831198
  0.8892051381563639  0.4555691618415974  0.4349368428468355
  0.4555346693241322  0.1108541934190141  0.4349453525527041
  0.8881791774169596  0.5418185957385802  0.4349374320984475
  0.5417783181226361  0.1118681093271858  0.4349321876074977
  0.8722066001424837  0.4984984814945231  0.4680536567668117
  0.4984651090341165  0.1278512155592926  0.4680562456591563
  0.9035288624334392  0.5835439304510547  0.4668475351444618
  0.5834925249960621  0.0965073658342704  0.4668451625593303
  0.9463523011278048  0.6107049633025106  0.4463915580776494
  0.6106522962299886  0.0536784095963822  0.4463863618609397
  0.9562613159767028  0.5518277402800056  0.3616515421811323
  0.5517812673591893  0.0437738255571033  0.3616510704429400
  0.9722170267161135  0.5951536588694383  0.3947813467135102
  0.5951030832857140  0.0278119299918661  0.3947798230425998
  0.9997250336538049  0.5256756521998107  0.3411937368204632
  0.5256255766560504  0.0003096477413864  0.3412037043781539
  0.9575316373115400  0.4471748861486243  0.3616665941518962
  0.4471307747397801  0.0425259593224823  0.3616808616262216
  0.0003501452728992  0.4743410731855427  0.3412008195503770
  0.4742922091054851  0.9996959282648692  0.3412208315637719
  0.9745144265044016  0.4042436584895715  0.3948013072772020
  0.4042043182149536  0.0255503339153579  0.3948228331947682
  0.9055656993696444  0.4142374557952793  0.4668647287342669
  0.4142032265197456  0.0945091151209734  0.4668824475464287
  0.9490234660254239  0.3881005106417080  0.4464090819071331
  0.3880641419244902  0.0510507160777583  0.4464277034761844
  0.9055493771016601  0.4142370103208194  0.5330685789502516
  0.4142135617318721  0.0945275033081309  0.5330861033562482
  0.8721891202258441  0.4985015208441166  0.5318347347932211
  0.4984728631274593  0.1278683539812679  0.5318396819465173
  0.8891748796859803  0.4555767104493298  0.5649750870145815
  0.4555531554971184  0.1108874037759797  0.5649895792924314
  0.9035118483258847  0.5835482079029992  0.5330592753132321
  0.5835029547931110  0.0965255596530563  0.5330591725245319
  0.8881447686426841  0.5418260544117242  0.5649604396632200
  0.5417929507743157  0.1119086195239091  0.5649695402700096
  0.9727949562421349  0.6274824590514358  0.4999780606611527
  0.6274324596892806  0.0272398857176108  0.4999752826406338
  0.9463237826226848  0.6107109018488326  0.5535483810254909
  0.6106658044619245  0.0537131073783683  0.5535461406930640
  0.0241327408191067  0.6280752349474582  0.5000023595594074
  0.6280334269260343  0.9758999717556908  0.5000052898000522
  0.0255312700832134  0.5957746809232601  0.3948066343307783
  0.5957253871379838  0.9744966611943594  0.3948117875803268
  0.0425360578027034  0.5528430789463838  0.3616873487901576
  0.5527900405478534  0.9574942718343316  0.3617068247284466
  0.0509950386504243  0.6119189591268858  0.4464313787781102
  0.6118807329400511  0.9490309653446223  0.4464411247275576
  0.0843786375317832  0.5276708152998059  0.3814343063511860
  0.5276188468122738  0.9156559465638948  0.3814638285470073
  0.0438031133475333  0.4481910269828152  0.3617022714623337
  0.4481430054037284  0.9562496492637439  0.3617364353489800
  0.0278302039500384  0.4048668098266148  0.3948196856499172
  0.4048262716345624  0.9722362083995744  0.3948552872247673
  0.0850174132296745  0.4743541495094381  0.3814382959013888
  0.4743035710589306  0.9150316892604311  0.3814778287180355
  0.0536632124789836  0.3893198620239575  0.4464570171987067
  0.3892845755868114  0.9464045033308884  0.4464899562769064
  0.9758580248882447  0.3719443544339730  0.4999997651523464
  0.3719193388347910  0.0242170170569050  0.5000269611970928
  0.9489955146648521  0.3881015127970899  0.5535696605763920
  0.3880770620403915  0.0510817156895203  0.5535924027983645
  0.0271946187279844  0.3725453333194175  0.5000249244869497
  0.3725148602112140  0.9728811158619142  0.5000578842719083
  0.9744559972923562  0.4042488798505855  0.6051996247187895
  0.4042264764640039  0.0256182162273813  0.6052219642548333
  0.9156104461906174  0.4723546210273868  0.6185643295590570
  0.4723340640242256  0.0844498381545245  0.6185798644883164
  0.9149740802540621  0.5256715988655786  0.6185593180298132
  0.5256463059536050  0.0850781575052345  0.6185709371376505
  0.9574496762842485  0.4471810395126081  0.6383132148091595
  0.4471619405750399  0.0426145720573281  0.6383361248119643
  0.9721607872535043  0.5951597326768433  0.6051812656782996
  0.5951256406543531  0.0278796150187816  0.6051847994242666
  0.9561854970344986  0.5518382583724306  0.6383019325097783
  0.5518107320302847  0.0438595686568906  0.6383123619523257
  0.0509684125457414  0.6119208769683308  0.5535922997073098
  0.6118898637171779  0.9490654565536076  0.5535991146172936
  0.0254771483840356  0.5957789712907779  0.6052009679311703
  0.5957484986768141  0.9745627918141246  0.6052084578628981
  0.0944412804902636  0.5857831101691092  0.4669326744410833
  0.5857467635628683  0.9055837413061225  0.4669461796324836
  0.1108162731953665  0.5444462704838573  0.4350211556348424
  0.5444034854814238  0.8892161601252184  0.4350484843995825
  0.0944274346463992  0.5857828919904705  0.5331325546005166
  0.5857530190129397  0.9056005548142578  0.5331515618919003
  0.1118446629472920  0.4582020359465508  0.4350389377131638
  0.4581556476715225  0.8882023263955177  0.4350774399966549
  0.0964729628420292  0.4164845870355088  0.4669454601140970
  0.4164405433982002  0.9035900080166559  0.4669815236035179
  0.1277994042682394  0.5015257532338073  0.4681657769337215
  0.5014808728717791  0.8722381821769515  0.4681979651862110
  0.0536361359094540  0.3893267913418351  0.5536124847783267
  0.3892943376441458  0.9464394021446666  0.5536461786489714
  0.0277722836190311  0.4048762698586890  0.6052238101002859
  0.4048476157003044  0.9723023450105063  0.6052527271261202
  0.0964598291323250  0.4164881523104595  0.5331583336884780
  0.4164493102777334  0.9036112412174915  0.5331887372264934
  0.0002586121710659  0.4743508546109434  0.6588108217591561
  0.4743268672738060  0.9997987541927291  0.6588343322540336
  0.9996357430797175  0.5256862603317118  0.6588031373530689
  0.5256615570216299  0.0004098940154014  0.6588230787129141
  0.0424570756493475  0.5528487836400183  0.6383380346666572
  0.5528239569010707  0.9575836495784437  0.6383542498843423
  0.0437244118688662  0.4481990220260707  0.6383547460263087
  0.4481692957045364  0.9563397392034624  0.6383769734082314
  0.1107850150224053  0.5444556913499099  0.5650651959944488
  0.5444210387769275  0.8892529329338904  0.5650855142074178
  0.1277826912296651  0.5015285557420222  0.5319471399220044
  0.5014875668512839  0.8722605758605647  0.5319788794677768
  0.1118085124187469  0.4582095361774225  0.5650677501171408
  0.4581699257846297  0.8882512864221558  0.5650957932027069
  0.0843143556012167  0.5276802843273000  0.6186359088272734
  0.5276483243320781  0.9157329257514975  0.6186543264270011
  0.0849453600398595  0.4743655105919044  0.6186425478077043
  0.4743336746449921  0.9151089171498969  0.6186649330739973
  0.6870715215201759  0.6136783392176706  0.6191766194466436
  0.3128058234863764  0.3863714901122035  0.6191843894120519
  0.6137739575395262  0.3127718318294218  0.6191966580061143
  0.3863345138355329  0.6871426919086644  0.6191680516526770
  0.8288874776584423  0.7649732777722894  0.5323047209421166
  0.1711044254402329  0.2350086670061687  0.5322871701287097
  0.7649849225769314  0.1711181044830550  0.5322898343331680
  0.2350461997900254  0.8288590754908794  0.5322982087494776
  0.6369186078415197  0.6002889685038107  0.6191727105062912
  0.3629670826999136  0.3997581951821317  0.6191822714243159
  0.6003925153428200  0.3629373089170240  0.6191933567809136
  0.3997440247758377  0.6369873674257995  0.6191604761114770
  0.8288888961240493  0.7649726409020263  0.4677060911937405
  0.1711048882790960  0.2350082475734240  0.4676976266425857
  0.7649830979633837  0.1711166917931245  0.4677056418162286
  0.2350466147184433  0.8288570121747058  0.4677101295892281
  0.6284585549588607  0.5687300570910738  0.5647664151152079
  0.3714258320825080  0.4312967757697690  0.5647501728769612
  0.5688425036346019  0.3714117876524032  0.5647588195419937
  0.4313073175918999  0.6285407321128946  0.5647551539696056
  0.8792377621984574  0.7752855484602443  0.4472589463706733
  0.1207692574202923  0.2246870799429571  0.4472534331361295
  0.7752991180059196  0.1207733856659704  0.4472630140967334
  0.2247374904961059  0.8792087838615410  0.4472484636202752
  0.7102781714389953  0.5904952097917230  0.5647784208011194
  0.2896155830500574  0.4095536285262572  0.5647698062123949
  0.5905777040314009  0.2895887820804239  0.5647872151335981
  0.4095046869834413  0.7103529518275162  0.5647715568757309
  0.8792356154075249  0.7752891021971534  0.5527526949062370
  0.1207678445891041  0.2246881659386503  0.5527298100602713
  0.7753030153202166  0.1207741109889026  0.5527289926492950
  0.2247353253942116  0.8792120035490325  0.5527519788509234
  0.6739727954726442  0.5626063228289085  0.5328227253710001
  0.3259247755413845  0.4374524948116025  0.5328223133923008
  0.5626695833277361  0.3258982431283800  0.5328288937698578
  0.4374120120203288  0.6740601297309708  0.5328190932290059
  0.9099585878771411  0.7809845989204022  0.5000061157855722
  0.0900415903276570  0.2189759030780873  0.4999907610969991
  0.7810132459810880  0.0900481688266903  0.4999954086291108
  0.2190218912384994  0.9099435696240592  0.4999997841015730
  0.7384673519157711  0.6267155445078565  0.5328467573154159
  0.2614125984120034  0.3733531568580305  0.5328443423221590
  0.6267740392756245  0.2613718309247608  0.5328485176610109
  0.3732753546573739  0.7385296208188145  0.5328329270051338
  0.8779768520133940  0.8132597421239876  0.5983699339849727
  0.1220310447422705  0.1867248506110098  0.5983452894325626
  0.8132642879247720  0.1220298147855814  0.5983528160725017
  0.1867538072273426  0.8779585618620445  0.5983628326597465
  0.7004952831475608  0.6637861693872251  0.6191753073343449
  0.2993833107266526  0.3362742179878771  0.6191734794717841
  0.6638658451494710  0.2993311076586694  0.6191854795778257
  0.3362210940452271  0.7005476829463804  0.6191638603775241
  0.7971281750170345  0.7971194078649205  0.5648213003403184
  0.2028772993618474  0.2028550787453967  0.5648234657892847
  0.7971556875833952  0.2028752347851613  0.5648223930859012
  0.2028987768011494  0.7971037405719462  0.5648113301727078
  0.7320074747009182  0.6721307273564332  0.5647055701628945
  0.2678990911407450  0.3279329568808978  0.5646873539308592
  0.6721910177194957  0.2678447882317051  0.5646961692590522
  0.3278641643669117  0.7320552664973233  0.5646897684091700
  0.8272104603116999  0.8272073582403139  0.6058865784829027
  0.1727884289108346  0.1727698926703685  0.6058654969170401
  0.8272390283175677  0.1727854171406535  0.6058537785671320
  0.1728132813792918  0.8271885747411843  0.6058761940153928
  0.6637817467377456  0.7005368350757610  0.6191739825266389
  0.3360871701807279  0.2995238569182753  0.6191819788806375
  0.7006222614683746  0.3360209725227489  0.6191823968661724
  0.2994921235829419  0.6638226859115702  0.6191635103659677
  0.7649813371000034  0.8288791583509779  0.5322975071416934
  0.2350277356802363  0.1710811848215263  0.5322932477325434
  0.8289204869083109  0.2350386834349110  0.5322905689662448
  0.1711514345678055  0.7649499209759162  0.5323014181944011
  0.6002313261870293  0.6370126636645574  0.6191698216424300
  0.3996502253701618  0.3630341236181220  0.6191898320634350
  0.6371201274087315  0.3996076261340840  0.6191965560500402
  0.3630397667209411  0.6002845935684632  0.6191634474371389
  0.7971321434040587  0.7971143720506085  0.4351850576262986
  0.2028802332302144  0.2028520861796731  0.4351674504220989
  0.7971538190536310  0.2028745200786871  0.4351701900755817
  0.2029009032844662  0.7970980605004382  0.4351976645305810
  0.6136656133154829  0.6871587034231362  0.6191841797101795
  0.3862013571293912  0.3128882696118668  0.6191917414220292
  0.6872584393193747  0.3861377084763839  0.6191973332791819
  0.3128901863936930  0.6137041378710917  0.6191703310166025
  0.7649835151014163  0.8288772562250681  0.4677037778761811
  0.2350306651301495  0.1710807863361425  0.4677029972168069
  0.8289186079083711  0.2350365515795071  0.4677012993823452
  0.1711524469329992  0.7649474174590695  0.4677103346781317
  0.5859972293176353  0.5861111604744820  0.5328286260719134
  0.4138909239528474  0.4139297035009467  0.5328319074148757
  0.5862238755898000  0.4138662396989092  0.5328261077247926
  0.4139589966308127  0.5860648674622371  0.5328253443893883
  0.8779794472479761  0.8132509240412495  0.4016375900036719
  0.1220332202794115  0.1867210734785880  0.4016411008830735
  0.8132612904732762  0.1220285899500500  0.4016386235640640
  0.1867562361250757  0.8779521098651329  0.4016389103115188
  0.5686607124702423  0.6285911922483256  0.5647637430913243
  0.4312162053999989  0.3714472865466553  0.5647680363608804
  0.6286998103835963  0.4311823965528522  0.5647681677138631
  0.3714827495301798  0.5687186739920763  0.5647557895647004
  0.8272143665979921  0.8272003679539748  0.3941191262546461
  0.1727936980504891  0.1727663838604190  0.3941270024986078
  0.8272349980026338  0.1727838102764949  0.3941413682751128
  0.1728168867002323  0.8271810547306399  0.3941320436875963
  0.5859965665824167  0.5861143731307744  0.4671652740871342
  0.4138980353466029  0.4139315921617868  0.4671679521114049
  0.5862209020066140  0.4138682189397268  0.4671614193043491
  0.4139604114380313  0.5860636228984980  0.4671582753156615
  0.9152034017540870  0.8501462215945303  0.4023137179340923
  0.0848141185243017  0.1498254581865513  0.4023012964667022
  0.8501522952194179  0.0848022246758979  0.4023008587992876
  0.1498566547000682  0.9151722190967996  0.4023100300492208
  0.6739721977743879  0.5626091946956832  0.4671642081484672
  0.3259279558313983  0.4374551653941443  0.4671561503972461
  0.5626669879686306  0.3258979996014801  0.4671592358509617
  0.4374136675294892  0.6740597650007677  0.4671544361720095
  0.9459589604607791  0.8190370098931643  0.5000052979837208
  0.0540419252252867  0.1809516616650825  0.4999909533239430
  0.8190333974019554  0.0540302366803575  0.4999943795648179
  0.1809684585711493  0.9459427225804966  0.4999978820826349
  0.6284590586342484  0.5687376435676122  0.4352267749498193
  0.3714359222265236  0.4312956321301995  0.4352374177974913
  0.5688406986415360  0.3714123947711719  0.4352279483753091
  0.4313109534897547  0.6285364648010437  0.4352259048099976
  0.9520588775882268  0.8490835591124598  0.4475951055906117
  0.0479367860276188  0.1508958788848330  0.4475737478647227
  0.8490921147368562  0.0479301491957694  0.4475700592535312
  0.1509160701700277  0.9520385740598604  0.4475777158692649
  0.7384648733751203  0.6267184511548270  0.4671465697252690
  0.2614125812128755  0.3733545051624306  0.4671238037810354
  0.6267726733898922  0.2613702603321294  0.4671321358058194
  0.3732758320744809  0.7385278590831046  0.4671378276161842
  0.9152010625933849  0.8501527620305587  0.5976944132817328
  0.0848115101939480  0.1498273622115659  0.5976860353253944
  0.8501549270138665  0.0848030767445695  0.5976900963481536
  0.1498560274454821  0.9151795605980354  0.5976887695797434
  0.7102742409810463  0.5905028741152762  0.4352140061195366
  0.2896248216437710  0.4095507183636241  0.4352007813299436
  0.5905761897816403  0.2895909049232959  0.4351963312902628
  0.4095069309887957  0.7103509308719544  0.4352032347366773
  0.9520584255218815  0.8490866318070048  0.5524133817351414
  0.0479366694877060  0.1508969970331911  0.5524100607719947
  0.8490921695025569  0.0479308558117652  0.5524191425968455
  0.1509164631867626  0.9520428091103988  0.5524176610372091
  0.7320018294973687  0.6721357653675436  0.4352963629806858
  0.2679053161266418  0.3279287374230172  0.4352862458360783
  0.6721893917165011  0.2678467924666770  0.4352829829851309
  0.3278661089542416  0.7320532860047860  0.4352817667930859
  0.9016531604283586  0.9016412132250733  0.6023533409398029
  0.0983603362958463  0.0983340133483490  0.6023625001266096
  0.9016510767502004  0.0983506853549848  0.6023810846384164
  0.0983692955021344  0.9016182618607061  0.6023541032204643
  0.7144730350399727  0.7144621102805625  0.5327722734939425
  0.2854027669200745  0.2855932599411524  0.5327637655643039
  0.7145364570546853  0.2853198733256443  0.5327646442606414
  0.2855442557821119  0.7145040636986993  0.5327541398969798
  0.8132660556994892  0.8779751095183431  0.5983619381516636
  0.1867446931306370  0.1220077941748239  0.5983642905475622
  0.8779952873322047  0.1867476798740387  0.5983486608458808
  0.1220486516576754  0.8132382603414070  0.5983684541126940
  0.6721564639618994  0.7320469689277903  0.5647083252719703
  0.3277228462823075  0.2680415909501890  0.5647022932184901
  0.7320894554796471  0.3276411851875696  0.5646903675403319
  0.2679907798770161  0.6721812459117781  0.5646873558603475
  0.7752912079873969  0.8792317366500922  0.5527492113382224
  0.2246980590603473  0.1207397846946960  0.5527346898753199
  0.8792582896048149  0.2247091634602854  0.5527301407815204
  0.1207939645259715  0.7752600494663364  0.5527548569712989
  0.7144706992478285  0.7144648892803033  0.4672329793097298
  0.2854048108469785  0.2855893396323097  0.4672180548564899
  0.7145364004467168  0.2853194605910117  0.4672113038210442
  0.2855453014117654  0.7145041897845384  0.4672137612738999
  0.8501618811988654  0.9151949677865195  0.5976958374529926
  0.1498528697602534  0.0847814109950853  0.5976931493313082
  0.9152083798965027  0.1498432345622020  0.5976976280894011
  0.0848179468646320  0.8501322451868492  0.5976885369068089
  0.5905046973211170  0.7103930987093680  0.5647926404047973
  0.4093555442428878  0.2896623132186499  0.5647889772906274
  0.7104746403920505  0.4092915826998728  0.5647863976900176
  0.2896755403975258  0.5905382473634156  0.5647737196024908
  0.7752955102963767  0.8792282982243351  0.4472507692101692
  0.2246973926285940  0.1207395755758389  0.4472622543893602
  0.8792559210932992  0.2247069523153886  0.4472592577923064
  0.1207951759107563  0.7752570981219141  0.4472537849978274
  0.5625789335754724  0.6741187658154622  0.5328308104840568
  0.4373206923755890  0.3259331636287553  0.5328365802132595
  0.6742179741816797  0.4372671104908680  0.5328250052927124
  0.3259638783113606  0.5626210811385455  0.5328220542467674
  0.8132720352818863  0.8779678508057668  0.4016395226127288
  0.1867479524190008  0.1220060758447165  0.4016299316932691
  0.8779933865441137  0.1867462803931639  0.4016412760638073
  0.1220527597865701  0.8132311759042369  0.4016366677276263
  0.6267460784714523  0.7385469931799015  0.5328586611754276
  0.3731261658823277  0.2615050178215239  0.5328548764769340
  0.7386286066431601  0.3730466019597172  0.5328450406771601
  0.2615076111023276  0.6267724537170890  0.5328341177199436
  0.7810022832763369  0.9099530924684835  0.4999998994173306
  0.2189970700900662  0.0900205472472580  0.4999988810406656
  0.9099838801564063  0.2189877088792596  0.4999945657331118
  0.0900707645286769  0.7809603783048656  0.5000030167556646
  0.5686618474489922  0.6285954066207293  0.4352386845364190
  0.4312279684281161  0.3714456186717048  0.4352382802220561
  0.6286983034738878  0.4311835686437719  0.4352184788032195
  0.3714862388962150  0.5687140670921780  0.4352281302994186
  0.9016574457573409  0.9016354217834559  0.3976510254133991
  0.0983618758538473  0.0983322873538893  0.3976247121153165
  0.9016487826989700  0.0983507380992112  0.3976075651446355
  0.0983705441113799  0.9016098390978383  0.3976428400455387
  0.5625787461799833  0.6741210190463407  0.4671729706216356
  0.4373291689326211  0.3259306817050308  0.4671744734738074
  0.6742168223985366  0.4372682555301000  0.4671602590588346
  0.3259640244761289  0.5626191419711111  0.4671568282255299
  0.8501662095623254  0.9151864910578132  0.4023069732813475
  0.1498548424100946  0.0847789951712570  0.4022959857567698
  0.9152070365201038  0.1498429636815782  0.4022935095296558
  0.0848190005643867  0.8501237042515464  0.4023122303030452
  0.6369150032340313  0.6002983880280626  0.3808256384390541
  0.3629855830552242  0.3997545013972308  0.3808043280875120
  0.6003893876927616  0.3629403775371557  0.3807923157132770
  0.3997490086456803  0.6369819529111694  0.3808217873697372
  0.9701758541845037  0.9006927446549352  0.4639366083627937
  0.0298338896009104  0.0992516007548430  0.4639344466343563
  0.9007290950139456  0.0298251464941615  0.4639361024843908
  0.0993127147117847  0.9701377299451356  0.4639434066793464
  0.6870691986341557  0.6136903909093728  0.3808217874833606
  0.3128242074422805  0.3863684095108368  0.3807925240262622
  0.6137683793797466  0.3127765647257757  0.3807864676398580
  0.3863370223931544  0.6871338398470300  0.3808134337333931
  0.9701753153888855  0.9006944024113692  0.5360663102333357
  0.0298326945067643  0.0992514511441849  0.5360519664004154
  0.9007295699970309  0.0298278781295378  0.5360524372825779
  0.0993137214388119  0.9701390479941167  0.5360479649624011
  0.7004911219080654  0.6637974157187202  0.3808285963546554
  0.2994004197420279  0.3362690605302501  0.3808071128289432
  0.6638612836636276  0.2993355276150222  0.3807950044550280
  0.3362270743337930  0.7005407884319899  0.3808117737102335
  0.9323768138721958  0.9323714029399056  0.5672115592349766
  0.0676306643757537  0.0676085440665091  0.5672132888223409
  0.9323856191116879  0.0676176039019159  0.5672269440931785
  0.0676437332692822  0.9323549888696339  0.5672204393028258
  0.6002266109199307  0.6370215105509651  0.3808334599420957
  0.3996688922138321  0.3630279452322422  0.3808102901353941
  0.6371167619729792  0.3996112013498478  0.3807894408425130
  0.3630446407932574  0.6002783397865289  0.3808214444336359
  0.9323788707137041  0.9323683892821677  0.4327884069126681
  0.0676315519220052  0.0676075794881403  0.4327727195311306
  0.9323847937455465  0.0676159574103946  0.4327607404944988
  0.0676426154810543  0.9323497130548143  0.4327711443600788
  0.6721525403081380  0.7320487344466664  0.4353073033501141
  0.3277306167606112  0.2680369946978648  0.4352910630993853
  0.7320861686770749  0.3276412132520818  0.4352867871327488
  0.2679930439915520  0.6721799092178887  0.4352818083043484
  0.8491008362921749  0.9520561230151836  0.5524124031769861
  0.1509158511651510  0.0479140818172220  0.5524178285652025
  0.9520850000032867  0.1509069776096301  0.5524227898474219
  0.0479562800770373  0.8490729095680022  0.5524146513369741
  0.6267447298774077  0.7385486485461045  0.4671544151160294
  0.3731329568927235  0.2614987575270128  0.4671452830996112
  0.7386283665745601  0.3730444858546758  0.4671345069743278
  0.2615078576654674  0.6267720021888553  0.4671334949584052
  0.8190545910576225  0.9459575797020706  0.4999997556288935
  0.1809662850714097  0.0540155408224712  0.4999942392111431
  0.9459888176574700  0.1809598723288698  0.4999941713541646
  0.0540619572321998  0.8190177205427125  0.5000015495021359
  0.5905044035317867  0.7103959310658404  0.4352197357588322
  0.4093662851060852  0.2896562658843175  0.4352171974726270
  0.7104724388205503  0.4092920945317784  0.4351980431037606
  0.2896775027807785  0.5905341188984019  0.4352021023293481
  0.8491017430970752  0.9520499650536760  0.4475878788779935
  0.1509188385878615  0.0479109705745649  0.4475720566298762
  0.9520848477240906  0.1509066848393297  0.4475664287238367
  0.0479556268896005  0.8490674463301412  0.4475857615074614
  0.6637774792962298  0.7005476694809165  0.3808369378751605
  0.3361037683484328  0.2995165296400135  0.3808081950134152
  0.7006164431564779  0.3360243278330973  0.3807975702357297
  0.2994987488861116  0.6638172953584152  0.3808131401570172
  0.9007147515344404  0.9701655671889740  0.5360581202182813
  0.0992863362101142  0.0298087307035088  0.5360607789559373
  0.9701761788773996  0.0992614734443114  0.5360498027266065
  0.0298541106201231  0.9006717911235678  0.5360592141814799
  0.6136622427117836  0.6871676276440729  0.3808240137319777
  0.3862184293540850  0.3128831327190288  0.3808087504576947
  0.6872550794445307  0.3861401006078446  0.3807865616492178
  0.3128950707695214  0.6136993785919761  0.3808099680307898
  0.9007137983721918  0.9701629812687276  0.4639369283152925
  0.0992864855527215  0.0298056409951743  0.4639254439493100
  0.9701759475721452  0.0992613078034578  0.4639363825366780
  0.0298528846446891  0.9006687884022599  0.4639374499920357
 
  0.00000000E+00  0.00000000E+00  0.00000000E+00
  0.00000000E+00  0.00000000E+00  0.00000000E+00
  0.00000000E+00  0.00000000E+00  0.00000000E+00
  0.00000000E+00  0.00000000E+00  0.00000000E+00
  0.00000000E+00  0.00000000E+00  0.00000000E+00
  0.00000000E+00  0.00000000E+00  0.00000000E+00
  0.00000000E+00  0.00000000E+00  0.00000000E+00
  0.00000000E+00  0.00000000E+00  0.00000000E+00
  0.00000000E+00  0.00000000E+00  0.00000000E+00
  0.00000000E+00  0.00000000E+00  0.00000000E+00
  0.00000000E+00  0.00000000E+00  0.00000000E+00
  0.00000000E+00  0.00000000E+00  0.00000000E+00
  0.00000000E+00  0.00000000E+00  0.00000000E+00
  0.00000000E+00  0.00000000E+00  0.00000000E+00
  0.00000000E+00  0.00000000E+00  0.00000000E+00
  0.00000000E+00  0.00000000E+00  0.00000000E+00
  0.00000000E+00  0.00000000E+00  0.00000000E+00
  0.00000000E+00  0.00000000E+00  0.00000000E+00
  0.00000000E+00  0.00000000E+00  0.00000000E+00
  0.00000000E+00  0.00000000E+00  0.00000000E+00
  0.00000000E+00  0.00000000E+00  0.00000000E+00
  0.00000000E+00  0.00000000E+00  0.00000000E+00
  0.00000000E+00  0.00000000E+00  0.00000000E+00
  0.00000000E+00  0.00000000E+00  0.00000000E+00
  0.00000000E+00  0.00000000E+00  0.00000000E+00
  0.00000000E+00  0.00000000E+00  0.00000000E+00
  0.00000000E+00  0.00000000E+00  0.00000000E+00
  0.00000000E+00  0.00000000E+00  0.00000000E+00
  0.00000000E+00  0.00000000E+00  0.00000000E+00
  0.00000000E+00  0.00000000E+00  0.00000000E+00
  0.00000000E+00  0.00000000E+00  0.00000000E+00
  0.00000000E+00  0.00000000E+00  0.00000000E+00
  0.00000000E+00  0.00000000E+00  0.00000000E+00
  0.00000000E+00  0.00000000E+00  0.00000000E+00
  0.00000000E+00  0.00000000E+00  0.00000000E+00
  0.00000000E+00  0.00000000E+00  0.00000000E+00
  0.00000000E+00  0.00000000E+00  0.00000000E+00
  0.00000000E+00  0.00000000E+00  0.00000000E+00
  0.00000000E+00  0.00000000E+00  0.00000000E+00
  0.00000000E+00  0.00000000E+00  0.00000000E+00
  0.00000000E+00  0.00000000E+00  0.00000000E+00
  0.00000000E+00  0.00000000E+00  0.00000000E+00
  0.00000000E+00  0.00000000E+00  0.00000000E+00
  0.00000000E+00  0.00000000E+00  0.00000000E+00
  0.00000000E+00  0.00000000E+00  0.00000000E+00
  0.00000000E+00  0.00000000E+00  0.00000000E+00
  0.00000000E+00  0.00000000E+00  0.00000000E+00
  0.00000000E+00  0.00000000E+00  0.00000000E+00
  0.00000000E+00  0.00000000E+00  0.00000000E+00
  0.00000000E+00  0.00000000E+00  0.00000000E+00
  0.00000000E+00  0.00000000E+00  0.00000000E+00
  0.00000000E+00  0.00000000E+00  0.00000000E+00
  0.00000000E+00  0.00000000E+00  0.00000000E+00
  0.00000000E+00  0.00000000E+00  0.00000000E+00
  0.00000000E+00  0.00000000E+00  0.00000000E+00
  0.00000000E+00  0.00000000E+00  0.00000000E+00
  0.00000000E+00  0.00000000E+00  0.00000000E+00
  0.00000000E+00  0.00000000E+00  0.00000000E+00
  0.00000000E+00  0.00000000E+00  0.00000000E+00
  0.00000000E+00  0.00000000E+00  0.00000000E+00
  0.00000000E+00  0.00000000E+00  0.00000000E+00
  0.00000000E+00  0.00000000E+00  0.00000000E+00
  0.00000000E+00  0.00000000E+00  0.00000000E+00
  0.00000000E+00  0.00000000E+00  0.00000000E+00
  0.00000000E+00  0.00000000E+00  0.00000000E+00
  0.00000000E+00  0.00000000E+00  0.00000000E+00
  0.00000000E+00  0.00000000E+00  0.00000000E+00
  0.00000000E+00  0.00000000E+00  0.00000000E+00
  0.00000000E+00  0.00000000E+00  0.00000000E+00
  0.00000000E+00  0.00000000E+00  0.00000000E+00
  0.00000000E+00  0.00000000E+00  0.00000000E+00
  0.00000000E+00  0.00000000E+00  0.00000000E+00
  0.00000000E+00  0.00000000E+00  0.00000000E+00
  0.00000000E+00  0.00000000E+00  0.00000000E+00
  0.00000000E+00  0.00000000E+00  0.00000000E+00
  0.00000000E+00  0.00000000E+00  0.00000000E+00
  0.00000000E+00  0.00000000E+00  0.00000000E+00
  0.00000000E+00  0.00000000E+00  0.00000000E+00
  0.00000000E+00  0.00000000E+00  0.00000000E+00
  0.00000000E+00  0.00000000E+00  0.00000000E+00
  0.00000000E+00  0.00000000E+00  0.00000000E+00
  0.00000000E+00  0.00000000E+00  0.00000000E+00
  0.00000000E+00  0.00000000E+00  0.00000000E+00
  0.00000000E+00  0.00000000E+00  0.00000000E+00
  0.00000000E+00  0.00000000E+00  0.00000000E+00
  0.00000000E+00  0.00000000E+00  0.00000000E+00
  0.00000000E+00  0.00000000E+00  0.00000000E+00
  0.00000000E+00  0.00000000E+00  0.00000000E+00
  0.00000000E+00  0.00000000E+00  0.00000000E+00
  0.00000000E+00  0.00000000E+00  0.00000000E+00
  0.00000000E+00  0.00000000E+00  0.00000000E+00
  0.00000000E+00  0.00000000E+00  0.00000000E+00
  0.00000000E+00  0.00000000E+00  0.00000000E+00
  0.00000000E+00  0.00000000E+00  0.00000000E+00
  0.00000000E+00  0.00000000E+00  0.00000000E+00
  0.00000000E+00  0.00000000E+00  0.00000000E+00
  0.00000000E+00  0.00000000E+00  0.00000000E+00
  0.00000000E+00  0.00000000E+00  0.00000000E+00
  0.00000000E+00  0.00000000E+00  0.00000000E+00
  0.00000000E+00  0.00000000E+00  0.00000000E+00
  0.00000000E+00  0.00000000E+00  0.00000000E+00
  0.00000000E+00  0.00000000E+00  0.00000000E+00
  0.00000000E+00  0.00000000E+00  0.00000000E+00
  0.00000000E+00  0.00000000E+00  0.00000000E+00
  0.00000000E+00  0.00000000E+00  0.00000000E+00
  0.00000000E+00  0.00000000E+00  0.00000000E+00
  0.00000000E+00  0.00000000E+00  0.00000000E+00
  0.00000000E+00  0.00000000E+00  0.00000000E+00
  0.00000000E+00  0.00000000E+00  0.00000000E+00
  0.00000000E+00  0.00000000E+00  0.00000000E+00
  0.00000000E+00  0.00000000E+00  0.00000000E+00
  0.00000000E+00  0.00000000E+00  0.00000000E+00
  0.00000000E+00  0.00000000E+00  0.00000000E+00
  0.00000000E+00  0.00000000E+00  0.00000000E+00
  0.00000000E+00  0.00000000E+00  0.00000000E+00
  0.00000000E+00  0.00000000E+00  0.00000000E+00
  0.00000000E+00  0.00000000E+00  0.00000000E+00
  0.00000000E+00  0.00000000E+00  0.00000000E+00
  0.00000000E+00  0.00000000E+00  0.00000000E+00
  0.00000000E+00  0.00000000E+00  0.00000000E+00
  0.00000000E+00  0.00000000E+00  0.00000000E+00
  0.00000000E+00  0.00000000E+00  0.00000000E+00
  0.00000000E+00  0.00000000E+00  0.00000000E+00
  0.00000000E+00  0.00000000E+00  0.00000000E+00
  0.00000000E+00  0.00000000E+00  0.00000000E+00
  0.00000000E+00  0.00000000E+00  0.00000000E+00
  0.00000000E+00  0.00000000E+00  0.00000000E+00
  0.00000000E+00  0.00000000E+00  0.00000000E+00
  0.00000000E+00  0.00000000E+00  0.00000000E+00
  0.00000000E+00  0.00000000E+00  0.00000000E+00
  0.00000000E+00  0.00000000E+00  0.00000000E+00
  0.00000000E+00  0.00000000E+00  0.00000000E+00
  0.00000000E+00  0.00000000E+00  0.00000000E+00
  0.00000000E+00  0.00000000E+00  0.00000000E+00
  0.00000000E+00  0.00000000E+00  0.00000000E+00
  0.00000000E+00  0.00000000E+00  0.00000000E+00
  0.00000000E+00  0.00000000E+00  0.00000000E+00
  0.00000000E+00  0.00000000E+00  0.00000000E+00
  0.00000000E+00  0.00000000E+00  0.00000000E+00
  0.00000000E+00  0.00000000E+00  0.00000000E+00
  0.00000000E+00  0.00000000E+00  0.00000000E+00
  0.00000000E+00  0.00000000E+00  0.00000000E+00
  0.00000000E+00  0.00000000E+00  0.00000000E+00
  0.00000000E+00  0.00000000E+00  0.00000000E+00
  0.00000000E+00  0.00000000E+00  0.00000000E+00
  0.00000000E+00  0.00000000E+00  0.00000000E+00
  0.00000000E+00  0.00000000E+00  0.00000000E+00
  0.00000000E+00  0.00000000E+00  0.00000000E+00
  0.00000000E+00  0.00000000E+00  0.00000000E+00
  0.00000000E+00  0.00000000E+00  0.00000000E+00
  0.00000000E+00  0.00000000E+00  0.00000000E+00
  0.00000000E+00  0.00000000E+00  0.00000000E+00
  0.00000000E+00  0.00000000E+00  0.00000000E+00
  0.00000000E+00  0.00000000E+00  0.00000000E+00
  0.00000000E+00  0.00000000E+00  0.00000000E+00
  0.00000000E+00  0.00000000E+00  0.00000000E+00
  0.00000000E+00  0.00000000E+00  0.00000000E+00
  0.00000000E+00  0.00000000E+00  0.00000000E+00
  0.00000000E+00  0.00000000E+00  0.00000000E+00
  0.00000000E+00  0.00000000E+00  0.00000000E+00
  0.00000000E+00  0.00000000E+00  0.00000000E+00
  0.00000000E+00  0.00000000E+00  0.00000000E+00
  0.00000000E+00  0.00000000E+00  0.00000000E+00
  0.00000000E+00  0.00000000E+00  0.00000000E+00
  0.00000000E+00  0.00000000E+00  0.00000000E+00
  0.00000000E+00  0.00000000E+00  0.00000000E+00
  0.00000000E+00  0.00000000E+00  0.00000000E+00
  0.00000000E+00  0.00000000E+00  0.00000000E+00
  0.00000000E+00  0.00000000E+00  0.00000000E+00
  0.00000000E+00  0.00000000E+00  0.00000000E+00
  0.00000000E+00  0.00000000E+00  0.00000000E+00
  0.00000000E+00  0.00000000E+00  0.00000000E+00
  0.00000000E+00  0.00000000E+00  0.00000000E+00
  0.00000000E+00  0.00000000E+00  0.00000000E+00
  0.00000000E+00  0.00000000E+00  0.00000000E+00
  0.00000000E+00  0.00000000E+00  0.00000000E+00
  0.00000000E+00  0.00000000E+00  0.00000000E+00
  0.00000000E+00  0.00000000E+00  0.00000000E+00
  0.00000000E+00  0.00000000E+00  0.00000000E+00
  0.00000000E+00  0.00000000E+00  0.00000000E+00
  0.00000000E+00  0.00000000E+00  0.00000000E+00
  0.00000000E+00  0.00000000E+00  0.00000000E+00
  0.00000000E+00  0.00000000E+00  0.00000000E+00
  0.00000000E+00  0.00000000E+00  0.00000000E+00
  0.00000000E+00  0.00000000E+00  0.00000000E+00
  0.00000000E+00  0.00000000E+00  0.00000000E+00
  0.00000000E+00  0.00000000E+00  0.00000000E+00
  0.00000000E+00  0.00000000E+00  0.00000000E+00
  0.00000000E+00  0.00000000E+00  0.00000000E+00
  0.00000000E+00  0.00000000E+00  0.00000000E+00
  0.00000000E+00  0.00000000E+00  0.00000000E+00
  0.00000000E+00  0.00000000E+00  0.00000000E+00
  0.00000000E+00  0.00000000E+00  0.00000000E+00
  0.00000000E+00  0.00000000E+00  0.00000000E+00
  0.00000000E+00  0.00000000E+00  0.00000000E+00
  0.00000000E+00  0.00000000E+00  0.00000000E+00
  0.00000000E+00  0.00000000E+00  0.00000000E+00
  0.00000000E+00  0.00000000E+00  0.00000000E+00
  0.00000000E+00  0.00000000E+00  0.00000000E+00
  0.00000000E+00  0.00000000E+00  0.00000000E+00
  0.00000000E+00  0.00000000E+00  0.00000000E+00
  0.00000000E+00  0.00000000E+00  0.00000000E+00
  0.00000000E+00  0.00000000E+00  0.00000000E+00
  0.00000000E+00  0.00000000E+00  0.00000000E+00
  0.00000000E+00  0.00000000E+00  0.00000000E+00
  0.00000000E+00  0.00000000E+00  0.00000000E+00
  0.00000000E+00  0.00000000E+00  0.00000000E+00
  0.00000000E+00  0.00000000E+00  0.00000000E+00
  0.00000000E+00  0.00000000E+00  0.00000000E+00
  0.00000000E+00  0.00000000E+00  0.00000000E+00
  0.00000000E+00  0.00000000E+00  0.00000000E+00
  0.00000000E+00  0.00000000E+00  0.00000000E+00
  0.00000000E+00  0.00000000E+00  0.00000000E+00
  0.00000000E+00  0.00000000E+00  0.00000000E+00
  0.00000000E+00  0.00000000E+00  0.00000000E+00
  0.00000000E+00  0.00000000E+00  0.00000000E+00
  0.00000000E+00  0.00000000E+00  0.00000000E+00
  0.00000000E+00  0.00000000E+00  0.00000000E+00
  0.00000000E+00  0.00000000E+00  0.00000000E+00
  0.00000000E+00  0.00000000E+00  0.00000000E+00
  0.00000000E+00  0.00000000E+00  0.00000000E+00
  0.00000000E+00  0.00000000E+00  0.00000000E+00
  0.00000000E+00  0.00000000E+00  0.00000000E+00
  0.00000000E+00  0.00000000E+00  0.00000000E+00
  0.00000000E+00  0.00000000E+00  0.00000000E+00
  0.00000000E+00  0.00000000E+00  0.00000000E+00
  0.00000000E+00  0.00000000E+00  0.00000000E+00
  0.00000000E+00  0.00000000E+00  0.00000000E+00
  0.00000000E+00  0.00000000E+00  0.00000000E+00
  0.00000000E+00  0.00000000E+00  0.00000000E+00
  0.00000000E+00  0.00000000E+00  0.00000000E+00
  0.00000000E+00  0.00000000E+00  0.00000000E+00
  0.00000000E+00  0.00000000E+00  0.00000000E+00
  0.00000000E+00  0.00000000E+00  0.00000000E+00
  0.00000000E+00  0.00000000E+00  0.00000000E+00
  0.00000000E+00  0.00000000E+00  0.00000000E+00
  0.00000000E+00  0.00000000E+00  0.00000000E+00
  0.00000000E+00  0.00000000E+00  0.00000000E+00
  0.00000000E+00  0.00000000E+00  0.00000000E+00
  0.00000000E+00  0.00000000E+00  0.00000000E+00
  0.00000000E+00  0.00000000E+00  0.00000000E+00
  0.00000000E+00  0.00000000E+00  0.00000000E+00
  0.00000000E+00  0.00000000E+00  0.00000000E+00
  0.00000000E+00  0.00000000E+00  0.00000000E+00
  0.00000000E+00  0.00000000E+00  0.00000000E+00
  0.00000000E+00  0.00000000E+00  0.00000000E+00
  0.00000000E+00  0.00000000E+00  0.00000000E+00
  0.00000000E+00  0.00000000E+00  0.00000000E+00
  0.00000000E+00  0.00000000E+00  0.00000000E+00
  0.00000000E+00  0.00000000E+00  0.00000000E+00
  0.00000000E+00  0.00000000E+00  0.00000000E+00
  0.00000000E+00  0.00000000E+00  0.00000000E+00
  0.00000000E+00  0.00000000E+00  0.00000000E+00
  0.00000000E+00  0.00000000E+00  0.00000000E+00
  0.00000000E+00  0.00000000E+00  0.00000000E+00
  0.00000000E+00  0.00000000E+00  0.00000000E+00
  0.00000000E+00  0.00000000E+00  0.00000000E+00
  0.00000000E+00  0.00000000E+00  0.00000000E+00
  0.00000000E+00  0.00000000E+00  0.00000000E+00
  0.00000000E+00  0.00000000E+00  0.00000000E+00
  0.00000000E+00  0.00000000E+00  0.00000000E+00
  0.00000000E+00  0.00000000E+00  0.00000000E+00
  0.00000000E+00  0.00000000E+00  0.00000000E+00
  0.00000000E+00  0.00000000E+00  0.00000000E+00
  0.00000000E+00  0.00000000E+00  0.00000000E+00
  0.00000000E+00  0.00000000E+00  0.00000000E+00
  0.00000000E+00  0.00000000E+00  0.00000000E+00
  0.00000000E+00  0.00000000E+00  0.00000000E+00
  0.00000000E+00  0.00000000E+00  0.00000000E+00
  0.00000000E+00  0.00000000E+00  0.00000000E+00
  0.00000000E+00  0.00000000E+00  0.00000000E+00
  0.00000000E+00  0.00000000E+00  0.00000000E+00
  0.00000000E+00  0.00000000E+00  0.00000000E+00
  0.00000000E+00  0.00000000E+00  0.00000000E+00
  0.00000000E+00  0.00000000E+00  0.00000000E+00
  0.00000000E+00  0.00000000E+00  0.00000000E+00
  0.00000000E+00  0.00000000E+00  0.00000000E+00
  0.00000000E+00  0.00000000E+00  0.00000000E+00
  0.00000000E+00  0.00000000E+00  0.00000000E+00
  0.00000000E+00  0.00000000E+00  0.00000000E+00
  0.00000000E+00  0.00000000E+00  0.00000000E+00
  0.00000000E+00  0.00000000E+00  0.00000000E+00
  0.00000000E+00  0.00000000E+00  0.00000000E+00
  0.00000000E+00  0.00000000E+00  0.00000000E+00
  0.00000000E+00  0.00000000E+00  0.00000000E+00
  0.00000000E+00  0.00000000E+00  0.00000000E+00
  0.00000000E+00  0.00000000E+00  0.00000000E+00
  0.00000000E+00  0.00000000E+00  0.00000000E+00
  0.00000000E+00  0.00000000E+00  0.00000000E+00
  0.00000000E+00  0.00000000E+00  0.00000000E+00
  0.00000000E+00  0.00000000E+00  0.00000000E+00
  0.00000000E+00  0.00000000E+00  0.00000000E+00
  0.00000000E+00  0.00000000E+00  0.00000000E+00
  0.00000000E+00  0.00000000E+00  0.00000000E+00
  0.00000000E+00  0.00000000E+00  0.00000000E+00
  0.00000000E+00  0.00000000E+00  0.00000000E+00
  0.00000000E+00  0.00000000E+00  0.00000000E+00
  0.00000000E+00  0.00000000E+00  0.00000000E+00
  0.00000000E+00  0.00000000E+00  0.00000000E+00
  0.00000000E+00  0.00000000E+00  0.00000000E+00
  0.00000000E+00  0.00000000E+00  0.00000000E+00
  0.00000000E+00  0.00000000E+00  0.00000000E+00
  0.00000000E+00  0.00000000E+00  0.00000000E+00
  0.00000000E+00  0.00000000E+00  0.00000000E+00
  0.00000000E+00  0.00000000E+00  0.00000000E+00
  0.00000000E+00  0.00000000E+00  0.00000000E+00
  0.00000000E+00  0.00000000E+00  0.00000000E+00
  0.00000000E+00  0.00000000E+00  0.00000000E+00
  0.00000000E+00  0.00000000E+00  0.00000000E+00
  0.00000000E+00  0.00000000E+00  0.00000000E+00
  0.00000000E+00  0.00000000E+00  0.00000000E+00
  0.00000000E+00  0.00000000E+00  0.00000000E+00
  0.00000000E+00  0.00000000E+00  0.00000000E+00
  0.00000000E+00  0.00000000E+00  0.00000000E+00
  0.00000000E+00  0.00000000E+00  0.00000000E+00
  0.00000000E+00  0.00000000E+00  0.00000000E+00
  0.00000000E+00  0.00000000E+00  0.00000000E+00
  0.00000000E+00  0.00000000E+00  0.00000000E+00
  0.00000000E+00  0.00000000E+00  0.00000000E+00
  0.00000000E+00  0.00000000E+00  0.00000000E+00
  0.00000000E+00  0.00000000E+00  0.00000000E+00
  0.00000000E+00  0.00000000E+00  0.00000000E+00
  0.00000000E+00  0.00000000E+00  0.00000000E+00
  0.00000000E+00  0.00000000E+00  0.00000000E+00
  0.00000000E+00  0.00000000E+00  0.00000000E+00
  0.00000000E+00  0.00000000E+00  0.00000000E+00
  0.00000000E+00  0.00000000E+00  0.00000000E+00
  0.00000000E+00  0.00000000E+00  0.00000000E+00
  0.00000000E+00  0.00000000E+00  0.00000000E+00
  0.00000000E+00  0.00000000E+00  0.00000000E+00
  0.00000000E+00  0.00000000E+00  0.00000000E+00
  0.00000000E+00  0.00000000E+00  0.00000000E+00
  0.00000000E+00  0.00000000E+00  0.00000000E+00
  0.00000000E+00  0.00000000E+00  0.00000000E+00
  0.00000000E+00  0.00000000E+00  0.00000000E+00
  0.00000000E+00  0.00000000E+00  0.00000000E+00
  0.00000000E+00  0.00000000E+00  0.00000000E+00
  0.00000000E+00  0.00000000E+00  0.00000000E+00
  0.00000000E+00  0.00000000E+00  0.00000000E+00
  0.00000000E+00  0.00000000E+00  0.00000000E+00
  0.00000000E+00  0.00000000E+00  0.00000000E+00
  0.00000000E+00  0.00000000E+00  0.00000000E+00
  0.00000000E+00  0.00000000E+00  0.00000000E+00
  0.00000000E+00  0.00000000E+00  0.00000000E+00
  0.00000000E+00  0.00000000E+00  0.00000000E+00
  0.00000000E+00  0.00000000E+00  0.00000000E+00
  0.00000000E+00  0.00000000E+00  0.00000000E+00
  0.00000000E+00  0.00000000E+00  0.00000000E+00
  0.00000000E+00  0.00000000E+00  0.00000000E+00
  0.00000000E+00  0.00000000E+00  0.00000000E+00
  0.00000000E+00  0.00000000E+00  0.00000000E+00
  0.00000000E+00  0.00000000E+00  0.00000000E+00
  0.00000000E+00  0.00000000E+00  0.00000000E+00
  0.00000000E+00  0.00000000E+00  0.00000000E+00
  0.00000000E+00  0.00000000E+00  0.00000000E+00
  0.00000000E+00  0.00000000E+00  0.00000000E+00
  0.00000000E+00  0.00000000E+00  0.00000000E+00
  0.00000000E+00  0.00000000E+00  0.00000000E+00
  0.00000000E+00  0.00000000E+00  0.00000000E+00
  0.00000000E+00  0.00000000E+00  0.00000000E+00
  0.00000000E+00  0.00000000E+00  0.00000000E+00
  0.00000000E+00  0.00000000E+00  0.00000000E+00
  0.00000000E+00  0.00000000E+00  0.00000000E+00
  0.00000000E+00  0.00000000E+00  0.00000000E+00
  0.00000000E+00  0.00000000E+00  0.00000000E+00
  0.00000000E+00  0.00000000E+00  0.00000000E+00
  0.00000000E+00  0.00000000E+00  0.00000000E+00
  0.00000000E+00  0.00000000E+00  0.00000000E+00
  0.00000000E+00  0.00000000E+00  0.00000000E+00
  0.00000000E+00  0.00000000E+00  0.00000000E+00
  0.00000000E+00  0.00000000E+00  0.00000000E+00
  0.00000000E+00  0.00000000E+00  0.00000000E+00
  0.00000000E+00  0.00000000E+00  0.00000000E+00
  0.00000000E+00  0.00000000E+00  0.00000000E+00
  0.00000000E+00  0.00000000E+00  0.00000000E+00
  0.00000000E+00  0.00000000E+00  0.00000000E+00
  0.00000000E+00  0.00000000E+00  0.00000000E+00
  0.00000000E+00  0.00000000E+00  0.00000000E+00
  0.00000000E+00  0.00000000E+00  0.00000000E+00
  0.00000000E+00  0.00000000E+00  0.00000000E+00
  0.00000000E+00  0.00000000E+00  0.00000000E+00
  0.00000000E+00  0.00000000E+00  0.00000000E+00
  0.00000000E+00  0.00000000E+00  0.00000000E+00
  0.00000000E+00  0.00000000E+00  0.00000000E+00
  0.00000000E+00  0.00000000E+00  0.00000000E+00
  0.00000000E+00  0.00000000E+00  0.00000000E+00
  0.00000000E+00  0.00000000E+00  0.00000000E+00
  0.00000000E+00  0.00000000E+00  0.00000000E+00
  0.00000000E+00  0.00000000E+00  0.00000000E+00
  0.00000000E+00  0.00000000E+00  0.00000000E+00
  0.00000000E+00  0.00000000E+00  0.00000000E+00
  0.00000000E+00  0.00000000E+00  0.00000000E+00
  0.00000000E+00  0.00000000E+00  0.00000000E+00
  0.00000000E+00  0.00000000E+00  0.00000000E+00
  0.00000000E+00  0.00000000E+00  0.00000000E+00
  0.00000000E+00  0.00000000E+00  0.00000000E+00
  0.00000000E+00  0.00000000E+00  0.00000000E+00
  0.00000000E+00  0.00000000E+00  0.00000000E+00
  0.00000000E+00  0.00000000E+00  0.00000000E+00
  0.00000000E+00  0.00000000E+00  0.00000000E+00
  0.00000000E+00  0.00000000E+00  0.00000000E+00
  0.00000000E+00  0.00000000E+00  0.00000000E+00
  0.00000000E+00  0.00000000E+00  0.00000000E+00
  0.00000000E+00  0.00000000E+00  0.00000000E+00
  0.00000000E+00  0.00000000E+00  0.00000000E+00
  0.00000000E+00  0.00000000E+00  0.00000000E+00
  0.00000000E+00  0.00000000E+00  0.00000000E+00
  0.00000000E+00  0.00000000E+00  0.00000000E+00
