Generated by VASPKIT code               
   1.00000000000000     
     9.8878549308535320   -0.1504027732970647    0.0000000000000000
    -4.9868125118225075    8.3394207107013614    0.0000000000000000
     0.0000000000000008    0.0000000000000014   21.9441135824177849
   C 
   156
Direct
  0.0463857942795097  0.5613010589339171  0.0690561239283469
  0.2920102161092309  0.3792207962218995  0.8500309388562703
  0.9722723221271613  0.4314928991824192  0.1131399962153181
  0.3807104609712347  0.3308031662289934  0.8123067898210053
  0.0566254756136166  0.3469089758352809  0.1124628420636908
  0.4138463631236138  0.2270500195523931  0.8484085967097850
  0.1771722905617905  0.5572540898041358  0.0411556298377332
  0.2701461849015000  0.3055004170902301  0.9090217767518070
  0.1833263378405753  0.4245716248076198  0.0679935707555411
  0.3447928746117563  0.2111785011809700  0.9080548716781113
  0.3180593663040353  0.7011553707494056  0.0267801504064036
  0.1268183575219047  0.2488047505115780  0.9401937267542282
  0.3342940045389237  0.8548983200631148  0.0399916391449997
  0.0025319988331989  0.2653522447269926  0.9134295336209500
  0.0622818622490975  0.7094828486829792  0.0818564252740556
  0.1735852699192014  0.3964987656464533  0.8240930084103897
  0.2091844651083900  0.8586826292282407  0.0676639002872642
  0.0255996427621565  0.3380992717576525  0.8563919247225581
  0.0013949105957881  0.7331891601891347  0.1381790319373021
  0.1395864643887676  0.3670005856787504  0.7595458053897400
  0.9150463027012361  0.4540391044939114  0.1679909590787257
  0.3482810454828749  0.3023598206716495  0.7502852182975226
  0.9298389842786600  0.6075761087833103  0.1806958432426728
  0.2251362286658890  0.3205759882205404  0.7234503479503479
  0.9413343676173739  0.3940389230737822  0.2243468395429558
  0.3452162782546839  0.1667438312983618  0.7220897103479905
  0.0810987601083399  0.2886008491304282  0.1668919870951784
  0.4115148231213079  0.0966908124372486  0.8208572546853796
  0.0222480066041964  0.3114083928279011  0.2238485322772548
  0.3770147337469223  0.0657009039349717  0.7563829888761415
  0.2328585769434378  0.3048771111795068  0.1783468307290946
  0.3369463875006445  0.9422742910401402  0.8521687421348804
  0.3300703018989536  0.4400671550008918  0.0790735906148413
  0.2727055255789856  0.0623469278573590  0.9379168346874469
  0.3552318960313237  0.3788844037621840  0.1352184683131387
  0.2685702184993573  0.9259833685895750  0.9093876843773780
  0.4703588989784042  0.7178698639818966  0.0385109750165637
  0.0525259315205577  0.0942681263448451  0.9713143687202693
  0.4762932089620628  0.5892241534930552  0.0639108375951029
  0.1239532230578463  0.0033843639036952  0.9697151303783041
  0.4959586848961369  0.9670507869404807  0.0594904524302441
  0.8507054909171990  0.1211793569636481  0.9278638086965955
  0.5796088244940282  0.8817450947952710  0.0588061859891133
  0.8821514306001174  0.0155252657379369  0.9634624020915755
  0.5256902034547293  0.0782593907999079  0.1057630437787637
  0.7281444501763784  0.0554314945221616  0.8847484632388846
  0.2390703216278974  0.9747389313341017  0.1146059628933792
  0.8986953782456614  0.2696802269990151  0.8117222488472882
  0.1112410157194653  0.8972282357737736  0.1586434606079530
  0.9696390760741126  0.2870453553632042  0.7522979047609538
  0.3954998021436740  0.0829855271428447  0.1339152942263073
  0.7526093835000989  0.1315332152443007  0.8254653635029749
  0.1444231414611096  0.9296704059448012  0.2205832850420930
  0.8918743330990793  0.1647304378322990  0.7091065133200698
  0.9655543142050779  0.6422837109716140  0.2448228057250075
  0.1447136837736299  0.1944299042013735  0.6783335387238907
  0.9733315129696980  0.5105428672073584  0.2713744575257654
  0.2189186231085291  0.0993740066167373  0.6773846631301257
  0.0700523740775921  0.8003475296438606  0.2643806270056537
  0.9808017113531891  0.1176845137211761  0.6713552791490864
  0.0863184302169929  0.5421922921641015  0.3164381774954680
  0.1269915206195659  0.9323384012093403  0.6684779131728436
  0.1379579736909295  0.3429849767825027  0.2706089704154984
  0.2805679199267997  0.8926855108505639  0.7476361796979186
  0.2680413758296470  0.3386457450189390  0.2423935995952064
  0.2557880350019403  0.8164526513838404  0.8069605344726888
  0.1692711138851190  0.4562830705352239  0.3160996954114160
  0.1581487653060028  0.8269060473121304  0.7044540298490194
  0.4238932491833128  0.4467059565717177  0.2612427651106242
  0.1102507888425577  0.6778681115862671  0.8207034423809008
  0.5172830494384451  0.4904287918738796  0.1548856264570928
  0.1170450492156780  0.7821584224957148  0.9235994249135195
  0.5920398649986378  0.6206128492155913  0.1108112880918661
  0.0279342029509641  0.8298484083575050  0.9608016118971018
  0.5509552286757275  0.5236163099521591  0.2169219549018893
  0.0392254094255348  0.6595631377306311  0.8803860934479636
  0.6913899337196957  0.9118164117260753  0.1039465777397948
  0.7901135732549924  0.8486095377558976  0.9548366401325151
  0.6975157474171659  0.7790820093123613  0.1305566468137554
  0.8638973584262348  0.7532088708567108  0.9539901848052748
  0.6401858498270500  0.1083227730119417  0.1527056821013166
  0.6314396107698491  0.8821742408101371  0.8761362352403478
  0.7222784504055275  0.0273013822349637  0.1516479946883303
  0.6633301821118384  0.7810952835300907  0.9104840649172676
  0.4301538922573367  0.1165030762201854  0.1976658665789594
  0.6715222007626204  0.0056329846100850  0.7802284423262261
  0.3073415755226191  0.0395715378640307  0.2408070429678940
  0.7398933161925516  0.0215415234887997  0.7229318949132832
  0.5818672172963663  0.1315959465616607  0.2097640359349045
  0.5968968634835246  0.8512687426398236  0.8116184415150538
  0.1877587033860013  0.8329127217035756  0.3112192576175816
  0.8842872482719333  0.9444002533654704  0.6617845761874150
  0.1930938066560081  0.7042287208409156  0.3374142412531038
  0.9563560419505154  0.8537268796547759  0.6604976478597127
  0.3305902295182834  0.9804180641714637  0.2965287077508892
  0.7352266979341041  0.8853356225043446  0.6939780982870624
  0.3303617299149594  0.5678277065758989  0.3356225054395828
  0.0065901026914855  0.6831356254174380  0.7190336482750918
  0.4555224493639695  0.5631185435107523  0.3086555210328147
  0.9834272870608401  0.6100393807575256  0.7759978542252194
  0.3465769333182728  0.7211640477986265  0.3492319414610152
  0.8820850431470358  0.6992281802881398  0.6920378536166009
  0.6602729999664563  0.6878136317836133  0.2372589690098270
  0.8690412118327497  0.5799673848779799  0.8729638655558917
  0.7316534613850089  0.8133734971265631  0.1948483395731037
  0.7833408888289458  0.6267147968894462  0.9090401280388303
  0.7475911980299602  0.9673012472405265  0.2076851987738711
  0.6606995997168903  0.6457562226278473  0.8821424075147511
  0.6008594421466792  0.7111371594747361  0.2941357960750522
  0.8353022084445354  0.5512628230032891  0.8083626434178924
  0.6091721234660166  0.0774098192549371  0.2641825378682761
  0.5952210644834648  0.7212950566349040  0.7839988730611573
  0.4915549360112004  0.0188357794524613  0.3178505464073325
  0.6639168088207112  0.7369104502235199  0.7243033286927179
  0.4867110264491072  0.8635670510218398  0.3354523280215517
  0.7394491781338920  0.6435122324356802  0.7236298866110935
  0.6878662764353164  0.9892836281733591  0.2624689420754734
  0.6288737912254028  0.6179844534799669  0.8201247288808765
  0.6137964178294647  0.8590981982817576  0.3065473867250164
  0.7174947593542038  0.5695697955345078  0.7824505154922440
  0.7452299391831395  0.2965318219840516  0.6222378817858085
  0.5819512471535428  0.1754349089578277  0.6189061748571235
  0.4978341169128141  0.2548403041248600  0.5972622747161077
  0.7643960991227373  0.4519834240713581  0.6031439141720066
  0.6103232505991952  0.4237869709329852  0.5886399750958177
  0.8898102038141483  0.5264236583064360  0.5589873533613291
  0.8567527127353994  0.2769782491263577  0.5891638615912120
  0.9477342870472886  0.4202367383099263  0.5497044385748643
  0.8051438713286723  0.1373442068867304  0.5531335920103857
  0.5299101708436529  0.0358278508488144  0.5828920724547910
  0.6416407485667782  0.0167581265418147  0.5497759552915849
  0.3919465188922624  0.1604650279873690  0.5485971609223884
  0.4133245340528372  0.0283466311582331  0.5382049410562206
  0.3735484417260335  0.2416862860590116  0.4977285843762803
  0.5918849004152119  0.5045231800038616  0.5374313991766629
  0.4619501165535377  0.4133313553782901  0.4960002710979312
  0.8720458679634210  0.6076825048620983  0.5076172020791103
  0.7287741478284971  0.6088065829374043  0.5010714625051217
  0.9111963023292774  0.5784021662204766  0.4478880399965179
  0.9513180010987109  0.3656387228844535  0.4892389663115520
  0.8623288155404183  0.1928084057138910  0.4902737800113894
  0.9323617546501956  0.4467074788395945  0.4384920575797889
  0.5948057595526846  0.9947004418745484  0.4846315965089883
  0.4531039993024427  0.0005702967057886  0.4784177415090232
  0.7316909431006605  0.1025351860706870  0.4488963261510290
  0.3818719971400997  0.1870285114440262  0.4372326510127063
  0.4348066125728806  0.0815334426929393  0.4276645128998342
  0.5194223220870149  0.4684283633225122  0.4327217161805227
  0.6822733534163423  0.5891683609500324  0.4360681602029348
  0.7940333575401254  0.5700150321383362  0.4032099145714670
  0.4699703505515966  0.3289320863716545  0.3970003879651885
  0.8223009950153589  0.3492315641661103  0.3910102520012802
  0.7154230711799764  0.1847808756419972  0.3980170275943090
  0.5514416432424223  0.1397230875818887  0.3735178734948082
  0.7400271242987763  0.4289849460498631  0.3679317451434738
  0.5776308904013487  0.3096609712317206  0.3619870261448362
 
  0.00000000E+00  0.00000000E+00  0.00000000E+00
  0.00000000E+00  0.00000000E+00  0.00000000E+00
  0.00000000E+00  0.00000000E+00  0.00000000E+00
  0.00000000E+00  0.00000000E+00  0.00000000E+00
  0.00000000E+00  0.00000000E+00  0.00000000E+00
  0.00000000E+00  0.00000000E+00  0.00000000E+00
  0.00000000E+00  0.00000000E+00  0.00000000E+00
  0.00000000E+00  0.00000000E+00  0.00000000E+00
  0.00000000E+00  0.00000000E+00  0.00000000E+00
  0.00000000E+00  0.00000000E+00  0.00000000E+00
  0.00000000E+00  0.00000000E+00  0.00000000E+00
  0.00000000E+00  0.00000000E+00  0.00000000E+00
  0.00000000E+00  0.00000000E+00  0.00000000E+00
  0.00000000E+00  0.00000000E+00  0.00000000E+00
  0.00000000E+00  0.00000000E+00  0.00000000E+00
  0.00000000E+00  0.00000000E+00  0.00000000E+00
  0.00000000E+00  0.00000000E+00  0.00000000E+00
  0.00000000E+00  0.00000000E+00  0.00000000E+00
  0.00000000E+00  0.00000000E+00  0.00000000E+00
  0.00000000E+00  0.00000000E+00  0.00000000E+00
  0.00000000E+00  0.00000000E+00  0.00000000E+00
  0.00000000E+00  0.00000000E+00  0.00000000E+00
  0.00000000E+00  0.00000000E+00  0.00000000E+00
  0.00000000E+00  0.00000000E+00  0.00000000E+00
  0.00000000E+00  0.00000000E+00  0.00000000E+00
  0.00000000E+00  0.00000000E+00  0.00000000E+00
  0.00000000E+00  0.00000000E+00  0.00000000E+00
  0.00000000E+00  0.00000000E+00  0.00000000E+00
  0.00000000E+00  0.00000000E+00  0.00000000E+00
  0.00000000E+00  0.00000000E+00  0.00000000E+00
  0.00000000E+00  0.00000000E+00  0.00000000E+00
  0.00000000E+00  0.00000000E+00  0.00000000E+00
  0.00000000E+00  0.00000000E+00  0.00000000E+00
  0.00000000E+00  0.00000000E+00  0.00000000E+00
  0.00000000E+00  0.00000000E+00  0.00000000E+00
  0.00000000E+00  0.00000000E+00  0.00000000E+00
  0.00000000E+00  0.00000000E+00  0.00000000E+00
  0.00000000E+00  0.00000000E+00  0.00000000E+00
  0.00000000E+00  0.00000000E+00  0.00000000E+00
  0.00000000E+00  0.00000000E+00  0.00000000E+00
  0.00000000E+00  0.00000000E+00  0.00000000E+00
  0.00000000E+00  0.00000000E+00  0.00000000E+00
  0.00000000E+00  0.00000000E+00  0.00000000E+00
  0.00000000E+00  0.00000000E+00  0.00000000E+00
  0.00000000E+00  0.00000000E+00  0.00000000E+00
  0.00000000E+00  0.00000000E+00  0.00000000E+00
  0.00000000E+00  0.00000000E+00  0.00000000E+00
  0.00000000E+00  0.00000000E+00  0.00000000E+00
  0.00000000E+00  0.00000000E+00  0.00000000E+00
  0.00000000E+00  0.00000000E+00  0.00000000E+00
  0.00000000E+00  0.00000000E+00  0.00000000E+00
  0.00000000E+00  0.00000000E+00  0.00000000E+00
  0.00000000E+00  0.00000000E+00  0.00000000E+00
  0.00000000E+00  0.00000000E+00  0.00000000E+00
  0.00000000E+00  0.00000000E+00  0.00000000E+00
  0.00000000E+00  0.00000000E+00  0.00000000E+00
  0.00000000E+00  0.00000000E+00  0.00000000E+00
  0.00000000E+00  0.00000000E+00  0.00000000E+00
  0.00000000E+00  0.00000000E+00  0.00000000E+00
  0.00000000E+00  0.00000000E+00  0.00000000E+00
  0.00000000E+00  0.00000000E+00  0.00000000E+00
  0.00000000E+00  0.00000000E+00  0.00000000E+00
  0.00000000E+00  0.00000000E+00  0.00000000E+00
  0.00000000E+00  0.00000000E+00  0.00000000E+00
  0.00000000E+00  0.00000000E+00  0.00000000E+00
  0.00000000E+00  0.00000000E+00  0.00000000E+00
  0.00000000E+00  0.00000000E+00  0.00000000E+00
  0.00000000E+00  0.00000000E+00  0.00000000E+00
  0.00000000E+00  0.00000000E+00  0.00000000E+00
  0.00000000E+00  0.00000000E+00  0.00000000E+00
  0.00000000E+00  0.00000000E+00  0.00000000E+00
  0.00000000E+00  0.00000000E+00  0.00000000E+00
  0.00000000E+00  0.00000000E+00  0.00000000E+00
  0.00000000E+00  0.00000000E+00  0.00000000E+00
  0.00000000E+00  0.00000000E+00  0.00000000E+00
  0.00000000E+00  0.00000000E+00  0.00000000E+00
  0.00000000E+00  0.00000000E+00  0.00000000E+00
  0.00000000E+00  0.00000000E+00  0.00000000E+00
  0.00000000E+00  0.00000000E+00  0.00000000E+00
  0.00000000E+00  0.00000000E+00  0.00000000E+00
  0.00000000E+00  0.00000000E+00  0.00000000E+00
  0.00000000E+00  0.00000000E+00  0.00000000E+00
  0.00000000E+00  0.00000000E+00  0.00000000E+00
  0.00000000E+00  0.00000000E+00  0.00000000E+00
  0.00000000E+00  0.00000000E+00  0.00000000E+00
  0.00000000E+00  0.00000000E+00  0.00000000E+00
  0.00000000E+00  0.00000000E+00  0.00000000E+00
  0.00000000E+00  0.00000000E+00  0.00000000E+00
  0.00000000E+00  0.00000000E+00  0.00000000E+00
  0.00000000E+00  0.00000000E+00  0.00000000E+00
  0.00000000E+00  0.00000000E+00  0.00000000E+00
  0.00000000E+00  0.00000000E+00  0.00000000E+00
  0.00000000E+00  0.00000000E+00  0.00000000E+00
  0.00000000E+00  0.00000000E+00  0.00000000E+00
  0.00000000E+00  0.00000000E+00  0.00000000E+00
  0.00000000E+00  0.00000000E+00  0.00000000E+00
  0.00000000E+00  0.00000000E+00  0.00000000E+00
  0.00000000E+00  0.00000000E+00  0.00000000E+00
  0.00000000E+00  0.00000000E+00  0.00000000E+00
  0.00000000E+00  0.00000000E+00  0.00000000E+00
  0.00000000E+00  0.00000000E+00  0.00000000E+00
  0.00000000E+00  0.00000000E+00  0.00000000E+00
  0.00000000E+00  0.00000000E+00  0.00000000E+00
  0.00000000E+00  0.00000000E+00  0.00000000E+00
  0.00000000E+00  0.00000000E+00  0.00000000E+00
  0.00000000E+00  0.00000000E+00  0.00000000E+00
  0.00000000E+00  0.00000000E+00  0.00000000E+00
  0.00000000E+00  0.00000000E+00  0.00000000E+00
  0.00000000E+00  0.00000000E+00  0.00000000E+00
  0.00000000E+00  0.00000000E+00  0.00000000E+00
  0.00000000E+00  0.00000000E+00  0.00000000E+00
  0.00000000E+00  0.00000000E+00  0.00000000E+00
  0.00000000E+00  0.00000000E+00  0.00000000E+00
  0.00000000E+00  0.00000000E+00  0.00000000E+00
  0.00000000E+00  0.00000000E+00  0.00000000E+00
  0.00000000E+00  0.00000000E+00  0.00000000E+00
  0.00000000E+00  0.00000000E+00  0.00000000E+00
  0.00000000E+00  0.00000000E+00  0.00000000E+00
  0.00000000E+00  0.00000000E+00  0.00000000E+00
  0.00000000E+00  0.00000000E+00  0.00000000E+00
  0.00000000E+00  0.00000000E+00  0.00000000E+00
  0.00000000E+00  0.00000000E+00  0.00000000E+00
  0.00000000E+00  0.00000000E+00  0.00000000E+00
  0.00000000E+00  0.00000000E+00  0.00000000E+00
  0.00000000E+00  0.00000000E+00  0.00000000E+00
  0.00000000E+00  0.00000000E+00  0.00000000E+00
  0.00000000E+00  0.00000000E+00  0.00000000E+00
  0.00000000E+00  0.00000000E+00  0.00000000E+00
  0.00000000E+00  0.00000000E+00  0.00000000E+00
  0.00000000E+00  0.00000000E+00  0.00000000E+00
  0.00000000E+00  0.00000000E+00  0.00000000E+00
  0.00000000E+00  0.00000000E+00  0.00000000E+00
  0.00000000E+00  0.00000000E+00  0.00000000E+00
  0.00000000E+00  0.00000000E+00  0.00000000E+00
  0.00000000E+00  0.00000000E+00  0.00000000E+00
  0.00000000E+00  0.00000000E+00  0.00000000E+00
  0.00000000E+00  0.00000000E+00  0.00000000E+00
  0.00000000E+00  0.00000000E+00  0.00000000E+00
  0.00000000E+00  0.00000000E+00  0.00000000E+00
  0.00000000E+00  0.00000000E+00  0.00000000E+00
  0.00000000E+00  0.00000000E+00  0.00000000E+00
  0.00000000E+00  0.00000000E+00  0.00000000E+00
  0.00000000E+00  0.00000000E+00  0.00000000E+00
  0.00000000E+00  0.00000000E+00  0.00000000E+00
  0.00000000E+00  0.00000000E+00  0.00000000E+00
  0.00000000E+00  0.00000000E+00  0.00000000E+00
  0.00000000E+00  0.00000000E+00  0.00000000E+00
  0.00000000E+00  0.00000000E+00  0.00000000E+00
  0.00000000E+00  0.00000000E+00  0.00000000E+00
  0.00000000E+00  0.00000000E+00  0.00000000E+00
  0.00000000E+00  0.00000000E+00  0.00000000E+00
  0.00000000E+00  0.00000000E+00  0.00000000E+00
  0.00000000E+00  0.00000000E+00  0.00000000E+00
  0.00000000E+00  0.00000000E+00  0.00000000E+00
  0.00000000E+00  0.00000000E+00  0.00000000E+00
  0.00000000E+00  0.00000000E+00  0.00000000E+00
