Generated by VASPKIT code               
   1.00000000000000     
    26.2573262371947926    0.1520926888996424    0.0000000000000000
   -12.9948821854225791   22.2726899578471595    0.0000000000000000
     0.0000000000000013    0.0000000000000023   21.9343837204372250
  C             
   372
Direct
  0.8737192338151564  0.8637156337721708  0.5277020145838802
  0.4661069217238962  0.6675096352160276  0.4959812218185732
  0.9182062216122943  0.8460708944827724  0.5271977050285241
  0.4645352492420690  0.6926880434714876  0.5546214681907427
  0.9515778030676648  0.8670158474612055  0.5834242972551736
  0.4237257462917174  0.6446530402310918  0.5938165574444493
  0.8792286377566354  0.8952300941406770  0.5842503462758446
  0.4262556682293748  0.6042545315029210  0.4982884893119982
  0.9275128882581966  0.8974662694170115  0.6186980937913136
  0.4000709879785215  0.5900671757541608  0.5593373642023080
  0.8699285293846669  0.9441102020817309  0.5846474911231345
  0.3948759426206743  0.5739072741190433  0.4471062451121297
  0.8546270838129748  0.9630291978237420  0.5285501416226834
  0.4008430404545369  0.6059479073540534  0.3918711796787296
  0.8588102035215990  0.8817916762038760  0.4737086356910806
  0.4731985876699591  0.6989900638014979  0.4417608604111503
  0.8490631005777084  0.9324018325677556  0.4740971173702943
  0.4399046846734379  0.6677161464388042  0.3884689423835646
  0.8879538087611013  0.8830869662639820  0.4170739279447949
  0.4765908827220630  0.7565202991024219  0.4442381716707571
  0.9464172847713463  0.8474904013368125  0.4726486156386827
  0.4684030960962624  0.7483956668216445  0.5571953591912523
  0.9310116921738688  0.8662767295581032  0.4165462191594070
  0.4734901637171053  0.7799834263442542  0.5007713461515990
  0.0092865187496095  0.8701684965371546  0.4721599655142107
  0.4307926558395833  0.7580062701388569  0.5987334542186773
  0.0121754730440139  0.8888930342384185  0.5829574805366133
  0.3876902242605388  0.6537869284041953  0.6345162889509186
  0.0415110183142370  0.8905601006738205  0.5262663262561781
  0.3910758723550182  0.7116047383442144  0.6366650806399125
  0.0510760371956984  0.9421014917972707  0.6177530276256412
  0.3268473577818644  0.6080571617512703  0.6411557471875265
  0.9649588140052944  0.9487043922333852  0.6522145780151040
  0.3422304170203037  0.5462300587051024  0.5665110385293283
  0.0279227450354780  0.9714557531765141  0.6517290885639655
  0.3047994507961178  0.5551240318223155  0.6069437805479139
  0.9087962093829659  0.9972798398808979  0.6194559584707798
  0.3349503227923762  0.5172564268432542  0.4497759172597834
  0.9554249487846854  0.9995629160300787  0.6525663419034512
  0.3070970029042253  0.5017661871665833  0.5168081111364053
  0.8840734771041903  0.0278753950483154  0.5286369390632856
  0.3436505771309304  0.5793153786707858  0.3630557222032755
  0.9175039997027630  0.0490536142180142  0.5847954423456373
  0.3027068642643841  0.5295993014859977  0.4001501392138312
  0.9067444882045724  0.0595161377281034  0.4742873536389515
  0.3268849663483989  0.6163360366895110  0.3327344081372905
  0.8724288078118511  0.9652305657189797  0.4176180217829399
  0.4223472921383283  0.7058941694628559  0.3571913189997258
  0.8964999868524796  0.9347613915803030  0.3823547811654489
  0.4452459084493649  0.7610454124340299  0.3918456216075515
  0.9007726955235843  0.0277232610918893  0.4177145757368551
  0.3667962596681723  0.6806516255641918  0.3300708491939371
  0.9479923275702518  0.9678965002689945  0.3484723874783895
  0.4115287009478494  0.7888379883628184  0.3981630234613117
  0.9844178806063031  0.9006259229536802  0.3813493037477719
  0.4386984164136259  0.8084840280899984  0.5071281243826197
  0.0327976365250238  0.9030102063746875  0.4157454525246118
  0.4124800652953590  0.7953033926089882  0.5674883583222525
  0.9927787821105393  0.9505238556773622  0.3479801646870312
  0.4083028707793769  0.8126419789542688  0.4568510181530540
  0.0877389554782011  0.9552167033383907  0.4155314583855543
  0.3556600544250206  0.7856309518438239  0.5752982084904500
  0.0984464874503717  0.9447079477808571  0.5260121836791420
  0.3317891554703812  0.7013972866739002  0.6448596691734968
  0.1044600155030613  0.9765678431828562  0.5825306199897622
  0.2920538321455573  0.6371846296821376  0.6477377185991922
  0.1210254862607017  0.9764311423494022  0.4717106813225809
  0.3144554198504569  0.7379696470886670  0.6147370063550652
  0.1327612433941757  0.0390907341123387  0.5826072098181519
  0.2367388283976136  0.6118520836116513  0.6201465129983172
  0.0573227786111334  0.0363951097360329  0.6518024635059804
  0.2472374881234777  0.5280905250409376  0.5787529475330988
  0.0125255087418540  0.0537532370772602  0.6523478901503135
  0.2489855302205111  0.5004384746487410  0.5219934293759831
  0.1087960197574201  0.0695885578223326  0.6179140689539889
  0.2141388625012375  0.5566528112871506  0.5853780185588022
  0.9725267728531355  0.1011383933012986  0.5845238061663328
  0.2469961506772134  0.5206953941051574  0.4094616288215067
  0.0209087704020073  0.1036438602148595  0.6189838736397935
  0.2210945997324121  0.5072889526991703  0.4713328093350699
  0.9638347873822678  0.1134199536932220  0.4740623074769372
  0.2679506705162835  0.6058143585424683  0.3409509508986713
  0.9960727080962301  0.1337199286887870  0.5281022213832427
  0.2291751207723750  0.5590689643936337  0.3792889733246926
  0.9542291312625436  0.0621503609698227  0.3825346579011242
  0.3319484136552028  0.7097912099516777  0.3364468772062589
  0.9774176997607912  0.0328460130365481  0.3485506043035255
  0.3539673243561305  0.7629964277837938  0.3698281648214247
  0.9931663258473081  0.1152497576442822  0.4173948627886898
  0.2708228685557315  0.6634635670633411  0.3432616866350113
  0.0498693429002539  0.0047269823125258  0.3477349368716190
  0.3494478416408379  0.8019260701085602  0.4649608760719068
  0.0964677012478085  0.0070258446614033  0.3808788448708418
  0.3236565051855888  0.7883771377795479  0.5228564409772479
  0.0403797454523340  0.0556153340562921  0.3481048598567382
  0.3157830819029988  0.7717988204339468  0.4111603689344005
  0.1504520392685112  0.0413027222441624  0.4718080100200194
  0.2568920712459545  0.7117966308150492  0.5864461051673606
  0.1561587995418858  0.0720107419080375  0.5262026415230048
  0.2190815223072391  0.6499796683039878  0.5889826474402667
  0.1353373328839065  0.0602408380744404  0.4156625495477226
  0.2627817974622257  0.7434004224862246  0.5298048461891839
  0.1174681110765761  0.1213883937585809  0.5832756064261767
  0.1836631811692207  0.5613032272365798  0.5330258026303746
  0.0743577027701382  0.1380786586762367  0.5838073503382448
  0.1882467693587744  0.5380418602823381  0.4771442622035437
  0.0589462444008111  0.1567695112506900  0.5276420954096037
  0.1923606650844377  0.5690842540647719  0.4209946548931426
  0.1467413068776637  0.1228523617045327  0.5265968127957561
  0.1864132077119494  0.6185562945002423  0.5350621269301901
  0.0538022884542530  0.1372988707063897  0.4169053728878610
  0.2343128493596221  0.6724070426828219  0.3832537402693802
  0.0778746875160317  0.1068885150487525  0.3816042566436505
  0.2570093650227742  0.7274602867695026  0.4176623885295923
  0.1262338774322734  0.1092453165786944  0.4160229439437320
  0.2306582022676485  0.7130711739875241  0.4780541563131384
  0.0872702185522881  0.1584014740972038  0.4730680856896795
  0.1943549382281290  0.6240900984350644  0.4226819077361552
  0.1319896332967127  0.1410476737784165  0.4725286592798473
  0.1924254485408724  0.6494242345713301  0.4809245656742210
  0.6488256911452468  0.3806014276898452  0.6121394914758261
  0.3535446613448870  0.2545461299029814  0.5522659799144860
  0.8729294962397707  0.6241622944892062  0.5619963844369407
  0.7353187791756682  0.1323413146901763  0.5637845740390969
  0.2503798704352307  0.9256433245507564  0.5554845301093677
  0.6796680430755182  0.7511790789231712  0.5633400611779311
  0.0576101512486448  0.3121227734376887  0.5585473630613235
  0.7070919896181327  0.3912717421289996  0.6157448041340313
  0.4142001832145750  0.2816610038671580  0.5374335282081156
  0.8511618362521816  0.5644789981666519  0.5428467810155887
  0.6980507974661722  0.1475633667585335  0.5314428930705533
  0.2863175706181060  0.8992623048444720  0.5553583666616354
  0.6197835764187795  0.7099667435857797  0.5754833735386500
  0.0782036178394581  0.3716910912769048  0.5780855797228079
  0.7395555819715108  0.4282581200835807  0.5619468116442683
  0.4454390514981307  0.3395556262091770  0.5694954637267993
  0.8872482146345010  0.5423764133106709  0.5722873901856080
  0.6370775172238318  0.1077539901757932  0.5527092376749061
  0.3397565870517538  0.9380934835295873  0.5915598761885470
  0.6170344163579443  0.6613305573172612  0.6141940328847370
  0.0301358924380128  0.3732336405699660  0.6120205207599319
  0.6447599391193500  0.4106405273980904  0.5560229410090526
  0.3458442782686845  0.2945759606590070  0.5941797078786697
  0.9224460668796737  0.6397535621557870  0.6042285415403086
  0.6980567100918167  0.0828612909585995  0.6058025141975232
  0.2812552840136769  0.9813492861695261  0.5920714752472267
  0.7145550541163739  0.7282726415910311  0.5942921010898005
  0.9962039101925971  0.2762842071593501  0.5798155128819032
  0.7007646789388345  0.4401009420456717  0.5265364578779111
  0.4023471501873858  0.3459945030928412  0.6051603825971600
  0.9300115008641343  0.5889719753118797  0.6109128004156219
  0.6384135762547126  0.0693408021140082  0.5995723161605766
  0.3353680604599918  0.9873504476936569  0.6149660113506380
  0.6752037744364539  0.6740273615830235  0.6271290950306116
  0.9808179803720072  0.3143368925716808  0.6145018652446910
  0.5938828519098135  0.3696851208859098  0.5220898118795321
  0.2970612969683729  0.3010276761974334  0.5721951778478792
  0.9715851274997349  0.6963322259930116  0.5847493584721779
  0.7126714059414974  0.0360853790522625  0.5990645940255928
  0.2826023198653150  0.0294827723881094  0.5579494133248690
  0.7567361728691290  0.7289501827337744  0.5527076876300167
  0.9598575398154622  0.2410342768777665  0.5304310708495666
  0.6009359906765971  0.3212709873540850  0.6111335935267566
  0.3106157985469166  0.2369492158743018  0.5055732548357262
  0.8923258524575658  0.6700160488965921  0.5177103625302503
  0.7705514756474801  0.1147676501719053  0.5309865353508092
  0.2338183983240714  0.9403562601679237  0.4994267332407505
  0.6996765638205803  0.7638142888419842  0.5021558334750761
  0.0577387500324111  0.2998301393826709  0.4954479469182044
  0.5668247986004363  0.3143481476015177  0.5546419064726243
  0.2761599983380930  0.2667515080949519  0.5172752525760633
  0.9538393734328773  0.7154575677040044  0.5318582332065149
  0.7565515150509617  0.0547519467315818  0.5523969974539018
  0.2542566490102932  0.0053522797322625  0.5006378065177914
  0.7477181689484285  0.7499235755991960  0.4949409259041221
  0.9968695521062015  0.2554204655498598  0.4774085857135176
  0.6114607282640888  0.2725495007840137  0.6135424760645648
  0.3284496696177813  0.2472700080870593  0.4436215254879950
  0.8887249107715960  0.6561948732609784  0.4547324581940568
  0.7694794189447640  0.1136384245074786  0.4663972737658574
  0.2523281943345385  0.9277857750307483  0.4433715486245541
  0.6600082506133705  0.7367650714714533  0.4530562242649980
  0.0797307309331407  0.3466425623532769  0.4520908489562041
  0.7174733962271088  0.3424951232857816  0.6182139479897570
  0.4320623226731086  0.2924204587820712  0.4760353857215195
  0.8485245963424395  0.5506902668782861  0.4801390493867214
  0.6967709006394274  0.1463814664255283  0.4669904249349907
  0.3054766582069082  0.8879122583317612  0.4994906018725283
  0.5806659632528537  0.6824212946772105  0.5267637057583916
  0.0986709010714858  0.4179451655340257  0.5348253300119846
  0.6696871309073452  0.2831089662614439  0.6171507160461404
  0.3893223211296494  0.2755048248465133  0.4291621378055732
  0.8668654356185553  0.5962396573013091  0.4360421028607830
  0.7326718544519460  0.1295549448403271  0.4342269640838357
  0.2882111577370666  0.9012720317615139  0.4435266351965240
  0.6004553926190290  0.6959647124177765  0.4657456400612203
  0.0997933504049674  0.4056330490316233  0.4722919718176379
  0.7699327562773948  0.4020794325187891  0.5328097658376684
  0.4844331415664082  0.3855687936590064  0.5284573193652117
  0.9040811112502198  0.5131424602338982  0.5286243022799133
  0.5988156975887314  0.0843308611525944  0.5016490616038727
  0.3910976243181280  0.9482953097036344  0.5578167869696637
  0.5743236397915553  0.6038249326194034  0.5891416771732380
  0.0235020502769688  0.4225013745986794  0.5898292867547554
  0.7563539167144392  0.3489584654180841  0.5660249639199214
  0.4744487641364184  0.3570993198056788  0.4700026197319956
  0.8824689688414959  0.5192301356289289  0.4712341122242665
  0.6349894746641119  0.1055164969220177  0.4488412170303103
  0.3705738254953285  0.9183659698162213  0.5006718417349079
  0.5526348243219574  0.6165096397262493  0.5343871050482570
  0.0648810665867381  0.4497505451889970  0.5409379068505836
  0.7729632805459299  0.4019661010133503  0.4672954845848338
  0.5000817778457997  0.4504534157056360  0.5354455673768894
  0.9590232507233569  0.5095036178348223  0.5344206467046554
  0.5415118528443259  0.0245248007191742  0.5034247843063421
  0.4434485324951689  0.0057221000477916  0.5601225181923331
  0.5848878535969477  0.5545122966558520  0.5915562265982407
  0.9663272605477106  0.4154457449745620  0.5848131526219821
  0.7035687897810788  0.4399677065188339  0.4611960197018596
  0.4079848993408974  0.4036647495893251  0.6078766259511704
  0.9879999581327259  0.5965072740875964  0.6129826658579532
  0.5919301067263377  0.0081899451098105  0.6005995854370894
  0.3874621201114120  0.0452298718570466  0.6163113581440868
  0.6868857045090793  0.6254608489390469  0.6278367916159394
  0.9233248009506015  0.3068323250744647  0.6077994014221102
  0.7452490715074610  0.4277324590217127  0.4322317234238258
  0.4548648547013352  0.4526936450546752  0.5777258997034873
  0.0008439325710011  0.5570918180250244  0.5790262305565078
  0.5452540539212741  0.9878255644640139  0.5574719452720680
  0.4418808546093940  0.0510582149959118  0.5931592264343526
  0.6392110406074780  0.5658216641339081  0.6149588965156341
  0.9178672841687856  0.3592277138728709  0.5984892699192531
  0.5966938091093164  0.3696409454814510  0.4565460155348008
  0.3009351072622036  0.3581884438167783  0.5744532366312756
  0.0298106075805605  0.7044013519925939  0.5875717583244071
  0.6664301857809692  0.9748860075593129  0.6007579838537643
  0.3349345494050992  0.0874371548888577  0.5594696499768060
  0.7679628961370277  0.6799890856291575  0.5534033608119521
  0.9025060229959978  0.2339691684728286  0.5237975078484395
  0.6504037132450802  0.4103525555545074  0.4265552514484249
  0.3546925999981260  0.4081457209419811  0.5996777605510756
  0.0376145566332777  0.6559501526458309  0.6090171488353456
  0.6067829081666297  0.9617733251382198  0.6090181488044845
  0.3847437662969468  0.0955637956125219  0.5943973185819849
  0.7369308852590719  0.6317490218419978  0.5958016629950368
  0.8828841576798775  0.2622006786119022  0.5668374149633136
  0.5726413189806930  0.3138549713192343  0.4247709808157252
  0.2829028495087827  0.3802884175189923  0.5244425069472021
  0.0684674683525621  0.7310292728392426  0.5368560408311992
  0.6655143498562096  0.9340749185390321  0.5557434903989038
  0.3576836222849352  0.1193665378176214  0.5035399920492037
  0.7702074660371486  0.6535142548163481  0.4966169326678103
  0.8832837982855257  0.2408738520179780  0.4645817120508776
  0.5563027459418736  0.2611286880024563  0.5236299308455086
  0.2722064612986058  0.2947660039972889  0.4620250050408018
  0.9877011509956560  0.7288484357726163  0.4764369264060828
  0.7481666821590611  0.0172397028749871  0.5003967433917315
  0.2846880503161973  0.0316619345421884  0.4447655478088406
  0.7369274744922020  0.7146382989932709  0.4413022412375452
  0.9824668986586725  0.2756661349106341  0.4230013467979183
  0.5840494279476842  0.2353368437228671  0.5585643227488699
  0.3051180727453734  0.2834984367349060  0.4167995394906331
  0.9485349096476023  0.6919865593086334  0.4294475882198196
  0.7544986720539142  0.0525306092399396  0.4471470244271469
  0.2845443129323668  0.9848777654209918  0.4092590421722209
  0.6826251650155594  0.7053019590111123  0.4145213476483371
  0.0328384227503835  0.3323358378489463  0.4063861332974919
  0.5593108039442155  0.2609688764368028  0.4581083983887741
  0.2770832576882213  0.3530714710364511  0.4655683738045044
  0.0456381026098133  0.7365223930092365  0.4790452785996137
  0.7018214138023092  0.9563364661732928  0.5020128096175267
  0.3369440266807839  0.0896018117798124  0.4461619390659318
  0.7484969569063299  0.6657044225680682  0.4419317731780857
  0.9246433672120338  0.2680857938490349  0.4161391852510458
  0.6787336686533147  0.2523180337559650  0.5643523892361708
  0.4042185166180641  0.3285908566201385  0.3924641119396226
  0.9129973761901612  0.5942282796742895  0.3989466994320872
  0.6938645880709937  0.0783986815445349  0.3947843464539124
  0.3429387137221378  0.9415599283493701  0.4097065784001220
  0.5853285334503161  0.6386661504697896  0.4360468962710927
  0.0661028649268318  0.4290049603004676  0.4400320676255413
  0.7322428255852486  0.2932909565768022  0.5342124064439477
  0.4573809476340140  0.3785658539321402  0.4171814728757068
  0.9211442148878287  0.5456109817772014  0.4200564258819448
  0.6344858526142746  0.0651854989736669  0.4031054138900135
  0.3930257996083120  0.9505739079310178  0.4449319039028957
  0.5552431843886083  0.5910251523036095  0.4779986544778690
  0.0469008036528658  0.4576507759260753  0.4820089394416225
  0.6256354389934161  0.2229596453458161  0.5296411710694753
  0.3516885547471544  0.3326603192415420  0.3843662149312371
  0.9619011340464876  0.6532338913142013  0.3934046926103183
  0.7088710978465949  0.0319867278439425  0.4022096221808508
  0.3394191531513076  0.9917483089269196  0.3877058098167243
  0.6361784284492635  0.6456522547023055  0.4038690206327573
  0.0258138055661085  0.3833980603491823  0.3988017460289936
  0.7622646262405948  0.3485440373661558  0.4363874775042876
  0.4921171152101556  0.4772220508944918  0.4720647769945083
  0.9973959990931507  0.5256151381741413  0.4721263963519036
  0.5432006929181118  0.9855330191089759  0.4505318283042887
  0.4842737532502032  0.0319620122089561  0.5036086785285884
  0.5654023894675735  0.5084980122687964  0.5397523969578129
  0.9514344493612181  0.4444818955812558  0.5325668210139202
  0.7352982018703824  0.2931084688825201  0.4688225846200436
  0.4629175254396372  0.4356048244701179  0.4185293426765504
  0.9786550178101127  0.5528608852626705  0.4209921070801949
  0.5881181974259786  0.0040718803715295  0.4053375459845330
  0.4454043902981223  0.0080010979378148  0.4455327532616012
  0.5558949786943405  0.5332376064635763  0.4746970964031192
  0.9922377454834734  0.4613805883783726  0.4719695287596040
  0.7178583507429402  0.3903839861094404  0.3772802257725083
  0.4298425823927666  0.4851172122238448  0.5497755793301231
  0.0587596131614107  0.5928091460594211  0.5523679996618502
  0.5327697158813076  0.9289348491950629  0.5373912450162518
  0.4743740028862468  0.1082433956243444  0.5595856975319835
  0.6619060998276114  0.5343510779140629  0.5771968784550648
  0.8710089654066544  0.3449757023417971  0.5531004612284655
  0.6594949486144196  0.3796403638519781  0.3738636353848876
  0.3690364136504454  0.4592888835102882  0.5658247276856834
  0.0830547736549191  0.6535698835307900  0.5718561457402255
  0.5680888225425165  0.9108787086316108  0.5701283382927320
  0.4393472396569578  0.1356585580591428  0.5603773661554813
  0.7215904045452155  0.5744127258835102  0.5656641784339520
  0.8493652606088586  0.2854814355655364  0.5340531957773872
  0.6117270304514988  0.3203662444369053  0.3726324567932018
  0.3218260410505153  0.4485775278261163  0.5203712423246584
  0.1013599177476761  0.6989294860860167  0.5275584511603615
  0.6040774408070119  0.8944111680949752  0.5368739947306210
  0.4225645398965057  0.1504310528342354  0.5047853697963038
  0.7415230834237999  0.5879210416743630  0.5045064583536255
  0.8499384789797533  0.2727979978118608  0.4712307017711997
  0.7282834966287861  0.3416427742499373  0.3798911579647395
  0.4465683125598748  0.4946882301865012  0.4882822808638830
  0.0563297520188090  0.5787730139682248  0.4901984076604537
  0.5317233936317872  0.9277631165573614  0.4727830835103473
  0.4951947142882253  0.0970066754910374  0.5047947337859472
  0.6215266211194322  0.5058559673991324  0.5290467903556947
  0.8928006195698361  0.3922429529017857  0.5106720310719560
  0.5900195931342650  0.2349574506516535  0.4290399304014900
  0.3137553346731176  0.3983150319289431  0.4227409807104623
  0.0626164567174799  0.7071563966341194  0.4344392968091605
  0.6634979276535069  0.9320044038292405  0.4501052182239140
  0.3879586002625788  0.0990995509657449  0.4126616455580850
  0.7058839318708096  0.6087541420575099  0.4167027570992877
  0.9183021311224532  0.3170321992871895  0.3936930911365262
  0.6286001639052585  0.2227050805243606  0.4642503102352944
  0.3556019368947125  0.3896724677559698  0.3883247260715935
  0.0197723367355563  0.6612524421547307  0.3961055395547423
  0.6625694829386198  0.9708178758438475  0.4037848061361676
  0.3915078842161804  0.0496677707447365  0.3892909218115365
  0.6471624233862917  0.5962858432081615  0.4052639867621087
  0.9682094261276786  0.3762604622974983  0.3926032243531672
  0.6846683183841850  0.2518518848378813  0.4346713786143754
  0.4129219330241024  0.4397156925775860  0.4013624884617472
  0.0258713693253747  0.6091120559547752  0.4046053147202456
  0.6026410530847777  0.9574163897526049  0.3977811632181930
  0.4450918698336981  0.0546269606543651  0.4138167566350676
  0.6073899307058649  0.5418689965404795  0.4362094646430451
  0.9534466190062789  0.4148404189413047  0.4254957826916222
  0.6223489973102327  0.2717156470425790  0.3752964989448082
  0.3435976008098099  0.4608105947432359  0.4522248084606663
  0.0980780873883410  0.6847171648298140  0.4646370486688296
  0.6028641878235611  0.8932704628263295  0.4720271477466543
  0.4412388513931048  0.1377538463979342  0.4492127880531583
  0.7025816280039020  0.5607140205966946  0.4557409152386640
  0.8709245050676617  0.3189904858250173  0.4277778901826775
  0.6805239626753045  0.2821545830796348  0.3787085496467529
  0.4059548049792160  0.4791247438641051  0.4420232047089780
  0.0754885582034506  0.6248467318410099  0.4466064630252548
  0.5656630379140467  0.9082968962078908  0.4393733871413956
  0.4762919408800093  0.1103815385486879  0.4499516549578189
  0.6418346575547785  0.5210007300574589  0.4685565883251350
  0.8941776860689340  0.3792492103851667  0.4484817132376596
 
  0.00000000E+00  0.00000000E+00  0.00000000E+00
  0.00000000E+00  0.00000000E+00  0.00000000E+00
  0.00000000E+00  0.00000000E+00  0.00000000E+00
  0.00000000E+00  0.00000000E+00  0.00000000E+00
  0.00000000E+00  0.00000000E+00  0.00000000E+00
  0.00000000E+00  0.00000000E+00  0.00000000E+00
  0.00000000E+00  0.00000000E+00  0.00000000E+00
  0.00000000E+00  0.00000000E+00  0.00000000E+00
  0.00000000E+00  0.00000000E+00  0.00000000E+00
  0.00000000E+00  0.00000000E+00  0.00000000E+00
  0.00000000E+00  0.00000000E+00  0.00000000E+00
  0.00000000E+00  0.00000000E+00  0.00000000E+00
  0.00000000E+00  0.00000000E+00  0.00000000E+00
  0.00000000E+00  0.00000000E+00  0.00000000E+00
  0.00000000E+00  0.00000000E+00  0.00000000E+00
  0.00000000E+00  0.00000000E+00  0.00000000E+00
  0.00000000E+00  0.00000000E+00  0.00000000E+00
  0.00000000E+00  0.00000000E+00  0.00000000E+00
  0.00000000E+00  0.00000000E+00  0.00000000E+00
  0.00000000E+00  0.00000000E+00  0.00000000E+00
  0.00000000E+00  0.00000000E+00  0.00000000E+00
  0.00000000E+00  0.00000000E+00  0.00000000E+00
  0.00000000E+00  0.00000000E+00  0.00000000E+00
  0.00000000E+00  0.00000000E+00  0.00000000E+00
  0.00000000E+00  0.00000000E+00  0.00000000E+00
  0.00000000E+00  0.00000000E+00  0.00000000E+00
  0.00000000E+00  0.00000000E+00  0.00000000E+00
  0.00000000E+00  0.00000000E+00  0.00000000E+00
  0.00000000E+00  0.00000000E+00  0.00000000E+00
  0.00000000E+00  0.00000000E+00  0.00000000E+00
  0.00000000E+00  0.00000000E+00  0.00000000E+00
  0.00000000E+00  0.00000000E+00  0.00000000E+00
  0.00000000E+00  0.00000000E+00  0.00000000E+00
  0.00000000E+00  0.00000000E+00  0.00000000E+00
  0.00000000E+00  0.00000000E+00  0.00000000E+00
  0.00000000E+00  0.00000000E+00  0.00000000E+00
  0.00000000E+00  0.00000000E+00  0.00000000E+00
  0.00000000E+00  0.00000000E+00  0.00000000E+00
  0.00000000E+00  0.00000000E+00  0.00000000E+00
  0.00000000E+00  0.00000000E+00  0.00000000E+00
  0.00000000E+00  0.00000000E+00  0.00000000E+00
  0.00000000E+00  0.00000000E+00  0.00000000E+00
  0.00000000E+00  0.00000000E+00  0.00000000E+00
  0.00000000E+00  0.00000000E+00  0.00000000E+00
  0.00000000E+00  0.00000000E+00  0.00000000E+00
  0.00000000E+00  0.00000000E+00  0.00000000E+00
  0.00000000E+00  0.00000000E+00  0.00000000E+00
  0.00000000E+00  0.00000000E+00  0.00000000E+00
  0.00000000E+00  0.00000000E+00  0.00000000E+00
  0.00000000E+00  0.00000000E+00  0.00000000E+00
  0.00000000E+00  0.00000000E+00  0.00000000E+00
  0.00000000E+00  0.00000000E+00  0.00000000E+00
  0.00000000E+00  0.00000000E+00  0.00000000E+00
  0.00000000E+00  0.00000000E+00  0.00000000E+00
  0.00000000E+00  0.00000000E+00  0.00000000E+00
  0.00000000E+00  0.00000000E+00  0.00000000E+00
  0.00000000E+00  0.00000000E+00  0.00000000E+00
  0.00000000E+00  0.00000000E+00  0.00000000E+00
  0.00000000E+00  0.00000000E+00  0.00000000E+00
  0.00000000E+00  0.00000000E+00  0.00000000E+00
  0.00000000E+00  0.00000000E+00  0.00000000E+00
  0.00000000E+00  0.00000000E+00  0.00000000E+00
  0.00000000E+00  0.00000000E+00  0.00000000E+00
  0.00000000E+00  0.00000000E+00  0.00000000E+00
  0.00000000E+00  0.00000000E+00  0.00000000E+00
  0.00000000E+00  0.00000000E+00  0.00000000E+00
  0.00000000E+00  0.00000000E+00  0.00000000E+00
  0.00000000E+00  0.00000000E+00  0.00000000E+00
  0.00000000E+00  0.00000000E+00  0.00000000E+00
  0.00000000E+00  0.00000000E+00  0.00000000E+00
  0.00000000E+00  0.00000000E+00  0.00000000E+00
  0.00000000E+00  0.00000000E+00  0.00000000E+00
  0.00000000E+00  0.00000000E+00  0.00000000E+00
  0.00000000E+00  0.00000000E+00  0.00000000E+00
  0.00000000E+00  0.00000000E+00  0.00000000E+00
  0.00000000E+00  0.00000000E+00  0.00000000E+00
  0.00000000E+00  0.00000000E+00  0.00000000E+00
  0.00000000E+00  0.00000000E+00  0.00000000E+00
  0.00000000E+00  0.00000000E+00  0.00000000E+00
  0.00000000E+00  0.00000000E+00  0.00000000E+00
  0.00000000E+00  0.00000000E+00  0.00000000E+00
  0.00000000E+00  0.00000000E+00  0.00000000E+00
  0.00000000E+00  0.00000000E+00  0.00000000E+00
  0.00000000E+00  0.00000000E+00  0.00000000E+00
  0.00000000E+00  0.00000000E+00  0.00000000E+00
  0.00000000E+00  0.00000000E+00  0.00000000E+00
  0.00000000E+00  0.00000000E+00  0.00000000E+00
  0.00000000E+00  0.00000000E+00  0.00000000E+00
  0.00000000E+00  0.00000000E+00  0.00000000E+00
  0.00000000E+00  0.00000000E+00  0.00000000E+00
  0.00000000E+00  0.00000000E+00  0.00000000E+00
  0.00000000E+00  0.00000000E+00  0.00000000E+00
  0.00000000E+00  0.00000000E+00  0.00000000E+00
  0.00000000E+00  0.00000000E+00  0.00000000E+00
  0.00000000E+00  0.00000000E+00  0.00000000E+00
  0.00000000E+00  0.00000000E+00  0.00000000E+00
  0.00000000E+00  0.00000000E+00  0.00000000E+00
  0.00000000E+00  0.00000000E+00  0.00000000E+00
  0.00000000E+00  0.00000000E+00  0.00000000E+00
  0.00000000E+00  0.00000000E+00  0.00000000E+00
  0.00000000E+00  0.00000000E+00  0.00000000E+00
  0.00000000E+00  0.00000000E+00  0.00000000E+00
  0.00000000E+00  0.00000000E+00  0.00000000E+00
  0.00000000E+00  0.00000000E+00  0.00000000E+00
  0.00000000E+00  0.00000000E+00  0.00000000E+00
  0.00000000E+00  0.00000000E+00  0.00000000E+00
  0.00000000E+00  0.00000000E+00  0.00000000E+00
  0.00000000E+00  0.00000000E+00  0.00000000E+00
  0.00000000E+00  0.00000000E+00  0.00000000E+00
  0.00000000E+00  0.00000000E+00  0.00000000E+00
  0.00000000E+00  0.00000000E+00  0.00000000E+00
  0.00000000E+00  0.00000000E+00  0.00000000E+00
  0.00000000E+00  0.00000000E+00  0.00000000E+00
  0.00000000E+00  0.00000000E+00  0.00000000E+00
  0.00000000E+00  0.00000000E+00  0.00000000E+00
  0.00000000E+00  0.00000000E+00  0.00000000E+00
  0.00000000E+00  0.00000000E+00  0.00000000E+00
  0.00000000E+00  0.00000000E+00  0.00000000E+00
  0.00000000E+00  0.00000000E+00  0.00000000E+00
  0.00000000E+00  0.00000000E+00  0.00000000E+00
  0.00000000E+00  0.00000000E+00  0.00000000E+00
  0.00000000E+00  0.00000000E+00  0.00000000E+00
  0.00000000E+00  0.00000000E+00  0.00000000E+00
  0.00000000E+00  0.00000000E+00  0.00000000E+00
  0.00000000E+00  0.00000000E+00  0.00000000E+00
  0.00000000E+00  0.00000000E+00  0.00000000E+00
  0.00000000E+00  0.00000000E+00  0.00000000E+00
  0.00000000E+00  0.00000000E+00  0.00000000E+00
  0.00000000E+00  0.00000000E+00  0.00000000E+00
  0.00000000E+00  0.00000000E+00  0.00000000E+00
  0.00000000E+00  0.00000000E+00  0.00000000E+00
  0.00000000E+00  0.00000000E+00  0.00000000E+00
  0.00000000E+00  0.00000000E+00  0.00000000E+00
  0.00000000E+00  0.00000000E+00  0.00000000E+00
  0.00000000E+00  0.00000000E+00  0.00000000E+00
  0.00000000E+00  0.00000000E+00  0.00000000E+00
  0.00000000E+00  0.00000000E+00  0.00000000E+00
  0.00000000E+00  0.00000000E+00  0.00000000E+00
  0.00000000E+00  0.00000000E+00  0.00000000E+00
  0.00000000E+00  0.00000000E+00  0.00000000E+00
  0.00000000E+00  0.00000000E+00  0.00000000E+00
  0.00000000E+00  0.00000000E+00  0.00000000E+00
  0.00000000E+00  0.00000000E+00  0.00000000E+00
  0.00000000E+00  0.00000000E+00  0.00000000E+00
  0.00000000E+00  0.00000000E+00  0.00000000E+00
  0.00000000E+00  0.00000000E+00  0.00000000E+00
  0.00000000E+00  0.00000000E+00  0.00000000E+00
  0.00000000E+00  0.00000000E+00  0.00000000E+00
  0.00000000E+00  0.00000000E+00  0.00000000E+00
  0.00000000E+00  0.00000000E+00  0.00000000E+00
  0.00000000E+00  0.00000000E+00  0.00000000E+00
  0.00000000E+00  0.00000000E+00  0.00000000E+00
  0.00000000E+00  0.00000000E+00  0.00000000E+00
  0.00000000E+00  0.00000000E+00  0.00000000E+00
  0.00000000E+00  0.00000000E+00  0.00000000E+00
  0.00000000E+00  0.00000000E+00  0.00000000E+00
  0.00000000E+00  0.00000000E+00  0.00000000E+00
  0.00000000E+00  0.00000000E+00  0.00000000E+00
  0.00000000E+00  0.00000000E+00  0.00000000E+00
  0.00000000E+00  0.00000000E+00  0.00000000E+00
  0.00000000E+00  0.00000000E+00  0.00000000E+00
  0.00000000E+00  0.00000000E+00  0.00000000E+00
  0.00000000E+00  0.00000000E+00  0.00000000E+00
  0.00000000E+00  0.00000000E+00  0.00000000E+00
  0.00000000E+00  0.00000000E+00  0.00000000E+00
  0.00000000E+00  0.00000000E+00  0.00000000E+00
  0.00000000E+00  0.00000000E+00  0.00000000E+00
  0.00000000E+00  0.00000000E+00  0.00000000E+00
  0.00000000E+00  0.00000000E+00  0.00000000E+00
  0.00000000E+00  0.00000000E+00  0.00000000E+00
  0.00000000E+00  0.00000000E+00  0.00000000E+00
  0.00000000E+00  0.00000000E+00  0.00000000E+00
  0.00000000E+00  0.00000000E+00  0.00000000E+00
  0.00000000E+00  0.00000000E+00  0.00000000E+00
  0.00000000E+00  0.00000000E+00  0.00000000E+00
  0.00000000E+00  0.00000000E+00  0.00000000E+00
  0.00000000E+00  0.00000000E+00  0.00000000E+00
  0.00000000E+00  0.00000000E+00  0.00000000E+00
  0.00000000E+00  0.00000000E+00  0.00000000E+00
  0.00000000E+00  0.00000000E+00  0.00000000E+00
  0.00000000E+00  0.00000000E+00  0.00000000E+00
  0.00000000E+00  0.00000000E+00  0.00000000E+00
  0.00000000E+00  0.00000000E+00  0.00000000E+00
  0.00000000E+00  0.00000000E+00  0.00000000E+00
  0.00000000E+00  0.00000000E+00  0.00000000E+00
  0.00000000E+00  0.00000000E+00  0.00000000E+00
  0.00000000E+00  0.00000000E+00  0.00000000E+00
  0.00000000E+00  0.00000000E+00  0.00000000E+00
  0.00000000E+00  0.00000000E+00  0.00000000E+00
  0.00000000E+00  0.00000000E+00  0.00000000E+00
  0.00000000E+00  0.00000000E+00  0.00000000E+00
  0.00000000E+00  0.00000000E+00  0.00000000E+00
  0.00000000E+00  0.00000000E+00  0.00000000E+00
  0.00000000E+00  0.00000000E+00  0.00000000E+00
  0.00000000E+00  0.00000000E+00  0.00000000E+00
  0.00000000E+00  0.00000000E+00  0.00000000E+00
  0.00000000E+00  0.00000000E+00  0.00000000E+00
  0.00000000E+00  0.00000000E+00  0.00000000E+00
  0.00000000E+00  0.00000000E+00  0.00000000E+00
  0.00000000E+00  0.00000000E+00  0.00000000E+00
  0.00000000E+00  0.00000000E+00  0.00000000E+00
  0.00000000E+00  0.00000000E+00  0.00000000E+00
  0.00000000E+00  0.00000000E+00  0.00000000E+00
  0.00000000E+00  0.00000000E+00  0.00000000E+00
  0.00000000E+00  0.00000000E+00  0.00000000E+00
  0.00000000E+00  0.00000000E+00  0.00000000E+00
  0.00000000E+00  0.00000000E+00  0.00000000E+00
  0.00000000E+00  0.00000000E+00  0.00000000E+00
  0.00000000E+00  0.00000000E+00  0.00000000E+00
  0.00000000E+00  0.00000000E+00  0.00000000E+00
  0.00000000E+00  0.00000000E+00  0.00000000E+00
  0.00000000E+00  0.00000000E+00  0.00000000E+00
  0.00000000E+00  0.00000000E+00  0.00000000E+00
  0.00000000E+00  0.00000000E+00  0.00000000E+00
  0.00000000E+00  0.00000000E+00  0.00000000E+00
  0.00000000E+00  0.00000000E+00  0.00000000E+00
  0.00000000E+00  0.00000000E+00  0.00000000E+00
  0.00000000E+00  0.00000000E+00  0.00000000E+00
  0.00000000E+00  0.00000000E+00  0.00000000E+00
  0.00000000E+00  0.00000000E+00  0.00000000E+00
  0.00000000E+00  0.00000000E+00  0.00000000E+00
  0.00000000E+00  0.00000000E+00  0.00000000E+00
  0.00000000E+00  0.00000000E+00  0.00000000E+00
  0.00000000E+00  0.00000000E+00  0.00000000E+00
  0.00000000E+00  0.00000000E+00  0.00000000E+00
  0.00000000E+00  0.00000000E+00  0.00000000E+00
  0.00000000E+00  0.00000000E+00  0.00000000E+00
  0.00000000E+00  0.00000000E+00  0.00000000E+00
  0.00000000E+00  0.00000000E+00  0.00000000E+00
  0.00000000E+00  0.00000000E+00  0.00000000E+00
  0.00000000E+00  0.00000000E+00  0.00000000E+00
  0.00000000E+00  0.00000000E+00  0.00000000E+00
  0.00000000E+00  0.00000000E+00  0.00000000E+00
  0.00000000E+00  0.00000000E+00  0.00000000E+00
  0.00000000E+00  0.00000000E+00  0.00000000E+00
  0.00000000E+00  0.00000000E+00  0.00000000E+00
  0.00000000E+00  0.00000000E+00  0.00000000E+00
  0.00000000E+00  0.00000000E+00  0.00000000E+00
  0.00000000E+00  0.00000000E+00  0.00000000E+00
  0.00000000E+00  0.00000000E+00  0.00000000E+00
  0.00000000E+00  0.00000000E+00  0.00000000E+00
  0.00000000E+00  0.00000000E+00  0.00000000E+00
  0.00000000E+00  0.00000000E+00  0.00000000E+00
  0.00000000E+00  0.00000000E+00  0.00000000E+00
  0.00000000E+00  0.00000000E+00  0.00000000E+00
  0.00000000E+00  0.00000000E+00  0.00000000E+00
  0.00000000E+00  0.00000000E+00  0.00000000E+00
  0.00000000E+00  0.00000000E+00  0.00000000E+00
  0.00000000E+00  0.00000000E+00  0.00000000E+00
  0.00000000E+00  0.00000000E+00  0.00000000E+00
  0.00000000E+00  0.00000000E+00  0.00000000E+00
  0.00000000E+00  0.00000000E+00  0.00000000E+00
  0.00000000E+00  0.00000000E+00  0.00000000E+00
  0.00000000E+00  0.00000000E+00  0.00000000E+00
  0.00000000E+00  0.00000000E+00  0.00000000E+00
  0.00000000E+00  0.00000000E+00  0.00000000E+00
  0.00000000E+00  0.00000000E+00  0.00000000E+00
  0.00000000E+00  0.00000000E+00  0.00000000E+00
  0.00000000E+00  0.00000000E+00  0.00000000E+00
  0.00000000E+00  0.00000000E+00  0.00000000E+00
  0.00000000E+00  0.00000000E+00  0.00000000E+00
  0.00000000E+00  0.00000000E+00  0.00000000E+00
  0.00000000E+00  0.00000000E+00  0.00000000E+00
  0.00000000E+00  0.00000000E+00  0.00000000E+00
  0.00000000E+00  0.00000000E+00  0.00000000E+00
  0.00000000E+00  0.00000000E+00  0.00000000E+00
  0.00000000E+00  0.00000000E+00  0.00000000E+00
  0.00000000E+00  0.00000000E+00  0.00000000E+00
  0.00000000E+00  0.00000000E+00  0.00000000E+00
  0.00000000E+00  0.00000000E+00  0.00000000E+00
  0.00000000E+00  0.00000000E+00  0.00000000E+00
  0.00000000E+00  0.00000000E+00  0.00000000E+00
  0.00000000E+00  0.00000000E+00  0.00000000E+00
  0.00000000E+00  0.00000000E+00  0.00000000E+00
  0.00000000E+00  0.00000000E+00  0.00000000E+00
  0.00000000E+00  0.00000000E+00  0.00000000E+00
  0.00000000E+00  0.00000000E+00  0.00000000E+00
  0.00000000E+00  0.00000000E+00  0.00000000E+00
  0.00000000E+00  0.00000000E+00  0.00000000E+00
  0.00000000E+00  0.00000000E+00  0.00000000E+00
  0.00000000E+00  0.00000000E+00  0.00000000E+00
  0.00000000E+00  0.00000000E+00  0.00000000E+00
  0.00000000E+00  0.00000000E+00  0.00000000E+00
  0.00000000E+00  0.00000000E+00  0.00000000E+00
  0.00000000E+00  0.00000000E+00  0.00000000E+00
  0.00000000E+00  0.00000000E+00  0.00000000E+00
  0.00000000E+00  0.00000000E+00  0.00000000E+00
  0.00000000E+00  0.00000000E+00  0.00000000E+00
  0.00000000E+00  0.00000000E+00  0.00000000E+00
  0.00000000E+00  0.00000000E+00  0.00000000E+00
  0.00000000E+00  0.00000000E+00  0.00000000E+00
  0.00000000E+00  0.00000000E+00  0.00000000E+00
  0.00000000E+00  0.00000000E+00  0.00000000E+00
  0.00000000E+00  0.00000000E+00  0.00000000E+00
  0.00000000E+00  0.00000000E+00  0.00000000E+00
  0.00000000E+00  0.00000000E+00  0.00000000E+00
  0.00000000E+00  0.00000000E+00  0.00000000E+00
  0.00000000E+00  0.00000000E+00  0.00000000E+00
  0.00000000E+00  0.00000000E+00  0.00000000E+00
  0.00000000E+00  0.00000000E+00  0.00000000E+00
  0.00000000E+00  0.00000000E+00  0.00000000E+00
  0.00000000E+00  0.00000000E+00  0.00000000E+00
  0.00000000E+00  0.00000000E+00  0.00000000E+00
  0.00000000E+00  0.00000000E+00  0.00000000E+00
  0.00000000E+00  0.00000000E+00  0.00000000E+00
  0.00000000E+00  0.00000000E+00  0.00000000E+00
  0.00000000E+00  0.00000000E+00  0.00000000E+00
  0.00000000E+00  0.00000000E+00  0.00000000E+00
  0.00000000E+00  0.00000000E+00  0.00000000E+00
  0.00000000E+00  0.00000000E+00  0.00000000E+00
  0.00000000E+00  0.00000000E+00  0.00000000E+00
  0.00000000E+00  0.00000000E+00  0.00000000E+00
  0.00000000E+00  0.00000000E+00  0.00000000E+00
  0.00000000E+00  0.00000000E+00  0.00000000E+00
  0.00000000E+00  0.00000000E+00  0.00000000E+00
  0.00000000E+00  0.00000000E+00  0.00000000E+00
  0.00000000E+00  0.00000000E+00  0.00000000E+00
  0.00000000E+00  0.00000000E+00  0.00000000E+00
  0.00000000E+00  0.00000000E+00  0.00000000E+00
  0.00000000E+00  0.00000000E+00  0.00000000E+00
  0.00000000E+00  0.00000000E+00  0.00000000E+00
  0.00000000E+00  0.00000000E+00  0.00000000E+00
  0.00000000E+00  0.00000000E+00  0.00000000E+00
  0.00000000E+00  0.00000000E+00  0.00000000E+00
  0.00000000E+00  0.00000000E+00  0.00000000E+00
  0.00000000E+00  0.00000000E+00  0.00000000E+00
  0.00000000E+00  0.00000000E+00  0.00000000E+00
  0.00000000E+00  0.00000000E+00  0.00000000E+00
  0.00000000E+00  0.00000000E+00  0.00000000E+00
  0.00000000E+00  0.00000000E+00  0.00000000E+00
  0.00000000E+00  0.00000000E+00  0.00000000E+00
  0.00000000E+00  0.00000000E+00  0.00000000E+00
  0.00000000E+00  0.00000000E+00  0.00000000E+00
  0.00000000E+00  0.00000000E+00  0.00000000E+00
  0.00000000E+00  0.00000000E+00  0.00000000E+00
  0.00000000E+00  0.00000000E+00  0.00000000E+00
  0.00000000E+00  0.00000000E+00  0.00000000E+00
  0.00000000E+00  0.00000000E+00  0.00000000E+00
  0.00000000E+00  0.00000000E+00  0.00000000E+00
  0.00000000E+00  0.00000000E+00  0.00000000E+00
  0.00000000E+00  0.00000000E+00  0.00000000E+00
  0.00000000E+00  0.00000000E+00  0.00000000E+00
  0.00000000E+00  0.00000000E+00  0.00000000E+00
  0.00000000E+00  0.00000000E+00  0.00000000E+00
  0.00000000E+00  0.00000000E+00  0.00000000E+00
  0.00000000E+00  0.00000000E+00  0.00000000E+00
  0.00000000E+00  0.00000000E+00  0.00000000E+00
  0.00000000E+00  0.00000000E+00  0.00000000E+00
  0.00000000E+00  0.00000000E+00  0.00000000E+00
  0.00000000E+00  0.00000000E+00  0.00000000E+00
  0.00000000E+00  0.00000000E+00  0.00000000E+00
  0.00000000E+00  0.00000000E+00  0.00000000E+00
  0.00000000E+00  0.00000000E+00  0.00000000E+00
  0.00000000E+00  0.00000000E+00  0.00000000E+00
  0.00000000E+00  0.00000000E+00  0.00000000E+00
  0.00000000E+00  0.00000000E+00  0.00000000E+00
  0.00000000E+00  0.00000000E+00  0.00000000E+00
  0.00000000E+00  0.00000000E+00  0.00000000E+00
  0.00000000E+00  0.00000000E+00  0.00000000E+00
  0.00000000E+00  0.00000000E+00  0.00000000E+00
  0.00000000E+00  0.00000000E+00  0.00000000E+00
  0.00000000E+00  0.00000000E+00  0.00000000E+00
  0.00000000E+00  0.00000000E+00  0.00000000E+00
  0.00000000E+00  0.00000000E+00  0.00000000E+00
  0.00000000E+00  0.00000000E+00  0.00000000E+00
  0.00000000E+00  0.00000000E+00  0.00000000E+00
  0.00000000E+00  0.00000000E+00  0.00000000E+00
  0.00000000E+00  0.00000000E+00  0.00000000E+00
  0.00000000E+00  0.00000000E+00  0.00000000E+00
  0.00000000E+00  0.00000000E+00  0.00000000E+00
  0.00000000E+00  0.00000000E+00  0.00000000E+00
  0.00000000E+00  0.00000000E+00  0.00000000E+00
