Generated by VASPKIT code               
   1.00000000000000     
    20.9369140685882584   -0.0706897392725357    0.0000000000000000
    -0.0620837959623787   21.1994609688506586    0.0000000000000000
     0.0000000000000013    0.0000000000000013   21.9890852228138485
  C             
   264
Direct
  0.1025100845311654  0.1282294283454347  0.4673681496236032
  0.5161448966338924  0.5526562886489029  0.3464896670437945
  0.1019812831914918  0.1284093852031368  0.5333396580741728
  0.4511374974713567  0.5284767387961062  0.3469161353912413
  0.0405710270710676  0.1516379608143038  0.5533141122626772
  0.4539009914047560  0.4600960833169961  0.3483897532483821
  0.0414190326937064  0.1513236796511016  0.4464045030010764
  0.5591674822258014  0.4991738111180739  0.3476302082466315
  0.0033521096779273  0.1655108757322843  0.4995534824058318
  0.5207105841588571  0.4419143799332197  0.3487729760130161
  0.0129508206095480  0.1261976605586164  0.3942515289800360
  0.6157057698629215  0.5025672000619026  0.3814733264779358
  0.0443852370457928  0.0758169584673277  0.3612254899572667
  0.6310505400536635  0.5593725270862671  0.4153088007423972
  0.1328831073438450  0.0801992608587843  0.4355152278171009
  0.5315159031234201  0.6075056718197306  0.3790467796193587
  0.1032296506222501  0.0532604575373009  0.3815076543984491
  0.5902410933260996  0.6110571953273297  0.4139373125510154
  0.1628716767021257  0.0298567489053961  0.4692237550356388
  0.4824444648305892  0.6396921488841562  0.4133915268893755
  0.1318243536521310  0.0806041418994640  0.5658909817840131
  0.4038029493887256  0.5600199695613808  0.3799054043191069
  0.1623230063199778  0.0300462143330868  0.5329233147049762
  0.4198437945514719  0.6166263590155716  0.4137263966911344
  0.1013113210046006  0.0539912977355300  0.6196333479236084
  0.3577219083731314  0.5245190096607192  0.4154861966525991
  0.0112793123134056  0.1268155209868933  0.6051902581851233
  0.4093579470438400  0.4258442982353622  0.3828517831781914
  0.0421427423154268  0.0766324452622863  0.6389381081687662
  0.3608427263950998  0.4588576551473156  0.4170988334840275
  0.9431459186197266  0.1145326275761179  0.6047578846187200
  0.4296956012858666  0.3723223381856100  0.4189898809530724
  0.9378081823672899  0.1548103913932078  0.4991157862217428
  0.5403010828143965  0.3904534666819792  0.3837322782688368
  0.9072975718468302  0.1282570208658708  0.5526714288307347
  0.4939634611612384  0.3554142820390014  0.4195797230147438
  0.9448521933828230  0.1138553837714665  0.3937999464288497
  0.6360084054214432  0.4490705290905502  0.4176667376120023
  0.9081833414198491  0.1279047067847804  0.4452950319720247
  0.5989683354481885  0.3941568223749334  0.4187755266303853
  0.9954345014576147  0.0320114417604121  0.3404730256411776
  0.6602207145129345  0.5407085274436213  0.4722226457505135
  0.9339823573479813  0.0556326012228342  0.3605968717455660
  0.6636751435428631  0.4727443886553450  0.4737423067446648
  0.0071496028993823  0.9670422929412684  0.3407448692704776
  0.6484945320759493  0.5742452350103433  0.5257243169557100
  0.1151776613978645  0.9859879966185128  0.3820260653494175
  0.5775401383360292  0.6455738808765618  0.4697406400208298
  0.1515922595034907  0.9718498427429838  0.4362806115314095
  0.5109320614903571  0.6626738512945691  0.4693692320549879
  0.0682470463522636  0.9435358731911059  0.3619028794090092
  0.6063012392628278  0.6278900572690624  0.5245445118750247
  0.1405301785720122  0.9159873791721206  0.4681630784019299
  0.4761714056122975  0.6615998728231366  0.5235016473103133
  0.1504774256448125  0.9722818173614967  0.5660412642374609
  0.3836892030873452  0.6159928228041207  0.4700729768622607
  0.1132144083836158  0.9867208658468650  0.6196576472253301
  0.3452352825745185  0.5591871853432751  0.4712224621018762
  0.1399135493883649  0.9162244713140852  0.5342826456933000
  0.4113718685862408  0.6380208574914518  0.5239208451017000
  0.0660216191842148  0.9443787145759760  0.6393952890332449
  0.3363068939495977  0.5272402292040195  0.5262323431398013
  0.9928517904620930  0.0329657598028154  0.6592489857183882
  0.3514865262246001  0.4257397538932789  0.4742553047212861
  0.9317548901338244  0.0564715593438201  0.6380914820092266
  0.3936775221399754  0.3720901730366078  0.4754318744071223
  0.0045649726738189  0.9679947820354915  0.6595243526410657
  0.3397608878566213  0.4592733879193409  0.5277514512010998
  0.8848210361156145  0.0140193343212141  0.6179668013075631
  0.4224388962003282  0.3544101842606356  0.5302405148455851
  0.8594722790616465  0.0840256604134991  0.5318286682877148
  0.5238079839695308  0.3383833040256879  0.4764726242447149
  0.8600890101036296  0.0837818237093872  0.4657107718576066
  0.5886048655458431  0.3619630759931145  0.4760525221948144
  0.8484127751268736  0.0281583769149256  0.5637143372851030
  0.4890458376553383  0.3373124389755948  0.5306069412657379
  0.8867835979705008  0.0132862859221354  0.3803388788050526
  0.6547432036510206  0.4407948880610186  0.5287522331635940
  0.8495244913563171  0.0277270293287980  0.4339518191963137
  0.6162885118940834  0.3839933175688423  0.5299044428721245
  0.9578531108536943  0.9233767378615186  0.3610577646892140
  0.6391381631136874  0.5411270953207843  0.5828762316355403
  0.8986900195371347  0.9460160385989741  0.3803589867213292
  0.6422584173115919  0.4754702916956819  0.5844884596146829
  0.0568514723466903  0.8854746041166626  0.3952302745179961
  0.5702841016154265  0.6276640536244776  0.5809871487433926
  0.0927092120223208  0.8717520056758341  0.4473248152579825
  0.5060119810744355  0.6445670532549130  0.5803967967604126
  0.9887226301046277  0.8731912246771475  0.3948033260078916
  0.5906199803358056  0.5741437467722472  0.6171248638648453
  0.0918197476176214  0.8721036210209190  0.5546952461206001
  0.4010068565554534  0.6058272021023041  0.5811971244249122
  0.0551450577371780  0.8861548366365404  0.6061935323473351
  0.3639702211135886  0.5509095369956680  0.5823056017938806
  0.0621853737001076  0.8451980164728384  0.5008759933230947
  0.4596723462598089  0.6095292896152898  0.6162434760706167
  0.9556147448060925  0.9241901799073362  0.6387691148866177
  0.3689298958502192  0.4406118624023712  0.5846664573360929
  0.8967738029718784  0.9467476120001574  0.6184902573553555
  0.4097403964940153  0.3889228447949309  0.5860449811988838
  0.9870559726578128  0.8738137102368324  0.6057435900027349
  0.3842773968677929  0.4974167719241294  0.6185016676921893
  0.8371300868160344  0.9701531938051429  0.5307700716347624
  0.5175398814297688  0.3602919999962302  0.5865850211063863
  0.8376783889366084  0.9699612406820410  0.4670739009041688
  0.5801345167841092  0.3833607233101443  0.5862503131274053
  0.8681737690620235  0.9194065694551279  0.4341016895523345
  0.5961801135270058  0.4399661177283793  0.6200678508800025
  0.8671214783834255  0.9198077374091767  0.5644796293475093
  0.4684660092105257  0.3924800178260783  0.6209320707111201
  0.9594280671304471  0.8483747898494856  0.4466790880479803
  0.5460799899210573  0.5398909501364891  0.6515888540903879
  0.9966579420600773  0.8345019774032636  0.5004405073086750
  0.4792702548870308  0.5580714768784709  0.6512029325993400
  0.9585812402977647  0.8486879174072546  0.5535869369592196
  0.4408094781911555  0.5008147593408944  0.6523443518602877
  0.8980185798834835  0.8715975754054219  0.4666558138255433
  0.5488399138539588  0.4715125262476276  0.6530616104402593
  0.8974908713136656  0.8717812223046213  0.5326261666655799
  0.4838371109308370  0.4473301908896544  0.6534865001697636
  0.3692017789310110  0.9547813048769709  0.6183099055705316
  0.6253596924125168  0.0575290897235456  0.6189070804767950
  0.0440751335316910  0.3708668875661799  0.6184973665595808
  0.9518036648188098  0.6268507644937166  0.6191835979379283
  0.3218029681390269  0.9067441357184640  0.6201551784764172
  0.6727967417080755  0.1055852044571044  0.6181204111853318
  0.0902927206817340  0.3222793887902081  0.6193066190715288
  0.9055931140137141  0.6754745802318071  0.6193894040054956
  0.2819584260793497  0.9130182609264547  0.5644968067372181
  0.7152988157768594  0.0936472558626547  0.5652778147349511
  0.0797694598635526  0.2824250848117805  0.5644528179918091
  0.9179898874579555  0.7163806405840084  0.5656300363147648
  0.3576916155754483  0.9904285502894865  0.5615946481990046
  0.6394045540530181  0.0162010778744469  0.5665122269794847
  0.0054766580308225  0.3603771950746038  0.5630798014955817
  0.9923107344518123  0.6384048974332382  0.5652444846712288
  0.3024901859108726  0.9656619265427518  0.5301043230127324
  0.6960918549022125  0.0377597515848686  0.5352351358601195
  0.0264200268797649  0.3047032595026871  0.5314518570342065
  0.9724646887823952  0.6947177379163090  0.5339600281346413
  0.4147586025115306  0.9977955934374177  0.5307347791940094
  0.5838235040816421  0.0056081439819229  0.5340121376675712
  0.9999963122688730  0.4165558317808856  0.5317094689871987
  0.9988815156144549  0.5828241552987012  0.5330868737439503
  0.4354379655215078  0.9421905369950284  0.6225541132018875
  0.5589823361686239  0.0703198063907168  0.6190281292048021
  0.0602854786945846  0.4358249026062921  0.6215114603841552
  0.9355697653302532  0.5618357758788308  0.6206184725494679
  0.4718949935450263  0.9761787220662826  0.5691192130358417
  0.5249383551930474  0.0309036216865989  0.5676274547515582
  0.0256615441696103  0.4724864622524768  0.5688190118854932
  0.9720167371937242  0.5261920772520371  0.5684021915956279
  0.4521000489666283  0.8774849564457494  0.6239303281683153
  0.5424302416892635  0.1348106068830540  0.6133674722913740
  0.1265854243483280  0.4497452212271354  0.6204079297453410
  0.8693379760758486  0.5479463727265244  0.6172028969859792
  0.3404444726750333  0.8428624140421330  0.6234710478985717
  0.6541322851849152  0.1694705383293003  0.6144191303675184
  0.1560067796751264  0.3382887466492435  0.6202035671089916
  0.8399475596954890  0.6593938922193326  0.6178853204974853
  0.4061896099831854  0.8281079109217963  0.6258448538905091
  0.5883769041038739  0.1841590957871052  0.6124519366062691
  0.1743250714669086  0.4025868370741897  0.6212731453255279
  0.8215951464038743  0.5951136333785166  0.6173791011028656
  0.2756620632604206  0.8527360842127616  0.5350655037653014
  0.7229825155936238  0.1506086352983557  0.5304514753731954
  0.1393658312445299  0.2735782731271446  0.5330691813666537
  0.8594957889784219  0.7258653142165818  0.5325621022347159
  0.3128502603094303  0.8098178761996053  0.5701035533862698
  0.6842591864102525  0.1968743537599071  0.5594176654103384
  0.1860098323515368  0.3090417855774069  0.5661897022393118
  0.8117728933560043  0.6897359952050230  0.5635287877338859
  0.2770323596618027  0.8493922104849772  0.4695353143087883
  0.7243515870314730  0.1472649820479529  0.4649206471946548
  0.1405017262408843  0.2741473540301628  0.4674710989300516
  0.8606305718576845  0.7264347574368798  0.4669699834001106
  0.3039303510766454  0.9622380753098755  0.4647488885692457
  0.6975297183440237  0.0343354934979249  0.4698786698091831
  0.0275334452525184  0.3052942343320079  0.4660756211916133
  0.9735764521872617  0.6953073955414295  0.4685824105784996
  0.2847202884183671  0.9063529649089901  0.4347073422361670
  0.7180599092206829  0.0869826239998985  0.4354885445718162
  0.0820053017658879  0.2836303977165856  0.4344059902072065
  0.9202298728160645  0.7175921820518680  0.4355840275806306
  0.4161989784847767  0.9943817795183361  0.4659749565580523
  0.5852621388472031  0.0021947392494097  0.4692513206726833
  0.0011141547501631  0.4171905449696318  0.4669503942241295
  0.0000012734295235  0.5834524392547827  0.4683276171880605
  0.3606202260559962  0.9837936795764056  0.4334739054974165
  0.6423312041914536  0.0095687616939913  0.4383881053167648
  0.0076836486583041  0.3616105216955685  0.4347944728268213
  0.9945202945473042  0.6396338435134079  0.4369499254369748
  0.4750838463298081  0.9690857994150331  0.4323566454533346
  0.5281279780676427  0.0238134704324991  0.4308644340840080
  0.0279852039995036  0.4738201941029891  0.4316350205373510
  0.9743324354340740  0.5275185750601136  0.4312170208014801
  0.4995153688450437  0.9185805646849585  0.5363918641693166
  0.4989492491785074  0.0847411330825305  0.5282868875261354
  0.0840671063536738  0.4973597671601138  0.5337483606781345
  0.9148269485552843  0.5019982217973303  0.5311417265381790
  0.4930703109368418  0.8642834403823164  0.5707079362558203
  0.5040075257932094  0.1423086940904880  0.5573815355143490
  0.1399259898849098  0.4890389713955968  0.5662676441154032
  0.8578560913993798  0.5097058568705291  0.5620046383818676
  0.5010738970485490  0.9152486122768619  0.4717037690590113
  0.5005036701575024  0.0814071733695063  0.4635973667929955
  0.0851754954699667  0.4980110921162543  0.4688984157798823
  0.9159278929963859  0.5026463694611175  0.4662903538772907
  0.4191799768379488  0.7850297289585032  0.5739021811079206
  0.5779582977220619  0.2213621363891981  0.5560205841631124
  0.2166388195790554  0.4130526672690025  0.5677041305784152
  0.7812555215990848  0.5856872958083421  0.5622901554003950
  0.3609966823396014  0.7732148352431431  0.5408913390081826
  0.6375672251407933  0.2300782541979045  0.5246396778565340
  0.2242973142937971  0.3547146812361833  0.5351080878989757
  0.7746900593726274  0.6446662908622610  0.5304615620824071
  0.4737521044657412  0.8061874423579090  0.5416656461851115
  0.5248310834761940  0.1970236650428258  0.5236801246161747
  0.1963907434343463  0.4672086857548985  0.5354724400629495
  0.8023526683963139  0.5320175798079668  0.5298573372352685
  0.3157548957791533  0.8031226874825861  0.4405705707000534
  0.6871617423615349  0.1901772297068088  0.4298835841268705
  0.1882283339494982  0.3102818134985484  0.4365100317116091
  0.8139871791031971  0.6909695575198955  0.4338480229317586
  0.3624416662349185  0.7699194006209655  0.4753484200553457
  0.6390128720244833  0.2267821970395699  0.4590988307852116
  0.2253062210554697  0.3553529323920070  0.4695788452178749
  0.7757029171274673  0.6452956910116873  0.4649308074841300
  0.3272198621622808  0.8944119302520190  0.3818640517678165
  0.6782160263540203  0.0932558525768657  0.3798282875107449
  0.0944073733150373  0.3245392469547260  0.3806453696460704
  0.9097044869083090  0.6777307449225957  0.3807267651449255
  0.3746605266960976  0.9424637331660939  0.3810753450835622
  0.6308148264184041  0.0452129804854121  0.3816738563913476
  0.0481957241758515  0.3731698890852744  0.3808499328046411
  0.9559162296275342  0.6291383212586992  0.3815405169635800
  0.4410425498669850  0.9296665506256605  0.3809578242651432
  0.5645834632513169  0.0578004647193151  0.3774300059203055
  0.0644310438959664  0.4381824552200350  0.3794197685525052
  0.9397087567050074  0.5641799690439556  0.3785282456839424
  0.3458841564017864  0.8305228238937314  0.3855699994675222
  0.6595664644141629  0.1571359418650665  0.3765182133670043
  0.1600580263325949  0.3406224204087108  0.3821525499486068
  0.8439950314647205  0.6617128192128301  0.3798351702394355
  0.4960105283648696  0.8576766665508539  0.4426062894080817
  0.5069454507351066  0.1357072235607681  0.4292830649628083
  0.1421449781476528  0.4903031564217584  0.4380388454085630
  0.8600750188098247  0.5109677377708979  0.4337732033933830
  0.4751799096820123  0.8029646526692112  0.4763103254469194
  0.5262600659300789  0.1938025447348731  0.4583256432938403
  0.1976493683925167  0.4679927133868880  0.4701815543530058
  0.8036161979875941  0.5328043619534159  0.4645706807668444
  0.4220516590522888  0.7786286377247656  0.4439705857796541
  0.5808307581730433  0.2149639150506259  0.4260865235387646
  0.2187422292155097  0.4143248937749341  0.4377508634840131
  0.7833635769736891  0.5869570263476438  0.4323337873649703
  0.4575873251635763  0.8651784870785721  0.3866229993190815
  0.5479171885095752  0.1225078504432015  0.3760564753494803
  0.1306669817782672  0.4520698644778811  0.3828383015265631
  0.8734116960407539  0.5502593904576892  0.3796339780812864
  0.4116361398145711  0.8158324940761488  0.3875381331623507
  0.5938236702139847  0.1718884239686426  0.3741425260025570
  0.1784099230758823  0.4049061249157264  0.3826610294028884
  0.8256700517253441  0.5974152311066546  0.3787664014786004
 
  0.00000000E+00  0.00000000E+00  0.00000000E+00
  0.00000000E+00  0.00000000E+00  0.00000000E+00
  0.00000000E+00  0.00000000E+00  0.00000000E+00
  0.00000000E+00  0.00000000E+00  0.00000000E+00
  0.00000000E+00  0.00000000E+00  0.00000000E+00
  0.00000000E+00  0.00000000E+00  0.00000000E+00
  0.00000000E+00  0.00000000E+00  0.00000000E+00
  0.00000000E+00  0.00000000E+00  0.00000000E+00
  0.00000000E+00  0.00000000E+00  0.00000000E+00
  0.00000000E+00  0.00000000E+00  0.00000000E+00
  0.00000000E+00  0.00000000E+00  0.00000000E+00
  0.00000000E+00  0.00000000E+00  0.00000000E+00
  0.00000000E+00  0.00000000E+00  0.00000000E+00
  0.00000000E+00  0.00000000E+00  0.00000000E+00
  0.00000000E+00  0.00000000E+00  0.00000000E+00
  0.00000000E+00  0.00000000E+00  0.00000000E+00
  0.00000000E+00  0.00000000E+00  0.00000000E+00
  0.00000000E+00  0.00000000E+00  0.00000000E+00
  0.00000000E+00  0.00000000E+00  0.00000000E+00
  0.00000000E+00  0.00000000E+00  0.00000000E+00
  0.00000000E+00  0.00000000E+00  0.00000000E+00
  0.00000000E+00  0.00000000E+00  0.00000000E+00
  0.00000000E+00  0.00000000E+00  0.00000000E+00
  0.00000000E+00  0.00000000E+00  0.00000000E+00
  0.00000000E+00  0.00000000E+00  0.00000000E+00
  0.00000000E+00  0.00000000E+00  0.00000000E+00
  0.00000000E+00  0.00000000E+00  0.00000000E+00
  0.00000000E+00  0.00000000E+00  0.00000000E+00
  0.00000000E+00  0.00000000E+00  0.00000000E+00
  0.00000000E+00  0.00000000E+00  0.00000000E+00
  0.00000000E+00  0.00000000E+00  0.00000000E+00
  0.00000000E+00  0.00000000E+00  0.00000000E+00
  0.00000000E+00  0.00000000E+00  0.00000000E+00
  0.00000000E+00  0.00000000E+00  0.00000000E+00
  0.00000000E+00  0.00000000E+00  0.00000000E+00
  0.00000000E+00  0.00000000E+00  0.00000000E+00
  0.00000000E+00  0.00000000E+00  0.00000000E+00
  0.00000000E+00  0.00000000E+00  0.00000000E+00
  0.00000000E+00  0.00000000E+00  0.00000000E+00
  0.00000000E+00  0.00000000E+00  0.00000000E+00
  0.00000000E+00  0.00000000E+00  0.00000000E+00
  0.00000000E+00  0.00000000E+00  0.00000000E+00
  0.00000000E+00  0.00000000E+00  0.00000000E+00
  0.00000000E+00  0.00000000E+00  0.00000000E+00
  0.00000000E+00  0.00000000E+00  0.00000000E+00
  0.00000000E+00  0.00000000E+00  0.00000000E+00
  0.00000000E+00  0.00000000E+00  0.00000000E+00
  0.00000000E+00  0.00000000E+00  0.00000000E+00
  0.00000000E+00  0.00000000E+00  0.00000000E+00
  0.00000000E+00  0.00000000E+00  0.00000000E+00
  0.00000000E+00  0.00000000E+00  0.00000000E+00
  0.00000000E+00  0.00000000E+00  0.00000000E+00
  0.00000000E+00  0.00000000E+00  0.00000000E+00
  0.00000000E+00  0.00000000E+00  0.00000000E+00
  0.00000000E+00  0.00000000E+00  0.00000000E+00
  0.00000000E+00  0.00000000E+00  0.00000000E+00
  0.00000000E+00  0.00000000E+00  0.00000000E+00
  0.00000000E+00  0.00000000E+00  0.00000000E+00
  0.00000000E+00  0.00000000E+00  0.00000000E+00
  0.00000000E+00  0.00000000E+00  0.00000000E+00
  0.00000000E+00  0.00000000E+00  0.00000000E+00
  0.00000000E+00  0.00000000E+00  0.00000000E+00
  0.00000000E+00  0.00000000E+00  0.00000000E+00
  0.00000000E+00  0.00000000E+00  0.00000000E+00
  0.00000000E+00  0.00000000E+00  0.00000000E+00
  0.00000000E+00  0.00000000E+00  0.00000000E+00
  0.00000000E+00  0.00000000E+00  0.00000000E+00
  0.00000000E+00  0.00000000E+00  0.00000000E+00
  0.00000000E+00  0.00000000E+00  0.00000000E+00
  0.00000000E+00  0.00000000E+00  0.00000000E+00
  0.00000000E+00  0.00000000E+00  0.00000000E+00
  0.00000000E+00  0.00000000E+00  0.00000000E+00
  0.00000000E+00  0.00000000E+00  0.00000000E+00
  0.00000000E+00  0.00000000E+00  0.00000000E+00
  0.00000000E+00  0.00000000E+00  0.00000000E+00
  0.00000000E+00  0.00000000E+00  0.00000000E+00
  0.00000000E+00  0.00000000E+00  0.00000000E+00
  0.00000000E+00  0.00000000E+00  0.00000000E+00
  0.00000000E+00  0.00000000E+00  0.00000000E+00
  0.00000000E+00  0.00000000E+00  0.00000000E+00
  0.00000000E+00  0.00000000E+00  0.00000000E+00
  0.00000000E+00  0.00000000E+00  0.00000000E+00
  0.00000000E+00  0.00000000E+00  0.00000000E+00
  0.00000000E+00  0.00000000E+00  0.00000000E+00
  0.00000000E+00  0.00000000E+00  0.00000000E+00
  0.00000000E+00  0.00000000E+00  0.00000000E+00
  0.00000000E+00  0.00000000E+00  0.00000000E+00
  0.00000000E+00  0.00000000E+00  0.00000000E+00
  0.00000000E+00  0.00000000E+00  0.00000000E+00
  0.00000000E+00  0.00000000E+00  0.00000000E+00
  0.00000000E+00  0.00000000E+00  0.00000000E+00
  0.00000000E+00  0.00000000E+00  0.00000000E+00
  0.00000000E+00  0.00000000E+00  0.00000000E+00
  0.00000000E+00  0.00000000E+00  0.00000000E+00
  0.00000000E+00  0.00000000E+00  0.00000000E+00
  0.00000000E+00  0.00000000E+00  0.00000000E+00
  0.00000000E+00  0.00000000E+00  0.00000000E+00
  0.00000000E+00  0.00000000E+00  0.00000000E+00
  0.00000000E+00  0.00000000E+00  0.00000000E+00
  0.00000000E+00  0.00000000E+00  0.00000000E+00
  0.00000000E+00  0.00000000E+00  0.00000000E+00
  0.00000000E+00  0.00000000E+00  0.00000000E+00
  0.00000000E+00  0.00000000E+00  0.00000000E+00
  0.00000000E+00  0.00000000E+00  0.00000000E+00
  0.00000000E+00  0.00000000E+00  0.00000000E+00
  0.00000000E+00  0.00000000E+00  0.00000000E+00
  0.00000000E+00  0.00000000E+00  0.00000000E+00
  0.00000000E+00  0.00000000E+00  0.00000000E+00
  0.00000000E+00  0.00000000E+00  0.00000000E+00
  0.00000000E+00  0.00000000E+00  0.00000000E+00
  0.00000000E+00  0.00000000E+00  0.00000000E+00
  0.00000000E+00  0.00000000E+00  0.00000000E+00
  0.00000000E+00  0.00000000E+00  0.00000000E+00
  0.00000000E+00  0.00000000E+00  0.00000000E+00
  0.00000000E+00  0.00000000E+00  0.00000000E+00
  0.00000000E+00  0.00000000E+00  0.00000000E+00
  0.00000000E+00  0.00000000E+00  0.00000000E+00
  0.00000000E+00  0.00000000E+00  0.00000000E+00
  0.00000000E+00  0.00000000E+00  0.00000000E+00
  0.00000000E+00  0.00000000E+00  0.00000000E+00
  0.00000000E+00  0.00000000E+00  0.00000000E+00
  0.00000000E+00  0.00000000E+00  0.00000000E+00
  0.00000000E+00  0.00000000E+00  0.00000000E+00
  0.00000000E+00  0.00000000E+00  0.00000000E+00
  0.00000000E+00  0.00000000E+00  0.00000000E+00
  0.00000000E+00  0.00000000E+00  0.00000000E+00
  0.00000000E+00  0.00000000E+00  0.00000000E+00
  0.00000000E+00  0.00000000E+00  0.00000000E+00
  0.00000000E+00  0.00000000E+00  0.00000000E+00
  0.00000000E+00  0.00000000E+00  0.00000000E+00
  0.00000000E+00  0.00000000E+00  0.00000000E+00
  0.00000000E+00  0.00000000E+00  0.00000000E+00
  0.00000000E+00  0.00000000E+00  0.00000000E+00
  0.00000000E+00  0.00000000E+00  0.00000000E+00
  0.00000000E+00  0.00000000E+00  0.00000000E+00
  0.00000000E+00  0.00000000E+00  0.00000000E+00
  0.00000000E+00  0.00000000E+00  0.00000000E+00
  0.00000000E+00  0.00000000E+00  0.00000000E+00
  0.00000000E+00  0.00000000E+00  0.00000000E+00
  0.00000000E+00  0.00000000E+00  0.00000000E+00
  0.00000000E+00  0.00000000E+00  0.00000000E+00
  0.00000000E+00  0.00000000E+00  0.00000000E+00
  0.00000000E+00  0.00000000E+00  0.00000000E+00
  0.00000000E+00  0.00000000E+00  0.00000000E+00
  0.00000000E+00  0.00000000E+00  0.00000000E+00
  0.00000000E+00  0.00000000E+00  0.00000000E+00
  0.00000000E+00  0.00000000E+00  0.00000000E+00
  0.00000000E+00  0.00000000E+00  0.00000000E+00
  0.00000000E+00  0.00000000E+00  0.00000000E+00
  0.00000000E+00  0.00000000E+00  0.00000000E+00
  0.00000000E+00  0.00000000E+00  0.00000000E+00
  0.00000000E+00  0.00000000E+00  0.00000000E+00
  0.00000000E+00  0.00000000E+00  0.00000000E+00
  0.00000000E+00  0.00000000E+00  0.00000000E+00
  0.00000000E+00  0.00000000E+00  0.00000000E+00
  0.00000000E+00  0.00000000E+00  0.00000000E+00
  0.00000000E+00  0.00000000E+00  0.00000000E+00
  0.00000000E+00  0.00000000E+00  0.00000000E+00
  0.00000000E+00  0.00000000E+00  0.00000000E+00
  0.00000000E+00  0.00000000E+00  0.00000000E+00
  0.00000000E+00  0.00000000E+00  0.00000000E+00
  0.00000000E+00  0.00000000E+00  0.00000000E+00
  0.00000000E+00  0.00000000E+00  0.00000000E+00
  0.00000000E+00  0.00000000E+00  0.00000000E+00
  0.00000000E+00  0.00000000E+00  0.00000000E+00
  0.00000000E+00  0.00000000E+00  0.00000000E+00
  0.00000000E+00  0.00000000E+00  0.00000000E+00
  0.00000000E+00  0.00000000E+00  0.00000000E+00
  0.00000000E+00  0.00000000E+00  0.00000000E+00
  0.00000000E+00  0.00000000E+00  0.00000000E+00
  0.00000000E+00  0.00000000E+00  0.00000000E+00
  0.00000000E+00  0.00000000E+00  0.00000000E+00
  0.00000000E+00  0.00000000E+00  0.00000000E+00
  0.00000000E+00  0.00000000E+00  0.00000000E+00
  0.00000000E+00  0.00000000E+00  0.00000000E+00
  0.00000000E+00  0.00000000E+00  0.00000000E+00
  0.00000000E+00  0.00000000E+00  0.00000000E+00
  0.00000000E+00  0.00000000E+00  0.00000000E+00
  0.00000000E+00  0.00000000E+00  0.00000000E+00
  0.00000000E+00  0.00000000E+00  0.00000000E+00
  0.00000000E+00  0.00000000E+00  0.00000000E+00
  0.00000000E+00  0.00000000E+00  0.00000000E+00
  0.00000000E+00  0.00000000E+00  0.00000000E+00
  0.00000000E+00  0.00000000E+00  0.00000000E+00
  0.00000000E+00  0.00000000E+00  0.00000000E+00
  0.00000000E+00  0.00000000E+00  0.00000000E+00
  0.00000000E+00  0.00000000E+00  0.00000000E+00
  0.00000000E+00  0.00000000E+00  0.00000000E+00
  0.00000000E+00  0.00000000E+00  0.00000000E+00
  0.00000000E+00  0.00000000E+00  0.00000000E+00
  0.00000000E+00  0.00000000E+00  0.00000000E+00
  0.00000000E+00  0.00000000E+00  0.00000000E+00
  0.00000000E+00  0.00000000E+00  0.00000000E+00
  0.00000000E+00  0.00000000E+00  0.00000000E+00
  0.00000000E+00  0.00000000E+00  0.00000000E+00
  0.00000000E+00  0.00000000E+00  0.00000000E+00
  0.00000000E+00  0.00000000E+00  0.00000000E+00
  0.00000000E+00  0.00000000E+00  0.00000000E+00
  0.00000000E+00  0.00000000E+00  0.00000000E+00
  0.00000000E+00  0.00000000E+00  0.00000000E+00
  0.00000000E+00  0.00000000E+00  0.00000000E+00
  0.00000000E+00  0.00000000E+00  0.00000000E+00
  0.00000000E+00  0.00000000E+00  0.00000000E+00
  0.00000000E+00  0.00000000E+00  0.00000000E+00
  0.00000000E+00  0.00000000E+00  0.00000000E+00
  0.00000000E+00  0.00000000E+00  0.00000000E+00
  0.00000000E+00  0.00000000E+00  0.00000000E+00
  0.00000000E+00  0.00000000E+00  0.00000000E+00
  0.00000000E+00  0.00000000E+00  0.00000000E+00
  0.00000000E+00  0.00000000E+00  0.00000000E+00
  0.00000000E+00  0.00000000E+00  0.00000000E+00
  0.00000000E+00  0.00000000E+00  0.00000000E+00
  0.00000000E+00  0.00000000E+00  0.00000000E+00
  0.00000000E+00  0.00000000E+00  0.00000000E+00
  0.00000000E+00  0.00000000E+00  0.00000000E+00
  0.00000000E+00  0.00000000E+00  0.00000000E+00
  0.00000000E+00  0.00000000E+00  0.00000000E+00
  0.00000000E+00  0.00000000E+00  0.00000000E+00
  0.00000000E+00  0.00000000E+00  0.00000000E+00
  0.00000000E+00  0.00000000E+00  0.00000000E+00
  0.00000000E+00  0.00000000E+00  0.00000000E+00
  0.00000000E+00  0.00000000E+00  0.00000000E+00
  0.00000000E+00  0.00000000E+00  0.00000000E+00
  0.00000000E+00  0.00000000E+00  0.00000000E+00
  0.00000000E+00  0.00000000E+00  0.00000000E+00
  0.00000000E+00  0.00000000E+00  0.00000000E+00
  0.00000000E+00  0.00000000E+00  0.00000000E+00
  0.00000000E+00  0.00000000E+00  0.00000000E+00
  0.00000000E+00  0.00000000E+00  0.00000000E+00
  0.00000000E+00  0.00000000E+00  0.00000000E+00
  0.00000000E+00  0.00000000E+00  0.00000000E+00
  0.00000000E+00  0.00000000E+00  0.00000000E+00
  0.00000000E+00  0.00000000E+00  0.00000000E+00
  0.00000000E+00  0.00000000E+00  0.00000000E+00
  0.00000000E+00  0.00000000E+00  0.00000000E+00
  0.00000000E+00  0.00000000E+00  0.00000000E+00
  0.00000000E+00  0.00000000E+00  0.00000000E+00
  0.00000000E+00  0.00000000E+00  0.00000000E+00
  0.00000000E+00  0.00000000E+00  0.00000000E+00
  0.00000000E+00  0.00000000E+00  0.00000000E+00
  0.00000000E+00  0.00000000E+00  0.00000000E+00
  0.00000000E+00  0.00000000E+00  0.00000000E+00
  0.00000000E+00  0.00000000E+00  0.00000000E+00
  0.00000000E+00  0.00000000E+00  0.00000000E+00
  0.00000000E+00  0.00000000E+00  0.00000000E+00
  0.00000000E+00  0.00000000E+00  0.00000000E+00
  0.00000000E+00  0.00000000E+00  0.00000000E+00
  0.00000000E+00  0.00000000E+00  0.00000000E+00
  0.00000000E+00  0.00000000E+00  0.00000000E+00
  0.00000000E+00  0.00000000E+00  0.00000000E+00
  0.00000000E+00  0.00000000E+00  0.00000000E+00
  0.00000000E+00  0.00000000E+00  0.00000000E+00
  0.00000000E+00  0.00000000E+00  0.00000000E+00
  0.00000000E+00  0.00000000E+00  0.00000000E+00
  0.00000000E+00  0.00000000E+00  0.00000000E+00
  0.00000000E+00  0.00000000E+00  0.00000000E+00
  0.00000000E+00  0.00000000E+00  0.00000000E+00
  0.00000000E+00  0.00000000E+00  0.00000000E+00
  0.00000000E+00  0.00000000E+00  0.00000000E+00
  0.00000000E+00  0.00000000E+00  0.00000000E+00
  0.00000000E+00  0.00000000E+00  0.00000000E+00
  0.00000000E+00  0.00000000E+00  0.00000000E+00
  0.00000000E+00  0.00000000E+00  0.00000000E+00
  0.00000000E+00  0.00000000E+00  0.00000000E+00
