Generated by VASPKIT code               
   1.00000000000000     
    15.9620228615507180    1.4544489531210110    0.0000000000000000
     1.4428373932186174   16.0709599953828217    0.0000000000000000
     0.0000000000000014    0.0000000000000014   21.9927931244483759
   C 
   192
Direct
  0.4662790905411801  0.6811082903571745  0.4071409065521392
  0.9836430926804202  0.8295691316215101  0.4055147869709292
  0.5372309198012559  0.6910264252422551  0.4431953130129757
  0.8976288278474035  0.8517257164386862  0.4268216905095890
  0.5101443775658734  0.7194894754336115  0.5060319029357614
  0.8943383023713913  0.8271921325193293  0.4906054043850155
  0.3933665266929712  0.6953267929904370  0.4473340488342492
  0.0344611000617319  0.7933076366966297  0.4551996977028825
  0.4189358700226488  0.7127366997324360  0.5069216247526019
  0.9795713511328583  0.7767087010250544  0.5085541711430607
  0.3303700532653898  0.6472325035423813  0.4402223629901173
  0.1167428168636662  0.8030322334152774  0.4623670681121256
  0.3403581074104119  0.5835931398305017  0.3927106053612445
  0.1522277673736201  0.8545021963857775  0.4195345261489246
  0.4744706450083095  0.6216295714947131  0.3599160277171515
  0.0177156073370353  0.8779961874669742  0.3621703358276859
  0.4094580090090678  0.5706116459059344  0.3525994803654983
  0.1038300516765572  0.8916263996787618  0.3702199111988465
  0.5556079017596864  0.5676343378129783  0.3501993229999049
  0.9661172294686978  0.9553976681719222  0.3403919840521583
  0.6153752805797282  0.6421928894066476  0.4341998405833888
  0.8490536229630842  0.9265486629969378  0.4062077836130425
  0.6245299616260386  0.5784843102155973  0.3870524745604115
  0.8831616432976496  0.9788057991393488  0.3625516528500547
  0.6675733380457025  0.6127101648298160  0.4858327283010516
  0.7981666396945967  0.9803568197513342  0.4493705981432466
  0.5590699915387314  0.6759043735594513  0.5557652524450768
  0.8445241190645962  0.8755061485119380  0.5320667037001067
  0.6394711587484484  0.6285403290176648  0.5454205542679085
  0.7797773430648356  0.9515464751190167  0.5125454427083067
  0.5218822103607696  0.6524258841485179  0.6098583077148718
  0.8762770896962909  0.8903535819890234  0.5927106697140967
  0.3829575357855985  0.6859251877373816  0.5588446962627531
  0.0121223622468212  0.8038434147776923  0.5674557211424892
  0.4339583257003986  0.6566150327329089  0.6124312096302690
  0.9580725617629501  0.8535061378913548  0.6106445224486089
  0.2943021240838999  0.6172170717501924  0.4932656361284257
  0.1499882841258612  0.8147340547172954  0.5233301236033865
  0.3188774940525879  0.6355447370532915  0.5515682017320240
  0.0956793531104916  0.8148576829890294  0.5748476330060003
  0.3113305095884268  0.5129894287610469  0.4177088990030179
  0.2032543575918996  0.9014535443597388  0.4546760082533085
  0.2710739650651524  0.5346466517432917  0.4776783037748164
  0.2026834268480288  0.8746380269921207  0.5185794599309848
  0.3467456764958858  0.4319935522730290  0.4038216911243198
  0.2046544956356627  0.9838718542365746  0.4396810156350579
  0.4506267367969176  0.4852677888517448  0.3386080535746839
  0.1054268216386384  0.9780819189867389  0.3545606192798498
  0.5417529543141337  0.4834415643866257  0.3374978259881757
  0.0205374662599475  0.0175987135736769  0.3356036263407429
  0.4193329097146202  0.4172901766028194  0.3641396674369370
  0.1548440424868271  0.0235304963704544  0.3901163031790608
  0.5980374862639000  0.4133246448855603  0.3618154381833333
  0.9896591930620834  0.1007513132805477  0.3530020650703289
  0.6790837273316501  0.5071805773485590  0.4106849862792805
  0.8516575344023760  0.0652430593568820  0.3801925558691325
  0.7176111482424313  0.5296331760654469  0.4684872129656592
  0.7989300821859828  0.0638672291971110  0.4345749395952622
  0.6689752031902226  0.4261779075889043  0.3987489626690240
  0.9033549341337963  0.1248666051489259  0.3753089892078505
  0.7291168009775815  0.4652315016489501  0.5224806888334814
  0.7971995872075573  0.1254292165801361  0.4811059164123361
  0.6532950205017241  0.5678304838644467  0.5963267437492019
  0.7952772424497223  0.0162543165208428  0.5600124437332658
  0.5806923114784786  0.5825151156066529  0.6360062726687262
  0.8450163668477997  0.9765764610036238  0.6096019800510269
  0.6887905038801404  0.4868498630398773  0.5824556814822940
  0.7966213986431421  0.0986675396476568  0.5450103364126974
  0.5494135200358387  0.5145529940144651  0.6615643787938410
  0.8944366910022354  0.0220167583897050  0.6451514759910599
  0.4019962258956761  0.5865290457122818  0.6383786278697258
  0.0101744245641598  0.8993366297085392  0.6467324498422919
  0.3310880901596198  0.5736598338921090  0.6014360926423011
  0.0965119419526366  0.8752275142175918  0.6244142385907108
  0.4582834779490828  0.5163765772937710  0.6626806863428391
  0.9793068871810959  0.9825028667772220  0.6641130104726044
  0.2824868179440903  0.4702661596298250  0.5316624928459842
  0.2009102991780743  0.9361923863582744  0.5651245430291973
  0.3209822676542400  0.4926670781008218  0.5894765996031895
  0.1482068981831209  0.9348458506536340  0.6195263814742048
  0.3605428697436894  0.3712871094955782  0.4547447334346788
  0.2200993156598329  0.0485452099199396  0.4872027936020658
  0.3324352450434637  0.3871471181573893  0.5143367343039681
  0.2015877033935428  0.0197059335113371  0.5503275320331027
  0.4781634811366482  0.3474021556869677  0.3903134289108162
  0.1235793654964776  0.1097645510845976  0.4069949648457578
  0.5660860299252809  0.3432325168914717  0.3877509912513711
  0.0417808452869726  0.1466302832712078  0.3890654015446678
  0.4409568727698421  0.3239392657955508  0.4444093607437772
  0.1553595833237347  0.1245759598234408  0.4676498406338778
  0.6811865483161587  0.3643161157832902  0.4486093632578863
  0.9041971323292111  0.1852681061972187  0.4248630063015121
  0.7058476793792079  0.3826190255857337  0.5069004853396826
  0.8498511486814760  0.1853824322895551  0.4763521297353027
  0.6170869216958578  0.3139565938043981  0.4413400509779989
  0.9877471476295597  0.1963686850361629  0.4322364253569764
  0.6597247692364760  0.4162603972399939  0.6074473488747167
  0.8476507673419255  0.1456030139412714  0.5801401497312914
  0.5905917302879728  0.4292390835180036  0.6475484311719092
  0.8960267682424462  0.1084690208967484  0.6294527564983613
  0.6697135308988069  0.3526216730846520  0.5599408553858246
  0.8831184672268128  0.1970675123258890  0.5373139578358556
  0.4444327673788704  0.4321975287433996  0.6499901700900017
  0.0337259030443428  0.0447250914493602  0.6593108399647675
  0.3754949382744399  0.4213453241446450  0.6131227768685457
  0.1166790620177139  0.0213028888449503  0.6371591721493512
  0.3846283753375224  0.3576445818370190  0.5659833856679229
  0.1507503781306750  0.0735324983632756  0.5934905541211604
  0.5255738273871786  0.3782124636695601  0.6402783373301900
  0.9821103573908923  0.1221194717931744  0.6375238123301253
  0.4898921814225358  0.2803679640799641  0.4941549542607599
  0.1055039076520671  0.1728469624509738  0.5091009774265607
  0.5811078028722169  0.2871470631146827  0.4932662908773724
  0.0203197671070183  0.2234020632470460  0.4911661801030578
  0.6066942591909864  0.3045522007158785  0.5528422071735484
  0.9653927241036311  0.2067898045859169  0.5444762430663507
  0.4627982959957962  0.3088461496954337  0.5570005036358687
  0.1022052813278432  0.1483680414928399  0.5728813481945073
  0.5337680534979650  0.3187629562234470  0.5930383250359545
  0.0161895956895382  0.1705431784879131  0.5941747777581404
  0.4748069884529287  0.8529626084747362  0.5689024152961506
  0.1861599258747244  0.4785818215313742  0.5369588231918772
  0.5195622609162861  0.8138564840469849  0.5143558062520736
  0.1777372258008737  0.5302843710786077  0.4759320862503887
  0.4693538604275382  0.8576281730016015  0.4622768535199270
  0.1406834698427759  0.4757936979468565  0.4316062928105213
  0.3985716662059851  0.9056550749438586  0.5500736969759294
  0.1495672652695785  0.4020777761195479  0.5238372478385696
  0.3949591655584966  0.9069018447186380  0.4846056859281827
  0.1280034092454070  0.3998917019536935  0.4608129313383165
  0.3866854675038879  0.9841552666566564  0.5835779617895394
  0.0913869612062421  0.3906766552744032  0.5703976072104853
  0.5162050160112445  0.8950418482712728  0.6118276697976065
  0.1353815798034025  0.5197388615848501  0.5885606132100676
  0.4612890877789157  0.9790480266897140  0.6207878853991272
  0.0792041552951938  0.4641591567965237  0.6092852508694325
  0.6001013522242487  0.9064065081998567  0.6001250985089776
  0.0865288727453772  0.5990142102194476  0.5819508300260767
  0.6048546488437350  0.8336837083402392  0.5041597577358966
  0.1188378745803502  0.6090439037031241  0.4741890432315584
  0.6467756921167809  0.8734193241938037  0.5468737492118837
  0.0798112409052346  0.6432533313608108  0.5250927152595118
  0.5209334729585925  0.8838354137469504  0.4175921795398307
  0.0747136950596620  0.5245459150561779  0.3972529865655333
  0.6045823957332476  0.8735676399557850  0.4449092042414332
  0.0583341228234763  0.6068924478887125  0.4254316485004863
  0.4877401823270424  0.9580732904688569  0.3839398217449838
  0.0036683325400015  0.4893822898465474  0.3786100470494927
  0.3629298542568044  0.9806576950900673  0.4517988649820768
  0.0577062266817475  0.3634539501562351  0.4424130875554052
  0.4033051743592335  0.0017954816295024  0.3998142365149907
  0.0009802070697221  0.4047784928263842  0.3992604964705220
  0.3534000690758090  0.0583182409298048  0.5512595469173457
  0.0211143846213843  0.3547067362831108  0.5546103353359806
  0.3161436152037703  0.0566477728635151  0.4861047988321822
  0.0119847015528283  0.3202454645422527  0.4901401648969018
  0.3953467988677779  0.1263731585112281  0.5552724304745997
  0.9418874795034460  0.3932360956417372  0.5745963331859123
  0.5122319413215740  0.0418478986633008  0.6162527887443000
  0.9965080360377928  0.5107764795012734  0.6213990509942199
  0.5966777340440752  0.9981593559909743  0.6003706818120167
  0.9992072393516883  0.5953830600106729  0.6007403244287746
  0.4790280866093185  0.1160884741936600  0.5825889311976101
  0.9254819419610817  0.4755945210811536  0.6027673341588334
  0.6838150951980163  0.9433124394390731  0.5139653186908861
  0.9881561059731238  0.6798836873322921  0.5098292839311572
  0.6464755021356868  0.9416461634450095  0.4489053711014042
  0.9790895793999804  0.6453393055210566  0.4454316691740609
  0.6370979175544214  0.0192834327695406  0.5483813009515119
  0.9424839567922025  0.6366958151209952  0.5575887159152944
  0.5386967937127857  0.0208620957191905  0.3793884236784642
  0.9209616403265063  0.5359994175925558  0.3907588663572986
  0.6132522253679420  0.0158009724836527  0.4166291298170868
  0.9087835914850407  0.6094385539149961  0.4296556008322344
  0.3999009406520635  0.0935656448555625  0.4000583506445496
  0.9136696257045930  0.4011774488018620  0.4180750939578333
  0.3532004116141402  0.1265443502307582  0.4532872368928562
  0.9203921760044877  0.3569777221914111  0.4749244877453463
  0.3951079755603372  0.1662456457480376  0.4960221221143779
  0.8813949762101888  0.3911040399722159  0.5258561958325713
  0.4837776482932932  0.1049176270662134  0.3883288515964774
  0.8647610009381129  0.4804247092113447  0.4114607507024868
  0.5306025986903022  0.1422865768575322  0.5379087068817046
  0.8595187253511110  0.5243360457490130  0.5684266976966366
  0.6050417947683164  0.0930493949610626  0.5156024998355290
  0.8721885203486071  0.6002342091036938  0.5392127491077795
  0.6014158160528333  0.0942893084013322  0.4501410477427351
  0.8505867125796223  0.5980294502128896  0.4762079327662311
  0.4804085682098339  0.1860944187232763  0.4858247514983238
  0.8224293641642690  0.4697970557631386  0.5241526704294612
  0.5251715049280684  0.1469655593388267  0.4312945077973648
  0.8139474201743777  0.5215146164421187  0.4630961643570045
 
  0.00000000E+00  0.00000000E+00  0.00000000E+00
  0.00000000E+00  0.00000000E+00  0.00000000E+00
  0.00000000E+00  0.00000000E+00  0.00000000E+00
  0.00000000E+00  0.00000000E+00  0.00000000E+00
  0.00000000E+00  0.00000000E+00  0.00000000E+00
  0.00000000E+00  0.00000000E+00  0.00000000E+00
  0.00000000E+00  0.00000000E+00  0.00000000E+00
  0.00000000E+00  0.00000000E+00  0.00000000E+00
  0.00000000E+00  0.00000000E+00  0.00000000E+00
  0.00000000E+00  0.00000000E+00  0.00000000E+00
  0.00000000E+00  0.00000000E+00  0.00000000E+00
  0.00000000E+00  0.00000000E+00  0.00000000E+00
  0.00000000E+00  0.00000000E+00  0.00000000E+00
  0.00000000E+00  0.00000000E+00  0.00000000E+00
  0.00000000E+00  0.00000000E+00  0.00000000E+00
  0.00000000E+00  0.00000000E+00  0.00000000E+00
  0.00000000E+00  0.00000000E+00  0.00000000E+00
  0.00000000E+00  0.00000000E+00  0.00000000E+00
  0.00000000E+00  0.00000000E+00  0.00000000E+00
  0.00000000E+00  0.00000000E+00  0.00000000E+00
  0.00000000E+00  0.00000000E+00  0.00000000E+00
  0.00000000E+00  0.00000000E+00  0.00000000E+00
  0.00000000E+00  0.00000000E+00  0.00000000E+00
  0.00000000E+00  0.00000000E+00  0.00000000E+00
  0.00000000E+00  0.00000000E+00  0.00000000E+00
  0.00000000E+00  0.00000000E+00  0.00000000E+00
  0.00000000E+00  0.00000000E+00  0.00000000E+00
  0.00000000E+00  0.00000000E+00  0.00000000E+00
  0.00000000E+00  0.00000000E+00  0.00000000E+00
  0.00000000E+00  0.00000000E+00  0.00000000E+00
  0.00000000E+00  0.00000000E+00  0.00000000E+00
  0.00000000E+00  0.00000000E+00  0.00000000E+00
  0.00000000E+00  0.00000000E+00  0.00000000E+00
  0.00000000E+00  0.00000000E+00  0.00000000E+00
  0.00000000E+00  0.00000000E+00  0.00000000E+00
  0.00000000E+00  0.00000000E+00  0.00000000E+00
  0.00000000E+00  0.00000000E+00  0.00000000E+00
  0.00000000E+00  0.00000000E+00  0.00000000E+00
  0.00000000E+00  0.00000000E+00  0.00000000E+00
  0.00000000E+00  0.00000000E+00  0.00000000E+00
  0.00000000E+00  0.00000000E+00  0.00000000E+00
  0.00000000E+00  0.00000000E+00  0.00000000E+00
  0.00000000E+00  0.00000000E+00  0.00000000E+00
  0.00000000E+00  0.00000000E+00  0.00000000E+00
  0.00000000E+00  0.00000000E+00  0.00000000E+00
  0.00000000E+00  0.00000000E+00  0.00000000E+00
  0.00000000E+00  0.00000000E+00  0.00000000E+00
  0.00000000E+00  0.00000000E+00  0.00000000E+00
  0.00000000E+00  0.00000000E+00  0.00000000E+00
  0.00000000E+00  0.00000000E+00  0.00000000E+00
  0.00000000E+00  0.00000000E+00  0.00000000E+00
  0.00000000E+00  0.00000000E+00  0.00000000E+00
  0.00000000E+00  0.00000000E+00  0.00000000E+00
  0.00000000E+00  0.00000000E+00  0.00000000E+00
  0.00000000E+00  0.00000000E+00  0.00000000E+00
  0.00000000E+00  0.00000000E+00  0.00000000E+00
  0.00000000E+00  0.00000000E+00  0.00000000E+00
  0.00000000E+00  0.00000000E+00  0.00000000E+00
  0.00000000E+00  0.00000000E+00  0.00000000E+00
  0.00000000E+00  0.00000000E+00  0.00000000E+00
  0.00000000E+00  0.00000000E+00  0.00000000E+00
  0.00000000E+00  0.00000000E+00  0.00000000E+00
  0.00000000E+00  0.00000000E+00  0.00000000E+00
  0.00000000E+00  0.00000000E+00  0.00000000E+00
  0.00000000E+00  0.00000000E+00  0.00000000E+00
  0.00000000E+00  0.00000000E+00  0.00000000E+00
  0.00000000E+00  0.00000000E+00  0.00000000E+00
  0.00000000E+00  0.00000000E+00  0.00000000E+00
  0.00000000E+00  0.00000000E+00  0.00000000E+00
  0.00000000E+00  0.00000000E+00  0.00000000E+00
  0.00000000E+00  0.00000000E+00  0.00000000E+00
  0.00000000E+00  0.00000000E+00  0.00000000E+00
  0.00000000E+00  0.00000000E+00  0.00000000E+00
  0.00000000E+00  0.00000000E+00  0.00000000E+00
  0.00000000E+00  0.00000000E+00  0.00000000E+00
  0.00000000E+00  0.00000000E+00  0.00000000E+00
  0.00000000E+00  0.00000000E+00  0.00000000E+00
  0.00000000E+00  0.00000000E+00  0.00000000E+00
  0.00000000E+00  0.00000000E+00  0.00000000E+00
  0.00000000E+00  0.00000000E+00  0.00000000E+00
  0.00000000E+00  0.00000000E+00  0.00000000E+00
  0.00000000E+00  0.00000000E+00  0.00000000E+00
  0.00000000E+00  0.00000000E+00  0.00000000E+00
  0.00000000E+00  0.00000000E+00  0.00000000E+00
  0.00000000E+00  0.00000000E+00  0.00000000E+00
  0.00000000E+00  0.00000000E+00  0.00000000E+00
  0.00000000E+00  0.00000000E+00  0.00000000E+00
  0.00000000E+00  0.00000000E+00  0.00000000E+00
  0.00000000E+00  0.00000000E+00  0.00000000E+00
  0.00000000E+00  0.00000000E+00  0.00000000E+00
  0.00000000E+00  0.00000000E+00  0.00000000E+00
  0.00000000E+00  0.00000000E+00  0.00000000E+00
  0.00000000E+00  0.00000000E+00  0.00000000E+00
  0.00000000E+00  0.00000000E+00  0.00000000E+00
  0.00000000E+00  0.00000000E+00  0.00000000E+00
  0.00000000E+00  0.00000000E+00  0.00000000E+00
  0.00000000E+00  0.00000000E+00  0.00000000E+00
  0.00000000E+00  0.00000000E+00  0.00000000E+00
  0.00000000E+00  0.00000000E+00  0.00000000E+00
  0.00000000E+00  0.00000000E+00  0.00000000E+00
  0.00000000E+00  0.00000000E+00  0.00000000E+00
  0.00000000E+00  0.00000000E+00  0.00000000E+00
  0.00000000E+00  0.00000000E+00  0.00000000E+00
  0.00000000E+00  0.00000000E+00  0.00000000E+00
  0.00000000E+00  0.00000000E+00  0.00000000E+00
  0.00000000E+00  0.00000000E+00  0.00000000E+00
  0.00000000E+00  0.00000000E+00  0.00000000E+00
  0.00000000E+00  0.00000000E+00  0.00000000E+00
  0.00000000E+00  0.00000000E+00  0.00000000E+00
  0.00000000E+00  0.00000000E+00  0.00000000E+00
  0.00000000E+00  0.00000000E+00  0.00000000E+00
  0.00000000E+00  0.00000000E+00  0.00000000E+00
  0.00000000E+00  0.00000000E+00  0.00000000E+00
  0.00000000E+00  0.00000000E+00  0.00000000E+00
  0.00000000E+00  0.00000000E+00  0.00000000E+00
  0.00000000E+00  0.00000000E+00  0.00000000E+00
  0.00000000E+00  0.00000000E+00  0.00000000E+00
  0.00000000E+00  0.00000000E+00  0.00000000E+00
  0.00000000E+00  0.00000000E+00  0.00000000E+00
  0.00000000E+00  0.00000000E+00  0.00000000E+00
  0.00000000E+00  0.00000000E+00  0.00000000E+00
  0.00000000E+00  0.00000000E+00  0.00000000E+00
  0.00000000E+00  0.00000000E+00  0.00000000E+00
  0.00000000E+00  0.00000000E+00  0.00000000E+00
  0.00000000E+00  0.00000000E+00  0.00000000E+00
  0.00000000E+00  0.00000000E+00  0.00000000E+00
  0.00000000E+00  0.00000000E+00  0.00000000E+00
  0.00000000E+00  0.00000000E+00  0.00000000E+00
  0.00000000E+00  0.00000000E+00  0.00000000E+00
  0.00000000E+00  0.00000000E+00  0.00000000E+00
  0.00000000E+00  0.00000000E+00  0.00000000E+00
  0.00000000E+00  0.00000000E+00  0.00000000E+00
  0.00000000E+00  0.00000000E+00  0.00000000E+00
  0.00000000E+00  0.00000000E+00  0.00000000E+00
  0.00000000E+00  0.00000000E+00  0.00000000E+00
  0.00000000E+00  0.00000000E+00  0.00000000E+00
  0.00000000E+00  0.00000000E+00  0.00000000E+00
  0.00000000E+00  0.00000000E+00  0.00000000E+00
  0.00000000E+00  0.00000000E+00  0.00000000E+00
  0.00000000E+00  0.00000000E+00  0.00000000E+00
  0.00000000E+00  0.00000000E+00  0.00000000E+00
  0.00000000E+00  0.00000000E+00  0.00000000E+00
  0.00000000E+00  0.00000000E+00  0.00000000E+00
  0.00000000E+00  0.00000000E+00  0.00000000E+00
  0.00000000E+00  0.00000000E+00  0.00000000E+00
  0.00000000E+00  0.00000000E+00  0.00000000E+00
  0.00000000E+00  0.00000000E+00  0.00000000E+00
  0.00000000E+00  0.00000000E+00  0.00000000E+00
  0.00000000E+00  0.00000000E+00  0.00000000E+00
  0.00000000E+00  0.00000000E+00  0.00000000E+00
  0.00000000E+00  0.00000000E+00  0.00000000E+00
  0.00000000E+00  0.00000000E+00  0.00000000E+00
  0.00000000E+00  0.00000000E+00  0.00000000E+00
  0.00000000E+00  0.00000000E+00  0.00000000E+00
  0.00000000E+00  0.00000000E+00  0.00000000E+00
  0.00000000E+00  0.00000000E+00  0.00000000E+00
  0.00000000E+00  0.00000000E+00  0.00000000E+00
  0.00000000E+00  0.00000000E+00  0.00000000E+00
  0.00000000E+00  0.00000000E+00  0.00000000E+00
  0.00000000E+00  0.00000000E+00  0.00000000E+00
  0.00000000E+00  0.00000000E+00  0.00000000E+00
  0.00000000E+00  0.00000000E+00  0.00000000E+00
  0.00000000E+00  0.00000000E+00  0.00000000E+00
  0.00000000E+00  0.00000000E+00  0.00000000E+00
  0.00000000E+00  0.00000000E+00  0.00000000E+00
  0.00000000E+00  0.00000000E+00  0.00000000E+00
  0.00000000E+00  0.00000000E+00  0.00000000E+00
  0.00000000E+00  0.00000000E+00  0.00000000E+00
  0.00000000E+00  0.00000000E+00  0.00000000E+00
  0.00000000E+00  0.00000000E+00  0.00000000E+00
  0.00000000E+00  0.00000000E+00  0.00000000E+00
  0.00000000E+00  0.00000000E+00  0.00000000E+00
  0.00000000E+00  0.00000000E+00  0.00000000E+00
  0.00000000E+00  0.00000000E+00  0.00000000E+00
  0.00000000E+00  0.00000000E+00  0.00000000E+00
  0.00000000E+00  0.00000000E+00  0.00000000E+00
  0.00000000E+00  0.00000000E+00  0.00000000E+00
  0.00000000E+00  0.00000000E+00  0.00000000E+00
  0.00000000E+00  0.00000000E+00  0.00000000E+00
  0.00000000E+00  0.00000000E+00  0.00000000E+00
  0.00000000E+00  0.00000000E+00  0.00000000E+00
  0.00000000E+00  0.00000000E+00  0.00000000E+00
  0.00000000E+00  0.00000000E+00  0.00000000E+00
  0.00000000E+00  0.00000000E+00  0.00000000E+00
  0.00000000E+00  0.00000000E+00  0.00000000E+00
  0.00000000E+00  0.00000000E+00  0.00000000E+00
  0.00000000E+00  0.00000000E+00  0.00000000E+00
  0.00000000E+00  0.00000000E+00  0.00000000E+00
  0.00000000E+00  0.00000000E+00  0.00000000E+00
  0.00000000E+00  0.00000000E+00  0.00000000E+00
  0.00000000E+00  0.00000000E+00  0.00000000E+00
  0.00000000E+00  0.00000000E+00  0.00000000E+00
