Generated by VASPKIT code               
   1.00000000000000     
    26.4878843526906813   -0.0059168293240275    0.0000000000000000
   -13.2433314002839779   23.0652183955561156    0.0000000000000000
     0.0000000000000012    0.0000000000000022   21.9812863537842986
  C             
   336
Direct
  0.7855477459604220  0.3997082576550940  0.3878577632619452
  0.8681732366938891  0.9611513336535277  0.3906012100886681
  0.7676171566551954  0.3384777175613889  0.3891274616557115
  0.8631269578962357  0.9978819437382412  0.4354908287473149
  0.7119208566754229  0.3070650246075549  0.3581739015246557
  0.9076570607740841  0.0551324446519498  0.4260170665853493
  0.7409718310388579  0.4061969425106383  0.3560795227180461
  0.9169353698885606  0.9974379181433507  0.3508561597059919
  0.6954617531596345  0.3488982536307965  0.3377260537502266
  0.9418790647768976  0.0561435196728287  0.3731135320505163
  0.7264323245100215  0.4474214442017480  0.3758642768619874
  0.9530616406517973  0.9772821208489511  0.3287126975770940
  0.7558198912089673  0.4835889590633567  0.4282065994039140
  0.9417443584197600  0.9197657533215948  0.3457437502179105
  0.8137711857891741  0.4345114493158285  0.4382322422457105
  0.8565465200030397  0.9054287940353580  0.4057328936756044
  0.7982498340809168  0.4768267829380605  0.4588108460478472
  0.8945515005910353  0.8849200412716810  0.3838166570443423
  0.8255607959955722  0.4098360252568011  0.4916238359157991
  0.8391438682757734  0.8840289450219476  0.4679360774402117
  0.7788075866890232  0.3146438913389771  0.4406582885844124
  0.8345181927397960  0.9753624187889756  0.4967217021998340
  0.8084374748230121  0.3509707106202872  0.4928612930474706
  0.8321812686346403  0.9177517627733018  0.5117608657536308
  0.7346514817410759  0.2585406190393415  0.4632732253523701
  0.8744747848880779  0.0141195279189363  0.5476216661971670
  0.6693902557473922  0.2529119016119605  0.3800306680190901
  0.9361114543581061  0.0932238181617556  0.4757679621483446
  0.6810163269599318  0.2283916942493974  0.4335565069011474
  0.9185642912724132  0.0704913185350111  0.5376021980555584
  0.6087417458645534  0.2382457642277143  0.3820985292494609
  0.9971497995862770  0.1307605905976727  0.4751179091466440
  0.6370557169365005  0.3348727901961001  0.3397895035757859
  0.0017658161779997  0.0927833614018940  0.3724839622385678
  0.5929228719031063  0.2785034283168717  0.3623880728823826
  0.0309883650053788  0.1307331199350041  0.4246557033616754
  0.6659124720523465  0.4330266443967838  0.3780045652435226
  0.0156008263742032  0.0154794726902826  0.3280220241782996
  0.6220866698090657  0.3777261334410720  0.3603564932776989
  0.0394222838571891  0.0723394308699109  0.3495315753054141
  0.7137942979559743  0.4918942831889524  0.4626671548344693
  0.9967647791830664  0.9223500425940595  0.3553743625499649
  0.6581743087061529  0.4605586577985935  0.4316327532671663
  0.0423514475066032  0.9810860309251129  0.3443746450274997
  0.7159725177261023  0.4933774094900998  0.5263415119764271
  0.0027031915276059  0.8895665346040023  0.4028777414507261
  0.8002111353726851  0.4780193785403494  0.5246973531195820
  0.9008815948225751  0.8506449046866649  0.4312785061450479
  0.8174212537439373  0.4370364694177069  0.5451410015132091
  0.8662225463716261  0.8499466004532900  0.4831562971882023
  0.7601738774328621  0.4864083404474332  0.5579438972671320
  0.9535181304696376  0.8520399412654713  0.4398944763650662
  0.7929646540282039  0.4048525072522141  0.5981052597225316
  0.8867151175257723  0.8512841351728513  0.5420593965425206
  0.7826396305643476  0.3172946748056356  0.5477055075312816
  0.8550560419278863  0.9205410448078075  0.5716294408473956
  0.7369859245372007  0.2601816649647323  0.5293144697123099
  0.8805010416292942  0.9796182229413843  0.5937642692409782
  0.7751110954342495  0.3436394263777977  0.5993723391896967
  0.8805908561276897  0.8869678748590312  0.5874561098515529
  0.6855993657361577  0.2315777482624779  0.5631600547453673
  0.9302079310977601  0.0031417544076855  0.6311340582058818
  0.6276867933228243  0.1986225810813232  0.4687263520542233
  0.9702732226690752  0.0952274614684897  0.5750445656593459
  0.5829639611163704  0.2045174677152425  0.4369211055352217
  0.0192981341071164  0.1324976348783698  0.5366991964534092
  0.6299250664359063  0.2001910212131835  0.5322654430389230
  0.9759867975843236  0.0623029255270496  0.6213375600462664
  0.5422153826724481  0.2120213027429874  0.4701814980612943
  0.0726592201396983  0.1360426899816195  0.5457345766873845
  0.5507722300040191  0.2865413579762939  0.3969864475664746
  0.0851625469924967  0.1342045037513266  0.4328248520753672
  0.5688853142671713  0.3478400850234329  0.3957497194661949
  0.0909501102705553  0.0975033713749413  0.3880843868875865
  0.5261538258005003  0.2540462324935104  0.4498129499059445
  0.1155545495080663  0.1472835773861758  0.4937839028075534
  0.6069682335890769  0.4318152824413786  0.4657179667007477
  0.0920778202626413  0.0053973469799706  0.3812778700995359
  0.5619130337409735  0.3743459848893230  0.4474814182477103
  0.1169987498243714  0.0644540909470823  0.4027115583978737
  0.6627596602219008  0.4637531619286380  0.5617122218401628
  0.0551037128531915  0.9139520106116197  0.4383300172825124
  0.6092816205545634  0.4334440942357579  0.5318038416331100
  0.0982528732333228  0.9708878346362582  0.4286219072353458
  0.7347922431624878  0.4531443141741657  0.6129106521727341
  0.9732799063009177  0.8425159890638503  0.5017042605901757
  0.7508128779238760  0.4129815304830041  0.6326211047166547
  0.9414413268201516  0.8527108619010546  0.5516447030182464
  0.6743098891889626  0.4388230261472377  0.6152145548626179
  0.0438281321406402  0.8852044250077653  0.5003475919472427
  0.7217638469022529  0.3138437071518368  0.6346413008456260
  0.9329286672400053  0.9119331828774286  0.6240151394147935
  0.6777964230640938  0.2587071216000601  0.6168500004545093
  0.9569746231701762  0.9686325728533001  0.6452819685276281
  0.7067732780824110  0.3567028177982887  0.6552278012597620
  0.9703018270491384  0.8902670927302901  0.6004454749048447
  0.5875855017519486  0.2077392199553834  0.5668708878181361
  0.0313163369773735  0.0648400121518751  0.6299449517732409
  0.5445690953549265  0.2136730546032214  0.5363072302906140
  0.0781782974716066  0.1005334090840349  0.5915651106918975
  0.6171779222479008  0.2440983028087375  0.6191210469295100
  0.0200848209495920  0.0071313604871672  0.6443796562247938
  0.5191185426486782  0.2817675173210907  0.5033697360388651
  0.1335214330505607  0.1015620392051738  0.5083528080027917
  0.5369592823593629  0.3407214515651191  0.5021544922065043
  0.1376346139752999  0.0660549853353889  0.4645058386523961
  0.5656389274025170  0.3769842946633350  0.5542610953392020
  0.1270600123760215  0.0089704306128515  0.4801425352324848
  0.5299566124007050  0.2567119563594888  0.5568252882897921
  0.1155509507117738  0.0795812386931599  0.5687556498501039
  0.6319339734892728  0.3845505723666336  0.6369679221430314
  0.0667059706834433  0.9288081845473087  0.5503381312127270
  0.6483963373794588  0.3427199239241490  0.6573563082883422
  0.0322710122568605  0.9278966775350067  0.5996762829577998
  0.6027957935060534  0.2853603122980193  0.6389810285189287
  0.0563325639636549  0.9871656166153090  0.6225327144204287
  0.5763353164920145  0.3530159961928617  0.6059087134794484
  0.1109696055055844  0.9880750754824139  0.5395534644533606
  0.5582907272552748  0.2917760264559662  0.6071408423677807
  0.1056054855421081  0.0243901539881727  0.5848620826341218
  0.6682074435555574  0.6991205100626667  0.5569016151386292
  0.0330210963948764  0.3463583342219599  0.5556766893462156
  0.3310432502754221  0.9680496877865207  0.5533624640349143
  0.6814342212831226  0.1133049188084517  0.5025351206211935
  0.4003204135012327  0.2711463056880163  0.5063224244834840
  0.8874096222097797  0.6069669538817597  0.5226842688079973
  0.6707652478632370  0.7535237279460947  0.5560043657509477
  0.0806410622074535  0.3362625141033028  0.5557494011061307
  0.2734556663111786  0.9206506833193695  0.5541352447719090
  0.6527888207630397  0.0892729936703080  0.5583153406550947
  0.4068367457368275  0.2985906610105592  0.5636331742435188
  0.9101258630490286  0.6014108421226757  0.5792353642247174
  0.6197764889291312  0.7466989488887644  0.5909428540643432
  0.1283215465321453  0.3845474024088942  0.5902301192519324
  0.2745401050080445  0.8744163567319226  0.5909219184587609
  0.6898388150233193  0.0724368976650012  0.5932416760335333
  0.3510729025413900  0.2659030998080038  0.5971318187319481
  0.9358505428432894  0.6583127946771793  0.6102543694906328
  0.6154099822423837  0.6583697378814602  0.5923711693727322
  0.0512528721954446  0.4011633040667313  0.5900310473175900
  0.3678172589968027  0.9512112618982459  0.5895463121140017
  0.7359350302716949  0.1117952075537147  0.5019940885152350
  0.3411552544235207  0.2222230104066387  0.5030688843643455
  0.8982435007809378  0.6663050178712530  0.5178439528412337
  0.5874927123612160  0.6882155342075391  0.6150073282254011
  0.1084229170490989  0.4228878377698884  0.6130015540646533
  0.3327197665677250  0.8952014501130648  0.6146513462199107
  0.7414515394108506  0.0876356753208317  0.5581554752110225
  0.3116198148206268  0.2189303746138601  0.5592108254190509
  0.9277159860121063  0.6976436419750268  0.5721216546557508
  0.5826031685057872  0.6055796845476527  0.5583865875325819
  0.0373440983033836  0.4382702512297132  0.5549171742527613
  0.4192960606057248  0.9641911044294795  0.5552651713931742
  0.7409928247880646  0.0883595465726894  0.4451361512583541
  0.3162094024459992  0.2233528527507455  0.4451396010250532
  0.9231621035309714  0.6890348543951468  0.4589507077298343
  0.6662295329673278  0.6715155978804335  0.5013782843600074
  0.0096885767234794  0.3512166168406633  0.4996441531314840
  0.3595586262953850  0.9894517724865266  0.4970777110709315
  0.6523723555879186  0.0899493286455222  0.4467722438928726
  0.4112121369491376  0.3030616848941773  0.4513474539463140
  0.9057458719105359  0.5931926919905203  0.4674825564353935
  0.6123641595391074  0.6139338143826912  0.5017531347681156
  0.0136273867750320  0.4088893264186734  0.4986090907985618
  0.4142748688523686  0.9869180708924382  0.4978488247543564
  0.6891436779732738  0.0735282258324510  0.4107506007141196
  0.3585077765404540  0.2732845552151808  0.4127085770311493
  0.9284582348086553  0.6445939110199236  0.4274024142563491
  0.6676274639995416  0.6986831826328007  0.4457226141035358
  0.0335695912719287  0.3452124797438618  0.4445241786158461
  0.3298370258053190  0.9638084524293007  0.4423756094303141
  0.5951926418909191  0.0420126231501772  0.4474722788454535
  0.4281161512349508  0.3622486834127377  0.4536115310729689
  0.9470094415639680  0.5744750220855344  0.4686108190072594
  0.6739128547646095  0.7824294386307655  0.5011309476864979
  0.1042465852309793  0.3283377121471805  0.5014623579268922
  0.2422602044457840  0.8952468708943527  0.5001750844722878
  0.5956171156605836  0.0413268987400853  0.5575820118324496
  0.4236578316773436  0.3578033007209266  0.5658217242779419
  0.9513866849224238  0.5826773278685051  0.5807311918723739
  0.6701982908727558  0.7530734132462968  0.4464242968087554
  0.0811950234083856  0.3351442570140650  0.4462377138083192
  0.2722437893429304  0.9164111702681221  0.4447248248653919
  0.5656737489613171  0.0179731285449648  0.5025253295956231
  0.4342216586608661  0.3897512040628172  0.5108153428865279
  0.9702834402832186  0.5697700243576392  0.5252445660569048
  0.5921757237447580  0.7709547644373913  0.5584611299542136
  0.1801168251499991  0.4059014229573097  0.5580444386755078
  0.2447522448109062  0.8217459747383858  0.5606196761563379
  0.6555722296985040  0.0149378329851103  0.6156398433767523
  0.3344239383011437  0.3061669526956823  0.6200006573158336
  0.9930307323914664  0.6738789487303002  0.6314450417696966
  0.6278686050963612  0.8024490313558196  0.5011303764786891
  0.1716790239854261  0.3677392715792798  0.5017179339438542
  0.2144384219470672  0.8280804927297282  0.5032880328950876
  0.5974781886142103  0.9940043882827403  0.5912669364983942
  0.3783700195239844  0.3630063174593909  0.6005158198544724
  0.0037096471527989  0.6281741639532190  0.6124227478415484
  0.5299190277664135  0.7427369919066590  0.5582480786735515
  0.2201359486211467  0.4670285623739258  0.5568523217384796
  0.2670856795249040  0.7825494190466107  0.5619697512979461
  0.6786995266548178  0.9764316482216422  0.6157705922844666
  0.2743517380029090  0.2910874312153769  0.6183438889341412
  0.0386686496244320  0.7330453814318917  0.6269175009741874
  0.5248672054467508  0.6597733081813316  0.6153008332837230
  0.1486270301569076  0.4843968129324002  0.6124256338959633
  0.3547901802410089  0.8557219642029571  0.6168366814791750
  0.7641467531134307  0.0484556790491917  0.5570170632798092
  0.2520871951412146  0.2049642414175405  0.5562829539268397
  0.9734152331283915  0.7564888787950695  0.5671825657821821
  0.4970710027256689  0.6904303938508620  0.5930815234030009
  0.2065224316462488  0.5051456871566919  0.5905358053019850
  0.3192823922404717  0.7980621424964629  0.5961244193897847
  0.7359593352358177  0.9961317606907630  0.5915138919830397
  0.2327614449360352  0.2371673066547562  0.5911871603161555
  0.0255170933132004  0.7741321064524176  0.5979828866099998
  0.5198436742694734  0.5766905796421241  0.5586889186060398
  0.0773326374645944  0.4999044674605352  0.5543189833701170
  0.4417511675543092  0.9251084891716110  0.5581618767636205
  0.7635709888366552  0.0490893754468299  0.4447765769081420
  0.2565101476116311  0.2091604967370703  0.4434438140587634
  0.9689073009474914  0.7477380461679280  0.4540498550379352
  0.4915095637438338  0.6011707897953863  0.5933838164692981
  0.1299157533551127  0.5230461762189621  0.5893513412400275
  0.4125147571885709  0.8748167494582102  0.5925965276653345
  0.7819419751522627  0.0356420501889229  0.5004596964442263
  0.2236204242433114  0.1931825035659049  0.4985872994688592
  0.9845877058455977  0.7893968357729144  0.5072929489542854
  0.4885078103637763  0.5561344505487026  0.5024699914050131
  0.0917245177177906  0.5306300613353060  0.4975593174070475
  0.4705737368952162  0.9143527225063820  0.5021691066878712
  0.7348990559012296  0.9970198704809318  0.4097070219843200
  0.2402652598453382  0.2445141897003543  0.4095776000079051
  0.0183939022855123  0.7609690621312403  0.4201829336206795
  0.5819718893756998  0.6051553739562596  0.4454574032048763
  0.0379102643035653  0.4371313702885220  0.4419614701427420
  0.4181878614368744  0.9600359973299160  0.4429112201398834
  0.6547027033448873  0.0162972348846127  0.3876845873251987
  0.3437989901478438  0.3153805548088399  0.3911747425354268
  0.9838656108590254  0.6569505156814197  0.4034944697510092
  0.6144189173645620  0.6576750571786691  0.4109548716216005
  0.0521765846711012  0.3993168154567173  0.4086559223160292
  0.3658266232202525  0.9442974846162990  0.4088535460479271
  0.5968510272888371  0.9951178997780301  0.4126605762381115
  0.3858715114255986  0.3703838391346551  0.4165602985609547
  0.9963731074769193  0.6146232360424078  0.4295416037058526
  0.5192300819697165  0.5762855535805086  0.4458644560747499
  0.0778334946005998  0.4988126549683797  0.4414811330730265
  0.4407227398026876  0.9209531868775233  0.4444294577413954
  0.6775747742688492  0.9775949632917365  0.3861372054982650
  0.2838391669546887  0.3003976941075477  0.3881759908446649
  0.0294380828188462  0.7160711778746298  0.3980928890873716
  0.6188426692734948  0.7459607171993337  0.4119514874075690
  0.1292109611117314  0.3827388848492077  0.4113674071744465
  0.2723977293584795  0.8674508570198883  0.4124988368381413
  0.5384205953858213  0.9509224914281180  0.5019388926330910
  0.3956945724794245  0.4143565600352040  0.5103159573009745
  0.0337709522401971  0.6069476191218628  0.5219944296872920
  0.5914948211485307  0.7702806677248004  0.4446733621058581
  0.1806701056817962  0.4048269650377755  0.4442945004079112
  0.2429411650847733  0.8170863959078991  0.4468833176718466
  0.5683604608650710  0.9425778338049577  0.5583868027646050
  0.3619818742439340  0.3980100119181446  0.5656596334665647
  0.0538593325611874  0.6422884591512048  0.5758141186746049
  0.5862774656301277  0.6873467215103184  0.3884369616902689
  0.1095664686750749  0.4205869621271294  0.3865962929627228
  0.3302074588301200  0.8865897087177962  0.3882613106422311
  0.5679242018875190  0.9432526901875506  0.4447977231419397
  0.3666367288092485  0.4025583137298170  0.4522551821127291
  0.0492681700726626  0.6339429250285834  0.4630307369547697
  0.4992858606563069  0.7351975981521373  0.5021863839387342
  0.2458545944552712  0.4953700938653707  0.5004331283613120
  0.2708560210453596  0.7555967784722765  0.5070047445195608
  0.6439660829209790  0.9195366732956163  0.5910617854545066
  0.2593559378601679  0.3321213371047389  0.5945869350528989
  0.0931048520340069  0.7460647611251328  0.6012221876426170
  0.5293065662540387  0.7422476725438559  0.4457656740647191
  0.2206985622316141  0.4659351602974611  0.4443509054948926
  0.2656914906277871  0.7781785588649933  0.4495829590649744
  0.5925087055763014  0.9049448110123580  0.5568111390107504
  0.3016806727401840  0.3823151079397770  0.5626749505447403
  0.0990881118425099  0.7019160641719014  0.5702695559354053
  0.4441200685006284  0.6498392712459348  0.5583521867334075
  0.2252188608466739  0.5589564887491725  0.5547167301485452
  0.3552310875103797  0.7785480777829188  0.5625757737145622
  0.7364959254872168  0.9492401135825025  0.5561252549371263
  0.1898651851032530  0.2447679805460043  0.5549891905156989
  0.0750444072193124  0.8148868471279310  0.5603734422778855
  0.4406993879651355  0.5950441602856954  0.5584914022069484
  0.1782119560510393  0.5699732841753746  0.5539505368843370
  0.4128227258100193  0.8258990165424395  0.5603844733170109
  0.7742517932748796  0.9738867222192097  0.4996529539454276
  0.1744917270710129  0.2083913814953181  0.4973345706080661
  0.0529506954190454  0.8302446513157999  0.5040984341512287
  0.4389472758726984  0.5675195200286137  0.5026979106797382
  0.1547435861412884  0.5745464365761279  0.4976373576394991
  0.4427545831258010  0.8471243684106103  0.5048868459169308
  0.7353283080504339  0.9496179564153916  0.4440965639598157
  0.1944831416080329  0.2493929261343026  0.4432728070804264
  0.0707315362432929  0.8069175540397883  0.4504777231813372
  0.4457704954802991  0.6772032497216788  0.5025556674697035
  0.2488860123544627  0.5526965890436457  0.4994092408072304
  0.3255246962001635  0.7529368694667563  0.5078402952715391
  0.6809400226837026  0.9031948153578651  0.5559070140119483
  0.2059856703862339  0.3022113084260776  0.5572988479605961
  0.1164315132435525  0.7983631190320808  0.5622595964852894
  0.4905420759974758  0.6005245341577810  0.4113552210156355
  0.1307701935168493  0.5211884022561114  0.4071531511652125
  0.4107906980901007  0.8682512685138047  0.4140926085022696
  0.6429317631614164  0.9202556812579524  0.4101657884408627
  0.2669420499304390  0.3395225959854209  0.4133117631354979
  0.0858003373666918  0.7326591480275084  0.4208969811094596
  0.5236435121493643  0.6589426069441375  0.3889103588458954
  0.1497222150584517  0.4820966997712141  0.3860663601406124
  0.3524868338690464  0.8472824651952801  0.3903724548020220
  0.5919161717787799  0.9054335417027424  0.4451775277911404
  0.3063414208282100  0.3868715128169090  0.4505533455720045
  0.0944970386866826  0.6935873957873893  0.4584997241270686
  0.4960981179661475  0.6897336262476531  0.4114570678196218
  0.2074158710710569  0.5033284152087468  0.4088781537601042
  0.3173668701231993  0.7912925987717968  0.4154247108720007
  0.5964206398674882  0.8800213261527589  0.5007396829429459
  0.2766676693746607  0.3840161850664627  0.5057793600716755
  0.1232868857814217  0.7247526297499881  0.5120619937867520
  0.4401286800950325  0.5946559069677231  0.4468218294750233
  0.1787174077322185  0.5688029510863978  0.4421992995175511
  0.4116877312330178  0.8218836754646599  0.4508548362859914
  0.6800710946334511  0.9032425849143033  0.4441703573978704
  0.2107096537649527  0.3067720620662286  0.4455069378981779
  0.1119109266257435  0.7900664265905704  0.4507535213993846
  0.4435524377520282  0.6494404497926745  0.4468602599454559
  0.2257350393586858  0.5578187833943031  0.4432097584146924
  0.3540822156132216  0.7744287369745574  0.4516224699417270
  0.6482090477952290  0.8680853134394594  0.5002705706840289
  0.2104647334489227  0.3392380908457503  0.5024719714251268
  0.1466742254877052  0.7910345139625230  0.5064773717936820
 
  0.00000000E+00  0.00000000E+00  0.00000000E+00
  0.00000000E+00  0.00000000E+00  0.00000000E+00
  0.00000000E+00  0.00000000E+00  0.00000000E+00
  0.00000000E+00  0.00000000E+00  0.00000000E+00
  0.00000000E+00  0.00000000E+00  0.00000000E+00
  0.00000000E+00  0.00000000E+00  0.00000000E+00
  0.00000000E+00  0.00000000E+00  0.00000000E+00
  0.00000000E+00  0.00000000E+00  0.00000000E+00
  0.00000000E+00  0.00000000E+00  0.00000000E+00
  0.00000000E+00  0.00000000E+00  0.00000000E+00
  0.00000000E+00  0.00000000E+00  0.00000000E+00
  0.00000000E+00  0.00000000E+00  0.00000000E+00
  0.00000000E+00  0.00000000E+00  0.00000000E+00
  0.00000000E+00  0.00000000E+00  0.00000000E+00
  0.00000000E+00  0.00000000E+00  0.00000000E+00
  0.00000000E+00  0.00000000E+00  0.00000000E+00
  0.00000000E+00  0.00000000E+00  0.00000000E+00
  0.00000000E+00  0.00000000E+00  0.00000000E+00
  0.00000000E+00  0.00000000E+00  0.00000000E+00
  0.00000000E+00  0.00000000E+00  0.00000000E+00
  0.00000000E+00  0.00000000E+00  0.00000000E+00
  0.00000000E+00  0.00000000E+00  0.00000000E+00
  0.00000000E+00  0.00000000E+00  0.00000000E+00
  0.00000000E+00  0.00000000E+00  0.00000000E+00
  0.00000000E+00  0.00000000E+00  0.00000000E+00
  0.00000000E+00  0.00000000E+00  0.00000000E+00
  0.00000000E+00  0.00000000E+00  0.00000000E+00
  0.00000000E+00  0.00000000E+00  0.00000000E+00
  0.00000000E+00  0.00000000E+00  0.00000000E+00
  0.00000000E+00  0.00000000E+00  0.00000000E+00
  0.00000000E+00  0.00000000E+00  0.00000000E+00
  0.00000000E+00  0.00000000E+00  0.00000000E+00
  0.00000000E+00  0.00000000E+00  0.00000000E+00
  0.00000000E+00  0.00000000E+00  0.00000000E+00
  0.00000000E+00  0.00000000E+00  0.00000000E+00
  0.00000000E+00  0.00000000E+00  0.00000000E+00
  0.00000000E+00  0.00000000E+00  0.00000000E+00
  0.00000000E+00  0.00000000E+00  0.00000000E+00
  0.00000000E+00  0.00000000E+00  0.00000000E+00
  0.00000000E+00  0.00000000E+00  0.00000000E+00
  0.00000000E+00  0.00000000E+00  0.00000000E+00
  0.00000000E+00  0.00000000E+00  0.00000000E+00
  0.00000000E+00  0.00000000E+00  0.00000000E+00
  0.00000000E+00  0.00000000E+00  0.00000000E+00
  0.00000000E+00  0.00000000E+00  0.00000000E+00
  0.00000000E+00  0.00000000E+00  0.00000000E+00
  0.00000000E+00  0.00000000E+00  0.00000000E+00
  0.00000000E+00  0.00000000E+00  0.00000000E+00
  0.00000000E+00  0.00000000E+00  0.00000000E+00
  0.00000000E+00  0.00000000E+00  0.00000000E+00
  0.00000000E+00  0.00000000E+00  0.00000000E+00
  0.00000000E+00  0.00000000E+00  0.00000000E+00
  0.00000000E+00  0.00000000E+00  0.00000000E+00
  0.00000000E+00  0.00000000E+00  0.00000000E+00
  0.00000000E+00  0.00000000E+00  0.00000000E+00
  0.00000000E+00  0.00000000E+00  0.00000000E+00
  0.00000000E+00  0.00000000E+00  0.00000000E+00
  0.00000000E+00  0.00000000E+00  0.00000000E+00
  0.00000000E+00  0.00000000E+00  0.00000000E+00
  0.00000000E+00  0.00000000E+00  0.00000000E+00
  0.00000000E+00  0.00000000E+00  0.00000000E+00
  0.00000000E+00  0.00000000E+00  0.00000000E+00
  0.00000000E+00  0.00000000E+00  0.00000000E+00
  0.00000000E+00  0.00000000E+00  0.00000000E+00
  0.00000000E+00  0.00000000E+00  0.00000000E+00
  0.00000000E+00  0.00000000E+00  0.00000000E+00
  0.00000000E+00  0.00000000E+00  0.00000000E+00
  0.00000000E+00  0.00000000E+00  0.00000000E+00
  0.00000000E+00  0.00000000E+00  0.00000000E+00
  0.00000000E+00  0.00000000E+00  0.00000000E+00
  0.00000000E+00  0.00000000E+00  0.00000000E+00
  0.00000000E+00  0.00000000E+00  0.00000000E+00
  0.00000000E+00  0.00000000E+00  0.00000000E+00
  0.00000000E+00  0.00000000E+00  0.00000000E+00
  0.00000000E+00  0.00000000E+00  0.00000000E+00
  0.00000000E+00  0.00000000E+00  0.00000000E+00
  0.00000000E+00  0.00000000E+00  0.00000000E+00
  0.00000000E+00  0.00000000E+00  0.00000000E+00
  0.00000000E+00  0.00000000E+00  0.00000000E+00
  0.00000000E+00  0.00000000E+00  0.00000000E+00
  0.00000000E+00  0.00000000E+00  0.00000000E+00
  0.00000000E+00  0.00000000E+00  0.00000000E+00
  0.00000000E+00  0.00000000E+00  0.00000000E+00
  0.00000000E+00  0.00000000E+00  0.00000000E+00
  0.00000000E+00  0.00000000E+00  0.00000000E+00
  0.00000000E+00  0.00000000E+00  0.00000000E+00
  0.00000000E+00  0.00000000E+00  0.00000000E+00
  0.00000000E+00  0.00000000E+00  0.00000000E+00
  0.00000000E+00  0.00000000E+00  0.00000000E+00
  0.00000000E+00  0.00000000E+00  0.00000000E+00
  0.00000000E+00  0.00000000E+00  0.00000000E+00
  0.00000000E+00  0.00000000E+00  0.00000000E+00
  0.00000000E+00  0.00000000E+00  0.00000000E+00
  0.00000000E+00  0.00000000E+00  0.00000000E+00
  0.00000000E+00  0.00000000E+00  0.00000000E+00
  0.00000000E+00  0.00000000E+00  0.00000000E+00
  0.00000000E+00  0.00000000E+00  0.00000000E+00
  0.00000000E+00  0.00000000E+00  0.00000000E+00
  0.00000000E+00  0.00000000E+00  0.00000000E+00
  0.00000000E+00  0.00000000E+00  0.00000000E+00
  0.00000000E+00  0.00000000E+00  0.00000000E+00
  0.00000000E+00  0.00000000E+00  0.00000000E+00
  0.00000000E+00  0.00000000E+00  0.00000000E+00
  0.00000000E+00  0.00000000E+00  0.00000000E+00
  0.00000000E+00  0.00000000E+00  0.00000000E+00
  0.00000000E+00  0.00000000E+00  0.00000000E+00
  0.00000000E+00  0.00000000E+00  0.00000000E+00
  0.00000000E+00  0.00000000E+00  0.00000000E+00
  0.00000000E+00  0.00000000E+00  0.00000000E+00
  0.00000000E+00  0.00000000E+00  0.00000000E+00
  0.00000000E+00  0.00000000E+00  0.00000000E+00
  0.00000000E+00  0.00000000E+00  0.00000000E+00
  0.00000000E+00  0.00000000E+00  0.00000000E+00
  0.00000000E+00  0.00000000E+00  0.00000000E+00
  0.00000000E+00  0.00000000E+00  0.00000000E+00
  0.00000000E+00  0.00000000E+00  0.00000000E+00
  0.00000000E+00  0.00000000E+00  0.00000000E+00
  0.00000000E+00  0.00000000E+00  0.00000000E+00
  0.00000000E+00  0.00000000E+00  0.00000000E+00
  0.00000000E+00  0.00000000E+00  0.00000000E+00
  0.00000000E+00  0.00000000E+00  0.00000000E+00
  0.00000000E+00  0.00000000E+00  0.00000000E+00
  0.00000000E+00  0.00000000E+00  0.00000000E+00
  0.00000000E+00  0.00000000E+00  0.00000000E+00
  0.00000000E+00  0.00000000E+00  0.00000000E+00
  0.00000000E+00  0.00000000E+00  0.00000000E+00
  0.00000000E+00  0.00000000E+00  0.00000000E+00
  0.00000000E+00  0.00000000E+00  0.00000000E+00
  0.00000000E+00  0.00000000E+00  0.00000000E+00
  0.00000000E+00  0.00000000E+00  0.00000000E+00
  0.00000000E+00  0.00000000E+00  0.00000000E+00
  0.00000000E+00  0.00000000E+00  0.00000000E+00
  0.00000000E+00  0.00000000E+00  0.00000000E+00
  0.00000000E+00  0.00000000E+00  0.00000000E+00
  0.00000000E+00  0.00000000E+00  0.00000000E+00
  0.00000000E+00  0.00000000E+00  0.00000000E+00
  0.00000000E+00  0.00000000E+00  0.00000000E+00
  0.00000000E+00  0.00000000E+00  0.00000000E+00
  0.00000000E+00  0.00000000E+00  0.00000000E+00
  0.00000000E+00  0.00000000E+00  0.00000000E+00
  0.00000000E+00  0.00000000E+00  0.00000000E+00
  0.00000000E+00  0.00000000E+00  0.00000000E+00
  0.00000000E+00  0.00000000E+00  0.00000000E+00
  0.00000000E+00  0.00000000E+00  0.00000000E+00
  0.00000000E+00  0.00000000E+00  0.00000000E+00
  0.00000000E+00  0.00000000E+00  0.00000000E+00
  0.00000000E+00  0.00000000E+00  0.00000000E+00
  0.00000000E+00  0.00000000E+00  0.00000000E+00
  0.00000000E+00  0.00000000E+00  0.00000000E+00
  0.00000000E+00  0.00000000E+00  0.00000000E+00
  0.00000000E+00  0.00000000E+00  0.00000000E+00
  0.00000000E+00  0.00000000E+00  0.00000000E+00
  0.00000000E+00  0.00000000E+00  0.00000000E+00
  0.00000000E+00  0.00000000E+00  0.00000000E+00
  0.00000000E+00  0.00000000E+00  0.00000000E+00
  0.00000000E+00  0.00000000E+00  0.00000000E+00
  0.00000000E+00  0.00000000E+00  0.00000000E+00
  0.00000000E+00  0.00000000E+00  0.00000000E+00
  0.00000000E+00  0.00000000E+00  0.00000000E+00
  0.00000000E+00  0.00000000E+00  0.00000000E+00
  0.00000000E+00  0.00000000E+00  0.00000000E+00
  0.00000000E+00  0.00000000E+00  0.00000000E+00
  0.00000000E+00  0.00000000E+00  0.00000000E+00
  0.00000000E+00  0.00000000E+00  0.00000000E+00
  0.00000000E+00  0.00000000E+00  0.00000000E+00
  0.00000000E+00  0.00000000E+00  0.00000000E+00
  0.00000000E+00  0.00000000E+00  0.00000000E+00
  0.00000000E+00  0.00000000E+00  0.00000000E+00
  0.00000000E+00  0.00000000E+00  0.00000000E+00
  0.00000000E+00  0.00000000E+00  0.00000000E+00
  0.00000000E+00  0.00000000E+00  0.00000000E+00
  0.00000000E+00  0.00000000E+00  0.00000000E+00
  0.00000000E+00  0.00000000E+00  0.00000000E+00
  0.00000000E+00  0.00000000E+00  0.00000000E+00
  0.00000000E+00  0.00000000E+00  0.00000000E+00
  0.00000000E+00  0.00000000E+00  0.00000000E+00
  0.00000000E+00  0.00000000E+00  0.00000000E+00
  0.00000000E+00  0.00000000E+00  0.00000000E+00
  0.00000000E+00  0.00000000E+00  0.00000000E+00
  0.00000000E+00  0.00000000E+00  0.00000000E+00
  0.00000000E+00  0.00000000E+00  0.00000000E+00
  0.00000000E+00  0.00000000E+00  0.00000000E+00
  0.00000000E+00  0.00000000E+00  0.00000000E+00
  0.00000000E+00  0.00000000E+00  0.00000000E+00
  0.00000000E+00  0.00000000E+00  0.00000000E+00
  0.00000000E+00  0.00000000E+00  0.00000000E+00
  0.00000000E+00  0.00000000E+00  0.00000000E+00
  0.00000000E+00  0.00000000E+00  0.00000000E+00
  0.00000000E+00  0.00000000E+00  0.00000000E+00
  0.00000000E+00  0.00000000E+00  0.00000000E+00
  0.00000000E+00  0.00000000E+00  0.00000000E+00
  0.00000000E+00  0.00000000E+00  0.00000000E+00
  0.00000000E+00  0.00000000E+00  0.00000000E+00
  0.00000000E+00  0.00000000E+00  0.00000000E+00
  0.00000000E+00  0.00000000E+00  0.00000000E+00
  0.00000000E+00  0.00000000E+00  0.00000000E+00
  0.00000000E+00  0.00000000E+00  0.00000000E+00
  0.00000000E+00  0.00000000E+00  0.00000000E+00
  0.00000000E+00  0.00000000E+00  0.00000000E+00
  0.00000000E+00  0.00000000E+00  0.00000000E+00
  0.00000000E+00  0.00000000E+00  0.00000000E+00
  0.00000000E+00  0.00000000E+00  0.00000000E+00
  0.00000000E+00  0.00000000E+00  0.00000000E+00
  0.00000000E+00  0.00000000E+00  0.00000000E+00
  0.00000000E+00  0.00000000E+00  0.00000000E+00
  0.00000000E+00  0.00000000E+00  0.00000000E+00
  0.00000000E+00  0.00000000E+00  0.00000000E+00
  0.00000000E+00  0.00000000E+00  0.00000000E+00
  0.00000000E+00  0.00000000E+00  0.00000000E+00
  0.00000000E+00  0.00000000E+00  0.00000000E+00
  0.00000000E+00  0.00000000E+00  0.00000000E+00
  0.00000000E+00  0.00000000E+00  0.00000000E+00
  0.00000000E+00  0.00000000E+00  0.00000000E+00
  0.00000000E+00  0.00000000E+00  0.00000000E+00
  0.00000000E+00  0.00000000E+00  0.00000000E+00
  0.00000000E+00  0.00000000E+00  0.00000000E+00
  0.00000000E+00  0.00000000E+00  0.00000000E+00
  0.00000000E+00  0.00000000E+00  0.00000000E+00
  0.00000000E+00  0.00000000E+00  0.00000000E+00
  0.00000000E+00  0.00000000E+00  0.00000000E+00
  0.00000000E+00  0.00000000E+00  0.00000000E+00
  0.00000000E+00  0.00000000E+00  0.00000000E+00
  0.00000000E+00  0.00000000E+00  0.00000000E+00
  0.00000000E+00  0.00000000E+00  0.00000000E+00
  0.00000000E+00  0.00000000E+00  0.00000000E+00
  0.00000000E+00  0.00000000E+00  0.00000000E+00
  0.00000000E+00  0.00000000E+00  0.00000000E+00
  0.00000000E+00  0.00000000E+00  0.00000000E+00
  0.00000000E+00  0.00000000E+00  0.00000000E+00
  0.00000000E+00  0.00000000E+00  0.00000000E+00
  0.00000000E+00  0.00000000E+00  0.00000000E+00
  0.00000000E+00  0.00000000E+00  0.00000000E+00
  0.00000000E+00  0.00000000E+00  0.00000000E+00
  0.00000000E+00  0.00000000E+00  0.00000000E+00
  0.00000000E+00  0.00000000E+00  0.00000000E+00
  0.00000000E+00  0.00000000E+00  0.00000000E+00
  0.00000000E+00  0.00000000E+00  0.00000000E+00
  0.00000000E+00  0.00000000E+00  0.00000000E+00
  0.00000000E+00  0.00000000E+00  0.00000000E+00
  0.00000000E+00  0.00000000E+00  0.00000000E+00
  0.00000000E+00  0.00000000E+00  0.00000000E+00
  0.00000000E+00  0.00000000E+00  0.00000000E+00
  0.00000000E+00  0.00000000E+00  0.00000000E+00
  0.00000000E+00  0.00000000E+00  0.00000000E+00
  0.00000000E+00  0.00000000E+00  0.00000000E+00
  0.00000000E+00  0.00000000E+00  0.00000000E+00
  0.00000000E+00  0.00000000E+00  0.00000000E+00
  0.00000000E+00  0.00000000E+00  0.00000000E+00
  0.00000000E+00  0.00000000E+00  0.00000000E+00
  0.00000000E+00  0.00000000E+00  0.00000000E+00
  0.00000000E+00  0.00000000E+00  0.00000000E+00
  0.00000000E+00  0.00000000E+00  0.00000000E+00
  0.00000000E+00  0.00000000E+00  0.00000000E+00
  0.00000000E+00  0.00000000E+00  0.00000000E+00
  0.00000000E+00  0.00000000E+00  0.00000000E+00
  0.00000000E+00  0.00000000E+00  0.00000000E+00
  0.00000000E+00  0.00000000E+00  0.00000000E+00
  0.00000000E+00  0.00000000E+00  0.00000000E+00
  0.00000000E+00  0.00000000E+00  0.00000000E+00
  0.00000000E+00  0.00000000E+00  0.00000000E+00
  0.00000000E+00  0.00000000E+00  0.00000000E+00
  0.00000000E+00  0.00000000E+00  0.00000000E+00
  0.00000000E+00  0.00000000E+00  0.00000000E+00
  0.00000000E+00  0.00000000E+00  0.00000000E+00
  0.00000000E+00  0.00000000E+00  0.00000000E+00
  0.00000000E+00  0.00000000E+00  0.00000000E+00
  0.00000000E+00  0.00000000E+00  0.00000000E+00
  0.00000000E+00  0.00000000E+00  0.00000000E+00
  0.00000000E+00  0.00000000E+00  0.00000000E+00
  0.00000000E+00  0.00000000E+00  0.00000000E+00
  0.00000000E+00  0.00000000E+00  0.00000000E+00
  0.00000000E+00  0.00000000E+00  0.00000000E+00
  0.00000000E+00  0.00000000E+00  0.00000000E+00
  0.00000000E+00  0.00000000E+00  0.00000000E+00
  0.00000000E+00  0.00000000E+00  0.00000000E+00
  0.00000000E+00  0.00000000E+00  0.00000000E+00
  0.00000000E+00  0.00000000E+00  0.00000000E+00
  0.00000000E+00  0.00000000E+00  0.00000000E+00
  0.00000000E+00  0.00000000E+00  0.00000000E+00
  0.00000000E+00  0.00000000E+00  0.00000000E+00
  0.00000000E+00  0.00000000E+00  0.00000000E+00
  0.00000000E+00  0.00000000E+00  0.00000000E+00
  0.00000000E+00  0.00000000E+00  0.00000000E+00
  0.00000000E+00  0.00000000E+00  0.00000000E+00
  0.00000000E+00  0.00000000E+00  0.00000000E+00
  0.00000000E+00  0.00000000E+00  0.00000000E+00
  0.00000000E+00  0.00000000E+00  0.00000000E+00
  0.00000000E+00  0.00000000E+00  0.00000000E+00
  0.00000000E+00  0.00000000E+00  0.00000000E+00
  0.00000000E+00  0.00000000E+00  0.00000000E+00
  0.00000000E+00  0.00000000E+00  0.00000000E+00
  0.00000000E+00  0.00000000E+00  0.00000000E+00
  0.00000000E+00  0.00000000E+00  0.00000000E+00
  0.00000000E+00  0.00000000E+00  0.00000000E+00
  0.00000000E+00  0.00000000E+00  0.00000000E+00
  0.00000000E+00  0.00000000E+00  0.00000000E+00
  0.00000000E+00  0.00000000E+00  0.00000000E+00
  0.00000000E+00  0.00000000E+00  0.00000000E+00
  0.00000000E+00  0.00000000E+00  0.00000000E+00
  0.00000000E+00  0.00000000E+00  0.00000000E+00
  0.00000000E+00  0.00000000E+00  0.00000000E+00
  0.00000000E+00  0.00000000E+00  0.00000000E+00
  0.00000000E+00  0.00000000E+00  0.00000000E+00
  0.00000000E+00  0.00000000E+00  0.00000000E+00
  0.00000000E+00  0.00000000E+00  0.00000000E+00
  0.00000000E+00  0.00000000E+00  0.00000000E+00
  0.00000000E+00  0.00000000E+00  0.00000000E+00
  0.00000000E+00  0.00000000E+00  0.00000000E+00
  0.00000000E+00  0.00000000E+00  0.00000000E+00
  0.00000000E+00  0.00000000E+00  0.00000000E+00
  0.00000000E+00  0.00000000E+00  0.00000000E+00
  0.00000000E+00  0.00000000E+00  0.00000000E+00
  0.00000000E+00  0.00000000E+00  0.00000000E+00
  0.00000000E+00  0.00000000E+00  0.00000000E+00
  0.00000000E+00  0.00000000E+00  0.00000000E+00
  0.00000000E+00  0.00000000E+00  0.00000000E+00
  0.00000000E+00  0.00000000E+00  0.00000000E+00
  0.00000000E+00  0.00000000E+00  0.00000000E+00
  0.00000000E+00  0.00000000E+00  0.00000000E+00
  0.00000000E+00  0.00000000E+00  0.00000000E+00
  0.00000000E+00  0.00000000E+00  0.00000000E+00
  0.00000000E+00  0.00000000E+00  0.00000000E+00
  0.00000000E+00  0.00000000E+00  0.00000000E+00
  0.00000000E+00  0.00000000E+00  0.00000000E+00
  0.00000000E+00  0.00000000E+00  0.00000000E+00
  0.00000000E+00  0.00000000E+00  0.00000000E+00
  0.00000000E+00  0.00000000E+00  0.00000000E+00
  0.00000000E+00  0.00000000E+00  0.00000000E+00
  0.00000000E+00  0.00000000E+00  0.00000000E+00
  0.00000000E+00  0.00000000E+00  0.00000000E+00
  0.00000000E+00  0.00000000E+00  0.00000000E+00
  0.00000000E+00  0.00000000E+00  0.00000000E+00
  0.00000000E+00  0.00000000E+00  0.00000000E+00
  0.00000000E+00  0.00000000E+00  0.00000000E+00
  0.00000000E+00  0.00000000E+00  0.00000000E+00
  0.00000000E+00  0.00000000E+00  0.00000000E+00
