Generated by VASPKIT code               
   1.00000000000000     
    10.3951575061388937   -3.0370515405974223    0.0000000000000000
    -7.2454902143140059   12.4086873710610170    0.0000000000000000
     0.0000000000000006    0.0000000000000020   21.9971053870846482
   C 
    96
Direct
  0.5303088856726168  0.5107560775672987  0.4391549574635103
  0.4224717311729903  0.4554175862505689  0.4970842844431130
  0.2579376740858301  0.3139975750164709  0.4787005573252838
  0.4164888413466535  0.4276793583739530  0.3886715020877894
  0.2488365808659767  0.3045684063195912  0.4124194566553697
  0.4940594494711871  0.4318495660615253  0.3357232908034862
  0.6830526357542299  0.5179638608256237  0.3335091175796925
  0.7110625618726047  0.5944105964189544  0.4373568525685945
  0.7930505669918896  0.5997665611273015  0.3839034510505641
  0.8023301876282403  0.6085966026482243  0.4912434839027329
  0.5261579580289586  0.4725597721238974  0.5575132150600001
  0.7116638186631821  0.5407807078845004  0.5446795086536653
  0.4418262444950442  0.3428139309296351  0.5874995177859688
  0.1908647126318311  0.2088543650639150  0.5139606837291604
  0.2795140325583376  0.2200954251076770  0.5677114729106157
  0.0715686296336333  0.0695848573914226  0.4889916907703171
  0.1585431963588680  0.1813646652640740  0.3838008431279935
  0.0765344261808622  0.0659002350317863  0.4197363087517106
  0.4013627308553124  0.3053781222809691  0.3055166340631138
  0.2386224597910141  0.1838695346570120  0.3292148500010002
  0.7120913478886339  0.4465377405769768  0.3019417935285267
  0.5371672888489191  0.3149975865159883  0.2840968672102837
  0.8473936197158823  0.4601005803484105  0.3218809857563531
  0.9338166294303670  0.6160759025072110  0.4034056288548538
  0.9374797206994079  0.6200536161306828  0.4699780529651233
  0.9623574291893610  0.5461956787155697  0.3739376543689034
  0.9658719071666568  0.5559621197121142  0.5028869755827515
  0.7456608329838137  0.4786334971266289  0.5794046188407829
  0.5793108297500245  0.3540847112164283  0.6058106795432144
  0.8727191667650223  0.4854284216130065  0.5576758486880576
  0.5472219726058564  0.2406571949591366  0.6096472317300430
  0.2466722620451819  0.1032802982290691  0.5692890395413440
  0.1416134487783100  0.0209832056237470  0.5177630923715481
  0.3747671927193207  0.1109664467242742  0.5909070118659172
  0.1567864335521101  0.9460628375350499  0.4872171733627143
  0.1062047949278320  0.9957527875569655  0.3885675309787865
  0.2045675300263503  0.0667049856345052  0.3320968133529446
  0.1423352822264215  0.9338183901406303  0.4207553090324104
  0.5041411029815508  0.2013964941429806  0.2867970140530544
  0.3346612697574929  0.0750630458711728  0.3113004833500750
  0.8138832064269969  0.3432062502200486  0.3241329136367828
  0.6451871506336003  0.2161000343524671  0.3069607497437131
  0.0025679819071241  0.4851458346355565  0.4075110048475539
  0.0279597223963497  0.5002008673554027  0.4760824099528152
  0.9088662377869112  0.3592508714447167  0.3774282615912116
  0.8395384454875320  0.3688959018227818  0.5611439936614014
  0.6801583586471176  0.2488573179462741  0.5865025627213825
  0.9117711547477929  0.3675040159780009  0.5075082221150414
  0.3999354772603516  0.0396409095790582  0.5573778999057863
  0.2935832251213569  0.9587792902240527  0.5068591102354568
  0.5885394200073147  0.1273041382692209  0.5537112423519405
  0.2743941367902195  0.9416152412068064  0.3994896544828346
  0.3712861446455288  0.0107769457590494  0.3453484535606830
  0.5611397373578045  0.0971848539798356  0.3426347753082288
  0.3688450340956368  0.9594855644367353  0.4524833641828655
  0.8266029876203780  0.2432478136248594  0.4110017622954095
  0.8313440499952978  0.2511950913893761  0.4776965963234467
  0.6625860749369982  0.1296768239648246  0.5006455566056895
  0.6532063264321658  0.1140774769936494  0.3940767563567321
  0.5521271275541692  0.0457189615840872  0.4493678947177351
  0.6307383526626745  0.6900341551309869  0.6932507868484068
  0.7215179203004771  0.8266168328265869  0.7077451741904717
  0.8485633201861573  0.9141139633996711  0.6611158288866289
  0.7073748066239764  0.6921117814327837  0.6406024046714347
  0.8394082106267375  0.8328679747379942  0.6181914951681570
  0.5491437975564180  0.5744123618371811  0.6008975151297967
  0.4367214986349306  0.5802474202047858  0.6907724353558956
  0.3838828405409482  0.5122668057355011  0.6353026940403672
  0.3294082869524707  0.6049587493434957  0.7008396107186251
  0.6117699927092620  0.8480878694201607  0.7149141825153613
  0.4232620109333269  0.7419001774396805  0.7127953992641587
  0.8193384797381439  0.9933593316520326  0.6371420683596074
  0.6778596406363406  0.9558348319516747  0.6723669852697993
  0.8339228531015180  0.0208117704299148  0.5732833328402361
  0.8476130211132706  0.8600471380867553  0.5560630998641227
  0.8856379350045286  0.9748110956660120  0.5261769779525026
  0.5643780385748940  0.6394288105482546  0.5468244644304175
  0.7144846675788817  0.7474077680019080  0.5175394234470109
  0.4033757175271425  0.5535573125581273  0.5082057163272433
  0.2504654794220844  0.4995302800446175  0.6067302049931325
  0.2130634232452901  0.5539971620374768  0.6503211593778335
  0.2576128778652899  0.5198802648643024  0.5442467472042770
  0.3631228398724120  0.7768601053335383  0.6670299561844651
  0.5207156834996622  0.9070835624490220  0.6427976282368288
  0.2394903754768150  0.6628391340322396  0.6274552136581835
  0.6898040465282178  0.9910388317637124  0.5475519429232270
  0.5285678580443259  0.9241552604628280  0.5798576468457611
  0.7437275898035435  0.9049684979223556  0.4768196847788803
  0.6589792565805932  0.7741168729993351  0.4655024554759423
  0.4690777377107840  0.6620663619928603  0.4615009660784586
  0.6413512513624215  0.9273174666006294  0.4877979235445511
  0.2177778228830871  0.5906821907478140  0.5153013702160691
  0.2473357996032511  0.6829519550341727  0.5636028248856482
  0.3830406672886967  0.8155391667530703  0.5422207937533887
  0.3704504142489865  0.6886008280816347  0.4716569874635366
  0.4544040995940513  0.8186603564850951  0.4851707727114573
 
  0.00000000E+00  0.00000000E+00  0.00000000E+00
  0.00000000E+00  0.00000000E+00  0.00000000E+00
  0.00000000E+00  0.00000000E+00  0.00000000E+00
  0.00000000E+00  0.00000000E+00  0.00000000E+00
  0.00000000E+00  0.00000000E+00  0.00000000E+00
  0.00000000E+00  0.00000000E+00  0.00000000E+00
  0.00000000E+00  0.00000000E+00  0.00000000E+00
  0.00000000E+00  0.00000000E+00  0.00000000E+00
  0.00000000E+00  0.00000000E+00  0.00000000E+00
  0.00000000E+00  0.00000000E+00  0.00000000E+00
  0.00000000E+00  0.00000000E+00  0.00000000E+00
  0.00000000E+00  0.00000000E+00  0.00000000E+00
  0.00000000E+00  0.00000000E+00  0.00000000E+00
  0.00000000E+00  0.00000000E+00  0.00000000E+00
  0.00000000E+00  0.00000000E+00  0.00000000E+00
  0.00000000E+00  0.00000000E+00  0.00000000E+00
  0.00000000E+00  0.00000000E+00  0.00000000E+00
  0.00000000E+00  0.00000000E+00  0.00000000E+00
  0.00000000E+00  0.00000000E+00  0.00000000E+00
  0.00000000E+00  0.00000000E+00  0.00000000E+00
  0.00000000E+00  0.00000000E+00  0.00000000E+00
  0.00000000E+00  0.00000000E+00  0.00000000E+00
  0.00000000E+00  0.00000000E+00  0.00000000E+00
  0.00000000E+00  0.00000000E+00  0.00000000E+00
  0.00000000E+00  0.00000000E+00  0.00000000E+00
  0.00000000E+00  0.00000000E+00  0.00000000E+00
  0.00000000E+00  0.00000000E+00  0.00000000E+00
  0.00000000E+00  0.00000000E+00  0.00000000E+00
  0.00000000E+00  0.00000000E+00  0.00000000E+00
  0.00000000E+00  0.00000000E+00  0.00000000E+00
  0.00000000E+00  0.00000000E+00  0.00000000E+00
  0.00000000E+00  0.00000000E+00  0.00000000E+00
  0.00000000E+00  0.00000000E+00  0.00000000E+00
  0.00000000E+00  0.00000000E+00  0.00000000E+00
  0.00000000E+00  0.00000000E+00  0.00000000E+00
  0.00000000E+00  0.00000000E+00  0.00000000E+00
  0.00000000E+00  0.00000000E+00  0.00000000E+00
  0.00000000E+00  0.00000000E+00  0.00000000E+00
  0.00000000E+00  0.00000000E+00  0.00000000E+00
  0.00000000E+00  0.00000000E+00  0.00000000E+00
  0.00000000E+00  0.00000000E+00  0.00000000E+00
  0.00000000E+00  0.00000000E+00  0.00000000E+00
  0.00000000E+00  0.00000000E+00  0.00000000E+00
  0.00000000E+00  0.00000000E+00  0.00000000E+00
  0.00000000E+00  0.00000000E+00  0.00000000E+00
  0.00000000E+00  0.00000000E+00  0.00000000E+00
  0.00000000E+00  0.00000000E+00  0.00000000E+00
  0.00000000E+00  0.00000000E+00  0.00000000E+00
  0.00000000E+00  0.00000000E+00  0.00000000E+00
  0.00000000E+00  0.00000000E+00  0.00000000E+00
  0.00000000E+00  0.00000000E+00  0.00000000E+00
  0.00000000E+00  0.00000000E+00  0.00000000E+00
  0.00000000E+00  0.00000000E+00  0.00000000E+00
  0.00000000E+00  0.00000000E+00  0.00000000E+00
  0.00000000E+00  0.00000000E+00  0.00000000E+00
  0.00000000E+00  0.00000000E+00  0.00000000E+00
  0.00000000E+00  0.00000000E+00  0.00000000E+00
  0.00000000E+00  0.00000000E+00  0.00000000E+00
  0.00000000E+00  0.00000000E+00  0.00000000E+00
  0.00000000E+00  0.00000000E+00  0.00000000E+00
  0.00000000E+00  0.00000000E+00  0.00000000E+00
  0.00000000E+00  0.00000000E+00  0.00000000E+00
  0.00000000E+00  0.00000000E+00  0.00000000E+00
  0.00000000E+00  0.00000000E+00  0.00000000E+00
  0.00000000E+00  0.00000000E+00  0.00000000E+00
  0.00000000E+00  0.00000000E+00  0.00000000E+00
  0.00000000E+00  0.00000000E+00  0.00000000E+00
  0.00000000E+00  0.00000000E+00  0.00000000E+00
  0.00000000E+00  0.00000000E+00  0.00000000E+00
  0.00000000E+00  0.00000000E+00  0.00000000E+00
  0.00000000E+00  0.00000000E+00  0.00000000E+00
  0.00000000E+00  0.00000000E+00  0.00000000E+00
  0.00000000E+00  0.00000000E+00  0.00000000E+00
  0.00000000E+00  0.00000000E+00  0.00000000E+00
  0.00000000E+00  0.00000000E+00  0.00000000E+00
  0.00000000E+00  0.00000000E+00  0.00000000E+00
  0.00000000E+00  0.00000000E+00  0.00000000E+00
  0.00000000E+00  0.00000000E+00  0.00000000E+00
  0.00000000E+00  0.00000000E+00  0.00000000E+00
  0.00000000E+00  0.00000000E+00  0.00000000E+00
  0.00000000E+00  0.00000000E+00  0.00000000E+00
  0.00000000E+00  0.00000000E+00  0.00000000E+00
  0.00000000E+00  0.00000000E+00  0.00000000E+00
  0.00000000E+00  0.00000000E+00  0.00000000E+00
  0.00000000E+00  0.00000000E+00  0.00000000E+00
  0.00000000E+00  0.00000000E+00  0.00000000E+00
  0.00000000E+00  0.00000000E+00  0.00000000E+00
  0.00000000E+00  0.00000000E+00  0.00000000E+00
  0.00000000E+00  0.00000000E+00  0.00000000E+00
  0.00000000E+00  0.00000000E+00  0.00000000E+00
  0.00000000E+00  0.00000000E+00  0.00000000E+00
  0.00000000E+00  0.00000000E+00  0.00000000E+00
  0.00000000E+00  0.00000000E+00  0.00000000E+00
  0.00000000E+00  0.00000000E+00  0.00000000E+00
  0.00000000E+00  0.00000000E+00  0.00000000E+00
  0.00000000E+00  0.00000000E+00  0.00000000E+00
