Generated by VASPKIT code               
   1.00000000000000     
    14.2289679791181598    0.1692284763185428    0.0000000000000000
    -6.9757163629495782   12.0986432210508355    0.0000000000000000
     0.0000000000000014    0.0000000000000025   21.9455990149750946
  C             
   132
Direct
  0.2376872781026735  0.9963259114953541  0.4666863080740754
  0.2376778554220230  0.9963270282635629  0.5333155240272645
  0.2618059824889773  0.1034373213077641  0.5534898707355329
  0.2618124497784693  0.1034408037092999  0.4465152324183316
  0.2739673989887784  0.1678203234949823  0.5000038253956650
  0.2140722914636658  0.1176093311878662  0.3941099241534959
  0.1382878835541147  0.0226754268624075  0.3598357240662260
  0.1636890250971637  0.9055070511650979  0.4344838610303880
  0.1139742260963837  0.9179521110010034  0.3801473226428142
  0.0838320734400096  0.8087799621355736  0.4672161746048323
  0.1636869901671545  0.9055126523241005  0.5655253676894352
  0.0838362390571037  0.8087793784445703  0.5327967717049756
  0.1139586185225833  0.9179587249937755  0.6198533078727873
  0.2140811835155929  0.1176206218704045  0.6058966879863444
  0.1382827237400905  0.0226813396940064  0.6401642948867928
  0.1776795706927795  0.1973352773640764  0.6056288373629768
  0.2370986255057522  0.2436797854303350  0.5000007626340609
  0.1911072988571454  0.2603492105021381  0.5539942666799414
  0.1776623084855356  0.1973205888516937  0.3943734713184521
  0.1911145125025384  0.2603485429847321  0.4460032191138130
  0.0534569384240934  0.0432960576827809  0.3384707221555754
  0.0780211750693938  0.1516647121409636  0.3591483421883840
  0.9465480393377800  0.9566918984623353  0.3384705664621281
  0.0037402073577722  0.8290286727574733  0.3802150081442506
  0.9884387597097312  0.7612715878491230  0.4332781615629704
  0.9219809659565901  0.8483194500158837  0.3591435965582873
  0.8836794464584868  0.6959156129975245  0.4631160522748167
  0.9884365394304007  0.7612618474575014  0.5667326054988627
  0.0037278799258133  0.8290277963476838  0.6197900802650108
  0.8836750330794262  0.6959042339222072  0.5368981678895389
  0.9219674393142152  0.8483224397434947  0.6408592205916396
  0.0534555592522344  0.0433022992115608  0.6615254978637319
  0.0780293379477733  0.1516769039465622  0.6408484520172281
  0.9465419065705063  0.9566992249575734  0.6615275731638515
  0.9962587554239576  0.1709580276181802  0.6197822787675202
  0.1163141196546083  0.3040855909905302  0.5368946721449737
  0.1163094272463840  0.3040747664768205  0.4631054483696970
  0.0115562960667129  0.2387196184237473  0.5667222740207211
  0.9962578133135768  0.1709512113182971  0.3802131305348064
  0.0115559266227932  0.2387220162243008  0.4332670654879332
  0.8617175546289632  0.9773089079629202  0.3598351381776327
  0.8860347037794701  0.0820262681339601  0.3801486868098148
  0.8223434867713257  0.8026726250657750  0.3943742294987081
  0.8088818419338264  0.7396473841684680  0.4460083960077051
  0.7859276977954819  0.8823813553693304  0.3941051891120397
  0.8088813932710456  0.7396499801294573  0.5540026417652321
  0.8223201300501467  0.8026709680821308  0.6056346797774212
  0.7628964950339016  0.7563284538671637  0.5000049606292766
  0.8617098749216303  0.9773147696861064  0.6401659220253300
  0.8860332375213805  0.0820328933963304  0.6198482568821462
  0.7859079743526111  0.8823815671809833  0.6058993098789035
  0.9161649486432105  0.1912207812601405  0.5327866348198794
  0.9161702964343237  0.1912073298238592  0.4672075958320727
  0.8363317056024333  0.0944770644165124  0.4344815909388525
  0.8363223866906033  0.0944854174228708  0.5655140046223038
  0.7381854277205278  0.8965571040095077  0.4465081428588660
  0.7260139994049118  0.8321747928005487  0.5000002433043003
  0.7381821126395013  0.8965568159275126  0.5534888823975589
  0.7623382406882621  0.0036697962815780  0.4666838675482906
  0.7623365091735277  0.0036719173708693  0.5333101171437984
  0.2224647180696399  0.5692285526200456  0.6176757755985468
  0.7775459543282935  0.4307823798919055  0.6176945542380741
  0.3078612374742507  0.5441787958996483  0.6178393446382934
  0.6921344498802908  0.4558421726310788  0.6178417756766104
  0.2920713503771071  0.4746239221436047  0.5652247647953422
  0.7079094866528282  0.5253727991540530  0.5652291155697828
  0.1523613459615829  0.5125385363165811  0.5656938300104271
  0.8476222207172961  0.4874513211743924  0.5657104266181693
  0.1827446921889653  0.4343467108407779  0.5363839294732523
  0.8172404996103895  0.5656453569713972  0.5363943762094620
  0.1382440549924595  0.5913947660955577  0.5327810502957808
  0.8617500509680233  0.4085980865918973  0.5327893025209860
  0.2450669152860198  0.6803921531370745  0.6192749122340393
  0.7549376970807129  0.3196148783268229  0.6192878635554964
  0.1945353961253148  0.6945293062564976  0.5648994257911565
  0.8054784101847255  0.3054718131066792  0.5649066893361374
  0.3551239617818169  0.7651326136242661  0.6182169853105239
  0.6448941279323845  0.2348821295674277  0.6182197665612184
  0.4177080169342235  0.6282686206489810  0.6198614419892655
  0.5822873088056777  0.3717412117849885  0.6198448988051600
  0.4397968961684554  0.7390400977009423  0.6183733684131754
  0.5602036811455695  0.2609788891830536  0.6183667349348347
  0.3896602483609435  0.5167913516645634  0.5327649655686850
  0.6103256861143901  0.4831909911382582  0.5327550678365097
  0.4682917844250962  0.6118501848465705  0.5654658150741757
  0.5316663408251556  0.3881643135584650  0.5654647903823544
  0.3896577661749515  0.5167821996912179  0.4672462279375533
  0.6103254865464047  0.4831978234206042  0.4672356505988375
  0.1827213978421994  0.4343231589088196  0.4636183283754435
  0.8172560525160296  0.5656613166990576  0.4636166157335003
  0.2920617031403188  0.4746245411669489  0.4347900522121584
  0.7079147128321631  0.5253832676624443  0.4347698816601136
  0.1382195751298808  0.5913993826443235  0.4672125261738361
  0.8617695614634374  0.4085989043841974  0.4672162722845504
  0.1523404345906719  0.5125283767214708  0.4343087226467843
  0.8476454859932706  0.4874567332683750  0.4343024715290922
  0.1945233685336425  0.6945402661975302  0.4350880570732254
  0.8054977259020419  0.3054598215161479  0.4350965595586657
  0.2732527244454024  0.7903132158336030  0.5325277277349834
  0.7267671720472773  0.2096930793231787  0.5325351354290080
  0.3717486971428649  0.8354805320457036  0.5649333220148305
  0.6282608009267289  0.1645426583635470  0.5649299477622957
  0.2732502758125155  0.7903259196247273  0.4674586668588985
  0.7267727411548619  0.2096996864633366  0.4674683478147034
  0.5074519167565524  0.7925342332349720  0.5645149227751897
  0.4925321255751971  0.2074583363887224  0.5645177072412416
  0.5235040027174857  0.7123429462483948  0.5326238659836214
  0.4765025443021912  0.2876592307035968  0.5326198967859680
  0.4684822314739808  0.8554123931533579  0.5325487897224139
  0.5315126424745514  0.1445808309517910  0.5325526154962856
  0.4682933433445970  0.6118408999208789  0.4345413310922154
  0.5316681774357176  0.3881671560134223  0.4345334229773077
  0.5235227973507692  0.7123485482382705  0.4673662202704961
  0.4765008673097808  0.2876557679025638  0.4673726303039064
  0.3078337088272951  0.5441433365016853  0.3821673420774677
  0.6921701325821912  0.4558728716123069  0.3821540034790407
  0.2224519503832787  0.5692212417533258  0.3823379031542044
  0.7775663574697099  0.4307915305615269  0.3823236939195564
  0.2450515498948004  0.6803970145753504  0.3807168705022558
  0.7549684926540480  0.3196199173152682  0.3807143112585015
  0.4176938542723205  0.6282471027362909  0.3801482239061506
  0.5823186816713620  0.3717603258323425  0.3801562970638809
  0.3717608538126044  0.8355173529861782  0.4350498548192281
  0.6282618946108640  0.1645263813518322  0.4350596636093865
  0.4685120974358072  0.8554395642684116  0.4674248866285090
  0.5315055540628625  0.1445684112229220  0.4674319842142171
  0.5074917478911777  0.7925596176459735  0.4354664286994898
  0.4925129540990725  0.2074383295989928  0.4354714702721366
  0.3551119737645451  0.7651374591740963  0.3817754827382583
  0.6449195983872238  0.2348816363080686  0.3817790252752620
  0.4397878252352169  0.7390292421422673  0.3816207021195703
  0.5602317909206497  0.2609939288631046  0.3816368083880310
 
  0.00000000E+00  0.00000000E+00  0.00000000E+00
  0.00000000E+00  0.00000000E+00  0.00000000E+00
  0.00000000E+00  0.00000000E+00  0.00000000E+00
  0.00000000E+00  0.00000000E+00  0.00000000E+00
  0.00000000E+00  0.00000000E+00  0.00000000E+00
  0.00000000E+00  0.00000000E+00  0.00000000E+00
  0.00000000E+00  0.00000000E+00  0.00000000E+00
  0.00000000E+00  0.00000000E+00  0.00000000E+00
  0.00000000E+00  0.00000000E+00  0.00000000E+00
  0.00000000E+00  0.00000000E+00  0.00000000E+00
  0.00000000E+00  0.00000000E+00  0.00000000E+00
  0.00000000E+00  0.00000000E+00  0.00000000E+00
  0.00000000E+00  0.00000000E+00  0.00000000E+00
  0.00000000E+00  0.00000000E+00  0.00000000E+00
  0.00000000E+00  0.00000000E+00  0.00000000E+00
  0.00000000E+00  0.00000000E+00  0.00000000E+00
  0.00000000E+00  0.00000000E+00  0.00000000E+00
  0.00000000E+00  0.00000000E+00  0.00000000E+00
  0.00000000E+00  0.00000000E+00  0.00000000E+00
  0.00000000E+00  0.00000000E+00  0.00000000E+00
  0.00000000E+00  0.00000000E+00  0.00000000E+00
  0.00000000E+00  0.00000000E+00  0.00000000E+00
  0.00000000E+00  0.00000000E+00  0.00000000E+00
  0.00000000E+00  0.00000000E+00  0.00000000E+00
  0.00000000E+00  0.00000000E+00  0.00000000E+00
  0.00000000E+00  0.00000000E+00  0.00000000E+00
  0.00000000E+00  0.00000000E+00  0.00000000E+00
  0.00000000E+00  0.00000000E+00  0.00000000E+00
  0.00000000E+00  0.00000000E+00  0.00000000E+00
  0.00000000E+00  0.00000000E+00  0.00000000E+00
  0.00000000E+00  0.00000000E+00  0.00000000E+00
  0.00000000E+00  0.00000000E+00  0.00000000E+00
  0.00000000E+00  0.00000000E+00  0.00000000E+00
  0.00000000E+00  0.00000000E+00  0.00000000E+00
  0.00000000E+00  0.00000000E+00  0.00000000E+00
  0.00000000E+00  0.00000000E+00  0.00000000E+00
  0.00000000E+00  0.00000000E+00  0.00000000E+00
  0.00000000E+00  0.00000000E+00  0.00000000E+00
  0.00000000E+00  0.00000000E+00  0.00000000E+00
  0.00000000E+00  0.00000000E+00  0.00000000E+00
  0.00000000E+00  0.00000000E+00  0.00000000E+00
  0.00000000E+00  0.00000000E+00  0.00000000E+00
  0.00000000E+00  0.00000000E+00  0.00000000E+00
  0.00000000E+00  0.00000000E+00  0.00000000E+00
  0.00000000E+00  0.00000000E+00  0.00000000E+00
  0.00000000E+00  0.00000000E+00  0.00000000E+00
  0.00000000E+00  0.00000000E+00  0.00000000E+00
  0.00000000E+00  0.00000000E+00  0.00000000E+00
  0.00000000E+00  0.00000000E+00  0.00000000E+00
  0.00000000E+00  0.00000000E+00  0.00000000E+00
  0.00000000E+00  0.00000000E+00  0.00000000E+00
  0.00000000E+00  0.00000000E+00  0.00000000E+00
  0.00000000E+00  0.00000000E+00  0.00000000E+00
  0.00000000E+00  0.00000000E+00  0.00000000E+00
  0.00000000E+00  0.00000000E+00  0.00000000E+00
  0.00000000E+00  0.00000000E+00  0.00000000E+00
  0.00000000E+00  0.00000000E+00  0.00000000E+00
  0.00000000E+00  0.00000000E+00  0.00000000E+00
  0.00000000E+00  0.00000000E+00  0.00000000E+00
  0.00000000E+00  0.00000000E+00  0.00000000E+00
  0.00000000E+00  0.00000000E+00  0.00000000E+00
  0.00000000E+00  0.00000000E+00  0.00000000E+00
  0.00000000E+00  0.00000000E+00  0.00000000E+00
  0.00000000E+00  0.00000000E+00  0.00000000E+00
  0.00000000E+00  0.00000000E+00  0.00000000E+00
  0.00000000E+00  0.00000000E+00  0.00000000E+00
  0.00000000E+00  0.00000000E+00  0.00000000E+00
  0.00000000E+00  0.00000000E+00  0.00000000E+00
  0.00000000E+00  0.00000000E+00  0.00000000E+00
  0.00000000E+00  0.00000000E+00  0.00000000E+00
  0.00000000E+00  0.00000000E+00  0.00000000E+00
  0.00000000E+00  0.00000000E+00  0.00000000E+00
  0.00000000E+00  0.00000000E+00  0.00000000E+00
  0.00000000E+00  0.00000000E+00  0.00000000E+00
  0.00000000E+00  0.00000000E+00  0.00000000E+00
  0.00000000E+00  0.00000000E+00  0.00000000E+00
  0.00000000E+00  0.00000000E+00  0.00000000E+00
  0.00000000E+00  0.00000000E+00  0.00000000E+00
  0.00000000E+00  0.00000000E+00  0.00000000E+00
  0.00000000E+00  0.00000000E+00  0.00000000E+00
  0.00000000E+00  0.00000000E+00  0.00000000E+00
  0.00000000E+00  0.00000000E+00  0.00000000E+00
  0.00000000E+00  0.00000000E+00  0.00000000E+00
  0.00000000E+00  0.00000000E+00  0.00000000E+00
  0.00000000E+00  0.00000000E+00  0.00000000E+00
  0.00000000E+00  0.00000000E+00  0.00000000E+00
  0.00000000E+00  0.00000000E+00  0.00000000E+00
  0.00000000E+00  0.00000000E+00  0.00000000E+00
  0.00000000E+00  0.00000000E+00  0.00000000E+00
  0.00000000E+00  0.00000000E+00  0.00000000E+00
  0.00000000E+00  0.00000000E+00  0.00000000E+00
  0.00000000E+00  0.00000000E+00  0.00000000E+00
  0.00000000E+00  0.00000000E+00  0.00000000E+00
  0.00000000E+00  0.00000000E+00  0.00000000E+00
  0.00000000E+00  0.00000000E+00  0.00000000E+00
  0.00000000E+00  0.00000000E+00  0.00000000E+00
  0.00000000E+00  0.00000000E+00  0.00000000E+00
  0.00000000E+00  0.00000000E+00  0.00000000E+00
  0.00000000E+00  0.00000000E+00  0.00000000E+00
  0.00000000E+00  0.00000000E+00  0.00000000E+00
  0.00000000E+00  0.00000000E+00  0.00000000E+00
  0.00000000E+00  0.00000000E+00  0.00000000E+00
  0.00000000E+00  0.00000000E+00  0.00000000E+00
  0.00000000E+00  0.00000000E+00  0.00000000E+00
  0.00000000E+00  0.00000000E+00  0.00000000E+00
  0.00000000E+00  0.00000000E+00  0.00000000E+00
  0.00000000E+00  0.00000000E+00  0.00000000E+00
  0.00000000E+00  0.00000000E+00  0.00000000E+00
  0.00000000E+00  0.00000000E+00  0.00000000E+00
  0.00000000E+00  0.00000000E+00  0.00000000E+00
  0.00000000E+00  0.00000000E+00  0.00000000E+00
  0.00000000E+00  0.00000000E+00  0.00000000E+00
  0.00000000E+00  0.00000000E+00  0.00000000E+00
  0.00000000E+00  0.00000000E+00  0.00000000E+00
  0.00000000E+00  0.00000000E+00  0.00000000E+00
  0.00000000E+00  0.00000000E+00  0.00000000E+00
  0.00000000E+00  0.00000000E+00  0.00000000E+00
  0.00000000E+00  0.00000000E+00  0.00000000E+00
  0.00000000E+00  0.00000000E+00  0.00000000E+00
  0.00000000E+00  0.00000000E+00  0.00000000E+00
  0.00000000E+00  0.00000000E+00  0.00000000E+00
  0.00000000E+00  0.00000000E+00  0.00000000E+00
  0.00000000E+00  0.00000000E+00  0.00000000E+00
  0.00000000E+00  0.00000000E+00  0.00000000E+00
  0.00000000E+00  0.00000000E+00  0.00000000E+00
  0.00000000E+00  0.00000000E+00  0.00000000E+00
  0.00000000E+00  0.00000000E+00  0.00000000E+00
  0.00000000E+00  0.00000000E+00  0.00000000E+00
  0.00000000E+00  0.00000000E+00  0.00000000E+00
  0.00000000E+00  0.00000000E+00  0.00000000E+00
  0.00000000E+00  0.00000000E+00  0.00000000E+00
  0.00000000E+00  0.00000000E+00  0.00000000E+00
