Generated by VASPKIT code               
   1.00000000000000     
    24.8582233782879953   -0.0000031205058722    0.0000000000000000
    -0.0000031143966664   24.8582166428374975    0.0000000000000000
     0.0000000000000014    0.0000000000000014   21.9328390282344579
  C             
   264
Direct
  0.3973932107602431  0.0292787337231248  0.3941383751247580
  0.9707212695060078  0.3973931889925417  0.3941383601462470
  0.3973930519763084  0.9707288347735151  0.3941372985078700
  0.0292711645466887  0.3973930481118882  0.3941372995307014
  0.4433826603595603  0.9522917494431907  0.3601271171203287
  0.0477082452038128  0.4433826501368304  0.3601271230136291
  0.4433839244867158  0.0477145299329085  0.3601285051544131
  0.9522854868831034  0.4433838954413917  0.3601284960437046
  0.4719971604979062  0.0000037807162667  0.3392499205740955
  0.9999962352639814  0.4719971708682998  0.3392499094334847
  0.4709608479293138  0.0938728577926668  0.3802837869989041
  0.9061271586743990  0.4709608340343013  0.3802837760188675
  0.4532695205060637  0.1236316509944235  0.4340690885267630
  0.8763683674065909  0.4532694846124765  0.4340690849534179
  0.3823228251335124  0.0572963629959510  0.4464324138586914
  0.9427036276664057  0.3823227955152255  0.4464324053219628
  0.4087717975637801  0.1056457004809463  0.4667489631146317
  0.8943542803677778  0.4087717595672016  0.4667489297066013
  0.3684081921296519  0.0275774134887111  0.5000023980204993
  0.9724225641826914  0.3684082218135845  0.5000023848071016
  0.3823219655260532  0.9427108532793266  0.4464314341579982
  0.0572891305762591  0.3823219836070303  0.4464314371285427
  0.3684075727106743  0.9724289525068582  0.5000010255091091
  0.0275710345856589  0.3684076295449238  0.5000010193161231
  0.4087685850400809  0.8943601825827354  0.4667452638845829
  0.1056397848727706  0.4087686056264799  0.4667452780269934
  0.4709577560584083  0.9061326383958678  0.3802815494347465
  0.0938673589512189  0.4709577682409086  0.3802815654151377
  0.4532663727630948  0.8763728408592864  0.4340650003886931
  0.1236271302922737  0.4532663881751809  0.4340650131074962
  0.5290363152050360  0.9061308216499401  0.3802803487741902
  0.0938691913359705  0.5290363164521364  0.3802803415622686
  0.5279992553217219  0.0000019567572619  0.3392494991801082
  0.9999980551403544  0.5279992334741735  0.3392494898325492
  0.5566129674271635  0.9522896618818208  0.3601257501507002
  0.0477103449927477  0.5566129854798678  0.3601257383724750
  0.5290390184357159  0.0938716672839250  0.3802836408829538
  0.9061283657284251  0.5290389898346579  0.3802836629765240
  0.5566140909762451  0.0477120636838996  0.3601273331171200
  0.9522879683253512  0.5566140921843167  0.3601273337729758
  0.5000017580770140  0.1419606919871967  0.4678258181679616
  0.8580393506104569  0.5000017368913626  0.4678257979237322
  0.5467323386743610  0.1236294771759492  0.4340683044673631
  0.8763705660891392  0.5467323254629483  0.4340683092495350
  0.5000025198321986  0.1419596027813748  0.5321790736668145
  0.8580404327215471  0.5000025082450745  0.5321790807023393
  0.4087725283560188  0.1056449951394763  0.5332574493992658
  0.8943549816261951  0.4087724963125761  0.5332574543998472
  0.3823240412823347  0.0572947521520736  0.5535721389279936
  0.9427052413923303  0.3823240366737291  0.5535721371079735
  0.4532707629850417  0.1236294877316828  0.5659364949520528
  0.8763705145702949  0.4532707371011143  0.5659364909449478
  0.3973960178366531  0.0292754598554338  0.6058652869234605
  0.9707245232263529  0.3973960151384575  0.6058652793370731
  0.3823230281704650  0.9427093741218528  0.5535700264084794
  0.0572905850071216  0.3823230775792360  0.5535699946976710
  0.4087691651892330  0.8943592830828599  0.5332534462370335
  0.1056406766278502  0.4087692064753551  0.5332534525899960
  0.3973952230074635  0.9707254890735965  0.6058639199686595
  0.0292744841247207  0.3973952525684614  0.6058639144341436
  0.4532676619616908  0.8763705232235308  0.5659316947255626
  0.1236294344893948  0.4532676745700007  0.5659316921003431
  0.4999974798610030  0.8580403970248740  0.4678209246068544
  0.1419595679260150  0.4999974917831888  0.4678209209764679
  0.5467292375373806  0.8763705117402986  0.4340635042005721
  0.1236294864775843  0.5467292625970235  0.4340635101827064
  0.4999982416575479  0.8580393080075108  0.5321741800896764
  0.1419606502239120  0.4999982631727610  0.5321742036695756
  0.5912274728465217  0.8943550047063370  0.4667425483121084
  0.1056450197285612  0.5912275036925461  0.4667425474566202
  0.6026039833437367  0.9707245394504990  0.3941347123686127
  0.0292754777463650  0.6026039846077417  0.3941347224800933
  0.6026047781297746  0.0292745113767278  0.3941360792997712
  0.9707255171261063  0.6026047469789686  0.3941360874585234
  0.6176759611849042  0.9427052465515581  0.4464278589899951
  0.0572947595469429  0.6176759627966915  0.4464278647135418
  0.5912308360482521  0.1056407167840684  0.4667465514803324
  0.8943593247270434  0.5912307932452143  0.4667465493848505
  0.6176769743815753  0.0572906269389791  0.4464299715446787
  0.9427094165008663  0.6176769218111156  0.4464300074128726
  0.5467336277488086  0.1236271596973915  0.5659349971733811
  0.8763728708179730  0.5467336118252965  0.5659349884890866
  0.5912314157562196  0.1056398172324927  0.5332547346253184
  0.8943602165049912  0.5912313941073407  0.5332547237450782
  0.4709636859243176  0.0938691783970435  0.6197196495672123
  0.9061308099948815  0.4709636832482699  0.6197196599719988
  0.4433870341481325  0.0477103377988356  0.6398742495634399
  0.9522896559188233  0.4433870143808715  0.6398742631131752
  0.5290422448244034  0.0938673613625341  0.6197184488993174
  0.9061326421603662  0.5290422316350394  0.6197184363473366
  0.4433859105068956  0.9522879363335013  0.6398726666476935
  0.0477120327769843  0.4433859073381630  0.6398726675370572
  0.4709609827871805  0.9061283323453424  0.6197163574320317
  0.0938716352035252  0.4709610100164168  0.6197163385202819
  0.4720007456765121  0.9999980431258680  0.6607505000904333
  0.0000019458806841  0.4720007665582425  0.6607505113950394
  0.5467304800395185  0.8763683481608457  0.5659309091724992
  0.1236316332745875  0.5467305152198685  0.5659309169351731
  0.5912282033519827  0.8943542993279119  0.5332510353907479
  0.1056457210945309  0.5912282406211836  0.5332510721131376
  0.5290391530202797  0.9061271421827688  0.6197162112882441
  0.0938728424475614  0.5290391659057518  0.6197162257174774
  0.6315918085248072  0.9724225863853049  0.4999975998187668
  0.0275774365747111  0.6315917763676180  0.4999976172797022
  0.6315924283506690  0.0275710474890888  0.4999989722879076
  0.9724289661181871  0.6315923715679064  0.4999989827197734
  0.6176780369444526  0.0572891476105895  0.5535685636754670
  0.9427108709848300  0.6176780157919270  0.5535685647020921
  0.6176771773864251  0.9427036358132140  0.5535675840701458
  0.0572963733000460  0.6176772040714094  0.5535675968773738
  0.5566173409939293  0.0477082506471812  0.6398728796560239
  0.9522917558905367  0.5566173495226641  0.6398728791700542
  0.5280028406186693  0.9999962191804938  0.6607500768338133
  0.0000037657339223  0.5280028290209430  0.6607500923412074
  0.5566160769032982  0.9522854697958648  0.6398714915017608
  0.0477145139167495  0.5566161045267113  0.6398715058848552
  0.6026069490353196  0.0292711656825316  0.6058626979179259
  0.9707288367812746  0.6026069517153557  0.6058627026981749
  0.6026067902922823  0.9707212655230473  0.6058616213141370
  0.0292787314866115  0.6026068110122771  0.6058616422086149
  0.1563432986256190  0.0522430344342361  0.6211515117090146
  0.8436564997988537  0.9477573631588546  0.6211523305195013
  0.9477574364660790  0.1563434759347500  0.6211520983345510
  0.0522428628487729  0.8436565301801197  0.6211521505267170
  0.1295640745550158  0.0000028696873132  0.6175993001637816
  0.8704356494705198  0.9999976066973260  0.6175998598287303
  0.9999976860395042  0.1295642720790975  0.6175996218806385
  0.0000026976204518  0.8704356717177177  0.6175998742858996
  0.0975617158942540  0.0000020651015300  0.5658517176594350
  0.9024382421237557  0.9999982089572643  0.5658524393318513
  0.9999983222939260  0.0975618669786435  0.5658519990562515
  0.0000019464174941  0.9024381964495135  0.5658523118962224
  0.1352296424848581  0.0900537176392618  0.5696682199186697
  0.8647705969795719  0.9099464667338187  0.5696691597958257
  0.9099465875268512  0.1352294593009250  0.5696688025265348
  0.0900534769299011  0.8647705634434676  0.5696686709274831
  0.0963592737234569  0.0513204434633561  0.5347152890778526
  0.9036408457929497  0.9486795631321934  0.5347161822756873
  0.9486797137438703  0.0963592044546506  0.5347157710443445
  0.0513203666430682  0.9036408447095637  0.5347157804394922
  0.1850397760789896  0.1021067702658645  0.5322485836736506
  0.8149603408768746  0.8978936022232121  0.5322498051616775
  0.8978939068850147  0.1850394174205900  0.5322491970382232
  0.1021062054695568  0.8149606164825970  0.5322490252141482
  0.2118334196350162  0.0500360723086850  0.6180343803399819
  0.7881662390150452  0.9499644737623548  0.6180349019707768
  0.9499644272793657  0.2118337032589565  0.6180347201988435
  0.0500358797177859  0.7881663048121466  0.6180347498126030
  0.2294599396497775  0.0806246987544971  0.5637208209453944
  0.7705401199178479  0.9193754881934624  0.5637216028819739
  0.9193756325003368  0.2294597496116582  0.5637211369276002
  0.0806245260348921  0.7705403079660023  0.5637210811616268
  0.2410997958549105  0.0000044952783045  0.6189009941577009
  0.7588998070977624  0.9999960081003728  0.6189011562948498
  0.9999959539853270  0.2411001283440399  0.6189011251682698
  0.0000044225615723  0.7588998452671359  0.6189013663281675
  0.1563445985025349  0.9477630138361390  0.6211518031338400
  0.8436550302690987  0.0522373698496588  0.6211520226877659
  0.0522374109125446  0.1563449666364707  0.6211516321218776
  0.9477629029270990  0.8436550966684403  0.6211522638552551
  0.2118346497510467  0.9499723424895709  0.6180345390075558
  0.7881649699043303  0.0500279839174547  0.6180344259817762
  0.0500279330674671  0.2118350820795485  0.6180342727938529
  0.9499724313608187  0.7881649483861715  0.6180347752324388
  0.0963603655384336  0.9486829879982713  0.5347156012006323
  0.9036395626870153  0.0513171263058639  0.5347160140110606
  0.0513171495965509  0.0963606034852443  0.5347154570021323
  0.9486829422834218  0.9036394831434744  0.5347161334174175
  0.1352318303368446  0.9099512284046948  0.5696687469712121
  0.8647680204446095  0.0900489152600239  0.5696688554976131
  0.0900488819205783  0.1352320514919972  0.5696684244819751
  0.9099512319197053  0.8647679240745401  0.5696691649919043
  0.0963604336821171  0.9486828758550530  0.4652839867504885
  0.9036396312035366  0.0513170141341851  0.4652843968890159
  0.0513170545668316  0.0963605169723573  0.4652838673703106
  0.9486828475524496  0.9036393963913232  0.4652845434659073
  0.0963591506824668  0.0513204355186575  0.4652838184365710
  0.9036407230396297  0.9486795552348646  0.4652847090519555
  0.9486796303703146  0.0963591563569671  0.4652842197207652
  0.0513202830174120  0.9036407963927644  0.4652842300462562
  0.0975617540209664  0.0000017913540079  0.4341475630453008
  0.9024382799893282  0.9999979351784197  0.4341482804026496
  0.9999980513190420  0.0975618041084250  0.4341476884144944
  0.0000016754611837  0.9024381339071603  0.4341480017121081
  0.1850396564249619  0.1021063956837981  0.4677501946582566
  0.8149602219021168  0.8978932282871006  0.4677514162107857
  0.8978937936815402  0.1850393841380284  0.4677509749883003
  0.1021060929175872  0.8149605824972955  0.4677508032798677
  0.1352294001444240  0.0900535347553091  0.4303308404507234
  0.8647703544805529  0.9099462836099454  0.4303317801559187
  0.9099465225868553  0.1352294358458352  0.4303313274951513
  0.0900534115839897  0.8647705399877154  0.4303311989693528
  0.2294598802862930  0.0806245116401795  0.4362783988134571
  0.7705400605929767  0.9193753006000048  0.4362791790206351
  0.9193754753541383  0.2294596915380224  0.4362789182763290
  0.0806243687268976  0.7705402494589147  0.4362788620314546
  0.2686029970957696  0.0501122148957282  0.5322951348923993
  0.7313968416569114  0.9498879006973511  0.5322955607807510
  0.9498879223174870  0.2686031594118269  0.5322954214342787
  0.0501121718694204  0.7313968559602875  0.5322953262700569
  0.2735226545505730  0.0000064622068008  0.5653558733235932
  0.7264767693725962  0.9999942651864816  0.5653561499121172
  0.9999941380565871  0.2735233099203801  0.5653561858574563
  0.0000060756485708  0.7264766114174936  0.5653562888553335
  0.2686031589686380  0.0501120993409152  0.4677044402898907
  0.7313970034611063  0.9498877844357247  0.4677048658947590
  0.9498878308157104  0.2686031410024853  0.4677046732385278
  0.0501120799388128  0.7313968376030929  0.4677045773345621
  0.2294624965101826  0.9193838450235140  0.5637204022253601
  0.7705373898236335  0.0806162824534690  0.5637200825608748
  0.0806161402784328  0.2294628454360919  0.5637199824140554
  0.9193841550725268  0.7705373029785352  0.5637204370009162
  0.1850427192493337  0.8979006904540267  0.5322490881999445
  0.8149572406696828  0.1020993516829743  0.5322488649854795
  0.1020991391705205  0.1850430040903513  0.5322485997807045
  0.8979007299991715  0.8149570666718908  0.5322493795954142
  0.2686036055342523  0.9498977977417775  0.5322949804473934
  0.7313960322590661  0.0501027548646494  0.5322950458754222
  0.0501021299608972  0.2686039393964190  0.5322947861892898
  0.9498980057780355  0.7313961437763121  0.5322950061381253
  0.1352319770365573  0.9099510835971446  0.4303311451624023
  0.8647681669749245  0.0900487706332999  0.4303312527495653
  0.0900487671269448  0.1352320773395415  0.4303308363820239
  0.9099511175404931  0.8647679498915017  0.4303315740560459
  0.1850427566509440  0.8979006504035979  0.4677511348827760
  0.8149572787758793  0.1020993109308526  0.4677509115401925
  0.1020992705837800  0.1850429340942147  0.4677506207014242
  0.8979008607520005  0.8149569960079394  0.4677514003664908
  0.1295643476454760  0.0000023933345793  0.3824001421246941
  0.8704359221473459  0.9999971303534639  0.3824006968227029
  0.9999973008921026  0.1295643288501913  0.3824001260985093
  0.0000023124556555  0.8704357285648996  0.3824003789174008
  0.1563434983569398  0.0522426359412552  0.3788476723313696
  0.8436566986673097  0.9477569648217752  0.3788484855812181
  0.9477571351008427  0.1563434691392597  0.3788478483996077
  0.0522425618564636  0.8436565243562023  0.3788479023156878
  0.2118337591936173  0.0500355240134269  0.3819651007412150
  0.7881665779079817  0.9499639259065639  0.3819656164722933
  0.9499641201194069  0.2118336946666784  0.3819652502539035
  0.0500355726907673  0.7881662972481643  0.3819652803455409
  0.1563449679740657  0.9477626313552007  0.3788479802709804
  0.8436553988715630  0.0522369872413387  0.3788481941357851
  0.0522370956352679  0.1563449037184229  0.3788477363357964
  0.9477625872640371  0.8436550347317247  0.3788483673002446
  0.2735232318199419  0.0000057347369086  0.4346438512914407
  0.7264773472814445  0.9999935377011205  0.4346441269555850
  0.9999939257886316  0.2735233885332867  0.4346437106523406
  0.0000058633909261  0.7264766897271137  0.4346438131383665
  0.2686039691077970  0.9498972445251725  0.4677049550973070
  0.7313963958028895  0.0501022023329870  0.4677050204381279
  0.0501019964328756  0.2686038589549086  0.4677049924865543
  0.9498978726924681  0.7313960633884897  0.4677052134476535
  0.2294626104609970  0.9193837173118239  0.4362799190722236
  0.7705375038654407  0.0806161551648872  0.4362795977528446
  0.0806158461007245  0.2294626977300750  0.4362795618663842
  0.9193838611046051  0.7705371549188027  0.4362800170845731
  0.2411001942626766  0.0000039917677299  0.3810988434263108
  0.7589002041684574  0.9999955045610145  0.3810990068282362
  0.9999955781081734  0.2411001538756931  0.3810986332921797
  0.0000040466837521  0.7588998722235520  0.3810988742639466
  0.2118350283606218  0.9499720181648517  0.3819655767106048
  0.7881653478792728  0.0500276591098942  0.3819654577595304
  0.0500275694132568  0.2118350521443028  0.3819652243326716
  0.9499720675905967  0.7881649194695709  0.3819657281791883
 
  0.00000000E+00  0.00000000E+00  0.00000000E+00
  0.00000000E+00  0.00000000E+00  0.00000000E+00
  0.00000000E+00  0.00000000E+00  0.00000000E+00
  0.00000000E+00  0.00000000E+00  0.00000000E+00
  0.00000000E+00  0.00000000E+00  0.00000000E+00
  0.00000000E+00  0.00000000E+00  0.00000000E+00
  0.00000000E+00  0.00000000E+00  0.00000000E+00
  0.00000000E+00  0.00000000E+00  0.00000000E+00
  0.00000000E+00  0.00000000E+00  0.00000000E+00
  0.00000000E+00  0.00000000E+00  0.00000000E+00
  0.00000000E+00  0.00000000E+00  0.00000000E+00
  0.00000000E+00  0.00000000E+00  0.00000000E+00
  0.00000000E+00  0.00000000E+00  0.00000000E+00
  0.00000000E+00  0.00000000E+00  0.00000000E+00
  0.00000000E+00  0.00000000E+00  0.00000000E+00
  0.00000000E+00  0.00000000E+00  0.00000000E+00
  0.00000000E+00  0.00000000E+00  0.00000000E+00
  0.00000000E+00  0.00000000E+00  0.00000000E+00
  0.00000000E+00  0.00000000E+00  0.00000000E+00
  0.00000000E+00  0.00000000E+00  0.00000000E+00
  0.00000000E+00  0.00000000E+00  0.00000000E+00
  0.00000000E+00  0.00000000E+00  0.00000000E+00
  0.00000000E+00  0.00000000E+00  0.00000000E+00
  0.00000000E+00  0.00000000E+00  0.00000000E+00
  0.00000000E+00  0.00000000E+00  0.00000000E+00
  0.00000000E+00  0.00000000E+00  0.00000000E+00
  0.00000000E+00  0.00000000E+00  0.00000000E+00
  0.00000000E+00  0.00000000E+00  0.00000000E+00
  0.00000000E+00  0.00000000E+00  0.00000000E+00
  0.00000000E+00  0.00000000E+00  0.00000000E+00
  0.00000000E+00  0.00000000E+00  0.00000000E+00
  0.00000000E+00  0.00000000E+00  0.00000000E+00
  0.00000000E+00  0.00000000E+00  0.00000000E+00
  0.00000000E+00  0.00000000E+00  0.00000000E+00
  0.00000000E+00  0.00000000E+00  0.00000000E+00
  0.00000000E+00  0.00000000E+00  0.00000000E+00
  0.00000000E+00  0.00000000E+00  0.00000000E+00
  0.00000000E+00  0.00000000E+00  0.00000000E+00
  0.00000000E+00  0.00000000E+00  0.00000000E+00
  0.00000000E+00  0.00000000E+00  0.00000000E+00
  0.00000000E+00  0.00000000E+00  0.00000000E+00
  0.00000000E+00  0.00000000E+00  0.00000000E+00
  0.00000000E+00  0.00000000E+00  0.00000000E+00
  0.00000000E+00  0.00000000E+00  0.00000000E+00
  0.00000000E+00  0.00000000E+00  0.00000000E+00
  0.00000000E+00  0.00000000E+00  0.00000000E+00
  0.00000000E+00  0.00000000E+00  0.00000000E+00
  0.00000000E+00  0.00000000E+00  0.00000000E+00
  0.00000000E+00  0.00000000E+00  0.00000000E+00
  0.00000000E+00  0.00000000E+00  0.00000000E+00
  0.00000000E+00  0.00000000E+00  0.00000000E+00
  0.00000000E+00  0.00000000E+00  0.00000000E+00
  0.00000000E+00  0.00000000E+00  0.00000000E+00
  0.00000000E+00  0.00000000E+00  0.00000000E+00
  0.00000000E+00  0.00000000E+00  0.00000000E+00
  0.00000000E+00  0.00000000E+00  0.00000000E+00
  0.00000000E+00  0.00000000E+00  0.00000000E+00
  0.00000000E+00  0.00000000E+00  0.00000000E+00
  0.00000000E+00  0.00000000E+00  0.00000000E+00
  0.00000000E+00  0.00000000E+00  0.00000000E+00
  0.00000000E+00  0.00000000E+00  0.00000000E+00
  0.00000000E+00  0.00000000E+00  0.00000000E+00
  0.00000000E+00  0.00000000E+00  0.00000000E+00
  0.00000000E+00  0.00000000E+00  0.00000000E+00
  0.00000000E+00  0.00000000E+00  0.00000000E+00
  0.00000000E+00  0.00000000E+00  0.00000000E+00
  0.00000000E+00  0.00000000E+00  0.00000000E+00
  0.00000000E+00  0.00000000E+00  0.00000000E+00
  0.00000000E+00  0.00000000E+00  0.00000000E+00
  0.00000000E+00  0.00000000E+00  0.00000000E+00
  0.00000000E+00  0.00000000E+00  0.00000000E+00
  0.00000000E+00  0.00000000E+00  0.00000000E+00
  0.00000000E+00  0.00000000E+00  0.00000000E+00
  0.00000000E+00  0.00000000E+00  0.00000000E+00
  0.00000000E+00  0.00000000E+00  0.00000000E+00
  0.00000000E+00  0.00000000E+00  0.00000000E+00
  0.00000000E+00  0.00000000E+00  0.00000000E+00
  0.00000000E+00  0.00000000E+00  0.00000000E+00
  0.00000000E+00  0.00000000E+00  0.00000000E+00
  0.00000000E+00  0.00000000E+00  0.00000000E+00
  0.00000000E+00  0.00000000E+00  0.00000000E+00
  0.00000000E+00  0.00000000E+00  0.00000000E+00
  0.00000000E+00  0.00000000E+00  0.00000000E+00
  0.00000000E+00  0.00000000E+00  0.00000000E+00
  0.00000000E+00  0.00000000E+00  0.00000000E+00
  0.00000000E+00  0.00000000E+00  0.00000000E+00
  0.00000000E+00  0.00000000E+00  0.00000000E+00
  0.00000000E+00  0.00000000E+00  0.00000000E+00
  0.00000000E+00  0.00000000E+00  0.00000000E+00
  0.00000000E+00  0.00000000E+00  0.00000000E+00
  0.00000000E+00  0.00000000E+00  0.00000000E+00
  0.00000000E+00  0.00000000E+00  0.00000000E+00
  0.00000000E+00  0.00000000E+00  0.00000000E+00
  0.00000000E+00  0.00000000E+00  0.00000000E+00
  0.00000000E+00  0.00000000E+00  0.00000000E+00
  0.00000000E+00  0.00000000E+00  0.00000000E+00
  0.00000000E+00  0.00000000E+00  0.00000000E+00
  0.00000000E+00  0.00000000E+00  0.00000000E+00
  0.00000000E+00  0.00000000E+00  0.00000000E+00
  0.00000000E+00  0.00000000E+00  0.00000000E+00
  0.00000000E+00  0.00000000E+00  0.00000000E+00
  0.00000000E+00  0.00000000E+00  0.00000000E+00
  0.00000000E+00  0.00000000E+00  0.00000000E+00
  0.00000000E+00  0.00000000E+00  0.00000000E+00
  0.00000000E+00  0.00000000E+00  0.00000000E+00
  0.00000000E+00  0.00000000E+00  0.00000000E+00
  0.00000000E+00  0.00000000E+00  0.00000000E+00
  0.00000000E+00  0.00000000E+00  0.00000000E+00
  0.00000000E+00  0.00000000E+00  0.00000000E+00
  0.00000000E+00  0.00000000E+00  0.00000000E+00
  0.00000000E+00  0.00000000E+00  0.00000000E+00
  0.00000000E+00  0.00000000E+00  0.00000000E+00
  0.00000000E+00  0.00000000E+00  0.00000000E+00
  0.00000000E+00  0.00000000E+00  0.00000000E+00
  0.00000000E+00  0.00000000E+00  0.00000000E+00
  0.00000000E+00  0.00000000E+00  0.00000000E+00
  0.00000000E+00  0.00000000E+00  0.00000000E+00
  0.00000000E+00  0.00000000E+00  0.00000000E+00
  0.00000000E+00  0.00000000E+00  0.00000000E+00
  0.00000000E+00  0.00000000E+00  0.00000000E+00
  0.00000000E+00  0.00000000E+00  0.00000000E+00
  0.00000000E+00  0.00000000E+00  0.00000000E+00
  0.00000000E+00  0.00000000E+00  0.00000000E+00
  0.00000000E+00  0.00000000E+00  0.00000000E+00
  0.00000000E+00  0.00000000E+00  0.00000000E+00
  0.00000000E+00  0.00000000E+00  0.00000000E+00
  0.00000000E+00  0.00000000E+00  0.00000000E+00
  0.00000000E+00  0.00000000E+00  0.00000000E+00
  0.00000000E+00  0.00000000E+00  0.00000000E+00
  0.00000000E+00  0.00000000E+00  0.00000000E+00
  0.00000000E+00  0.00000000E+00  0.00000000E+00
  0.00000000E+00  0.00000000E+00  0.00000000E+00
  0.00000000E+00  0.00000000E+00  0.00000000E+00
  0.00000000E+00  0.00000000E+00  0.00000000E+00
  0.00000000E+00  0.00000000E+00  0.00000000E+00
  0.00000000E+00  0.00000000E+00  0.00000000E+00
  0.00000000E+00  0.00000000E+00  0.00000000E+00
  0.00000000E+00  0.00000000E+00  0.00000000E+00
  0.00000000E+00  0.00000000E+00  0.00000000E+00
  0.00000000E+00  0.00000000E+00  0.00000000E+00
  0.00000000E+00  0.00000000E+00  0.00000000E+00
  0.00000000E+00  0.00000000E+00  0.00000000E+00
  0.00000000E+00  0.00000000E+00  0.00000000E+00
  0.00000000E+00  0.00000000E+00  0.00000000E+00
  0.00000000E+00  0.00000000E+00  0.00000000E+00
  0.00000000E+00  0.00000000E+00  0.00000000E+00
  0.00000000E+00  0.00000000E+00  0.00000000E+00
  0.00000000E+00  0.00000000E+00  0.00000000E+00
  0.00000000E+00  0.00000000E+00  0.00000000E+00
  0.00000000E+00  0.00000000E+00  0.00000000E+00
  0.00000000E+00  0.00000000E+00  0.00000000E+00
  0.00000000E+00  0.00000000E+00  0.00000000E+00
  0.00000000E+00  0.00000000E+00  0.00000000E+00
  0.00000000E+00  0.00000000E+00  0.00000000E+00
  0.00000000E+00  0.00000000E+00  0.00000000E+00
  0.00000000E+00  0.00000000E+00  0.00000000E+00
  0.00000000E+00  0.00000000E+00  0.00000000E+00
  0.00000000E+00  0.00000000E+00  0.00000000E+00
  0.00000000E+00  0.00000000E+00  0.00000000E+00
  0.00000000E+00  0.00000000E+00  0.00000000E+00
  0.00000000E+00  0.00000000E+00  0.00000000E+00
  0.00000000E+00  0.00000000E+00  0.00000000E+00
  0.00000000E+00  0.00000000E+00  0.00000000E+00
  0.00000000E+00  0.00000000E+00  0.00000000E+00
  0.00000000E+00  0.00000000E+00  0.00000000E+00
  0.00000000E+00  0.00000000E+00  0.00000000E+00
  0.00000000E+00  0.00000000E+00  0.00000000E+00
  0.00000000E+00  0.00000000E+00  0.00000000E+00
  0.00000000E+00  0.00000000E+00  0.00000000E+00
  0.00000000E+00  0.00000000E+00  0.00000000E+00
  0.00000000E+00  0.00000000E+00  0.00000000E+00
  0.00000000E+00  0.00000000E+00  0.00000000E+00
  0.00000000E+00  0.00000000E+00  0.00000000E+00
  0.00000000E+00  0.00000000E+00  0.00000000E+00
  0.00000000E+00  0.00000000E+00  0.00000000E+00
  0.00000000E+00  0.00000000E+00  0.00000000E+00
  0.00000000E+00  0.00000000E+00  0.00000000E+00
  0.00000000E+00  0.00000000E+00  0.00000000E+00
  0.00000000E+00  0.00000000E+00  0.00000000E+00
  0.00000000E+00  0.00000000E+00  0.00000000E+00
  0.00000000E+00  0.00000000E+00  0.00000000E+00
  0.00000000E+00  0.00000000E+00  0.00000000E+00
  0.00000000E+00  0.00000000E+00  0.00000000E+00
  0.00000000E+00  0.00000000E+00  0.00000000E+00
  0.00000000E+00  0.00000000E+00  0.00000000E+00
  0.00000000E+00  0.00000000E+00  0.00000000E+00
  0.00000000E+00  0.00000000E+00  0.00000000E+00
  0.00000000E+00  0.00000000E+00  0.00000000E+00
  0.00000000E+00  0.00000000E+00  0.00000000E+00
  0.00000000E+00  0.00000000E+00  0.00000000E+00
  0.00000000E+00  0.00000000E+00  0.00000000E+00
  0.00000000E+00  0.00000000E+00  0.00000000E+00
  0.00000000E+00  0.00000000E+00  0.00000000E+00
  0.00000000E+00  0.00000000E+00  0.00000000E+00
  0.00000000E+00  0.00000000E+00  0.00000000E+00
  0.00000000E+00  0.00000000E+00  0.00000000E+00
  0.00000000E+00  0.00000000E+00  0.00000000E+00
  0.00000000E+00  0.00000000E+00  0.00000000E+00
  0.00000000E+00  0.00000000E+00  0.00000000E+00
  0.00000000E+00  0.00000000E+00  0.00000000E+00
  0.00000000E+00  0.00000000E+00  0.00000000E+00
  0.00000000E+00  0.00000000E+00  0.00000000E+00
  0.00000000E+00  0.00000000E+00  0.00000000E+00
  0.00000000E+00  0.00000000E+00  0.00000000E+00
  0.00000000E+00  0.00000000E+00  0.00000000E+00
  0.00000000E+00  0.00000000E+00  0.00000000E+00
  0.00000000E+00  0.00000000E+00  0.00000000E+00
  0.00000000E+00  0.00000000E+00  0.00000000E+00
  0.00000000E+00  0.00000000E+00  0.00000000E+00
  0.00000000E+00  0.00000000E+00  0.00000000E+00
  0.00000000E+00  0.00000000E+00  0.00000000E+00
  0.00000000E+00  0.00000000E+00  0.00000000E+00
  0.00000000E+00  0.00000000E+00  0.00000000E+00
  0.00000000E+00  0.00000000E+00  0.00000000E+00
  0.00000000E+00  0.00000000E+00  0.00000000E+00
  0.00000000E+00  0.00000000E+00  0.00000000E+00
  0.00000000E+00  0.00000000E+00  0.00000000E+00
  0.00000000E+00  0.00000000E+00  0.00000000E+00
  0.00000000E+00  0.00000000E+00  0.00000000E+00
  0.00000000E+00  0.00000000E+00  0.00000000E+00
  0.00000000E+00  0.00000000E+00  0.00000000E+00
  0.00000000E+00  0.00000000E+00  0.00000000E+00
  0.00000000E+00  0.00000000E+00  0.00000000E+00
  0.00000000E+00  0.00000000E+00  0.00000000E+00
  0.00000000E+00  0.00000000E+00  0.00000000E+00
  0.00000000E+00  0.00000000E+00  0.00000000E+00
  0.00000000E+00  0.00000000E+00  0.00000000E+00
  0.00000000E+00  0.00000000E+00  0.00000000E+00
  0.00000000E+00  0.00000000E+00  0.00000000E+00
  0.00000000E+00  0.00000000E+00  0.00000000E+00
  0.00000000E+00  0.00000000E+00  0.00000000E+00
  0.00000000E+00  0.00000000E+00  0.00000000E+00
  0.00000000E+00  0.00000000E+00  0.00000000E+00
  0.00000000E+00  0.00000000E+00  0.00000000E+00
  0.00000000E+00  0.00000000E+00  0.00000000E+00
  0.00000000E+00  0.00000000E+00  0.00000000E+00
  0.00000000E+00  0.00000000E+00  0.00000000E+00
  0.00000000E+00  0.00000000E+00  0.00000000E+00
  0.00000000E+00  0.00000000E+00  0.00000000E+00
  0.00000000E+00  0.00000000E+00  0.00000000E+00
  0.00000000E+00  0.00000000E+00  0.00000000E+00
  0.00000000E+00  0.00000000E+00  0.00000000E+00
  0.00000000E+00  0.00000000E+00  0.00000000E+00
  0.00000000E+00  0.00000000E+00  0.00000000E+00
  0.00000000E+00  0.00000000E+00  0.00000000E+00
  0.00000000E+00  0.00000000E+00  0.00000000E+00
  0.00000000E+00  0.00000000E+00  0.00000000E+00
  0.00000000E+00  0.00000000E+00  0.00000000E+00
  0.00000000E+00  0.00000000E+00  0.00000000E+00
  0.00000000E+00  0.00000000E+00  0.00000000E+00
  0.00000000E+00  0.00000000E+00  0.00000000E+00
  0.00000000E+00  0.00000000E+00  0.00000000E+00
  0.00000000E+00  0.00000000E+00  0.00000000E+00
  0.00000000E+00  0.00000000E+00  0.00000000E+00
  0.00000000E+00  0.00000000E+00  0.00000000E+00
  0.00000000E+00  0.00000000E+00  0.00000000E+00
  0.00000000E+00  0.00000000E+00  0.00000000E+00
  0.00000000E+00  0.00000000E+00  0.00000000E+00
  0.00000000E+00  0.00000000E+00  0.00000000E+00
  0.00000000E+00  0.00000000E+00  0.00000000E+00
  0.00000000E+00  0.00000000E+00  0.00000000E+00
  0.00000000E+00  0.00000000E+00  0.00000000E+00
  0.00000000E+00  0.00000000E+00  0.00000000E+00
  0.00000000E+00  0.00000000E+00  0.00000000E+00
