Generated by VASPKIT code               
   1.00000000000000     
    26.4088337869500371    0.0190281074609777    0.0000000000000000
   -13.1879590112351650   22.8849716004665105    0.0000000000000000
     0.0000000000000013    0.0000000000000023   21.9971016726976494
  C             
   372
Direct
  0.4098928220168145  0.6426517623052755  0.6186653817189127
  0.5901073067478615  0.3573471750844958  0.6186646994968872
  0.3546886210460601  0.5881348857477364  0.6186956185918810
  0.6453120071870584  0.4118635189287645  0.6186950829206815
  0.3531793190467981  0.5554366796396323  0.5650185354155790
  0.6468204169128238  0.4445616329873898  0.5650195413638873
  0.4422717456113410  0.6433312858926952  0.5649933457588342
  0.5577285989812232  0.3566685884741760  0.5649925129818154
  0.4073549578565633  0.5893565517671884  0.5318180764650232
  0.5926448342281426  0.4106432694759422  0.5318180001293693
  0.4756473888504570  0.6952811974979872  0.5329784547176828
  0.5243527021530860  0.3047186543158905  0.5329773693099852
  0.4778567464782327  0.7484037728323309  0.5534402774830461
  0.5221428248219605  0.2515956795063664  0.5534378532112304
  0.4122832699003385  0.6941938307988678  0.6384962730367648
  0.5877171456428728  0.3058047038288921  0.6384951252602540
  0.4471615061772454  0.7482127644066070  0.6052933222143480
  0.5528384749298949  0.2517864488709544  0.6052911727551692
  0.3594408936747410  0.6930974096986788  0.6589927091272294
  0.6405592131651919  0.3069008978922051  0.6589914878835188
  0.3037955585155352  0.5870181868294131  0.6385497532542362
  0.6962047371836826  0.4129797403088116  0.6385484571354108
  0.3061705634915443  0.6404540260734569  0.6589836791487819
  0.6938295321412514  0.3595447425981844  0.6589824190656989
  0.2495405466375236  0.5530277260246401  0.6053984970246787
  0.7504592079841704  0.4469707346975891  0.6053980591825476
  0.3010940243234762  0.5233583861873179  0.5329868215370189
  0.6989059295593705  0.4766411272084309  0.5329872066918606
  0.2484099789740579  0.5218914305178808  0.5535155333032348
  0.7515895387736428  0.4781076133824256  0.5535159494034672
  0.3010888882068878  0.5233523391200585  0.4670071347615506
  0.6989112900026482  0.4766477698262315  0.4670069241864300
  0.4073521112870322  0.5893586489915039  0.4681655121574003
  0.5926481831504601  0.4106421107295546  0.4681656362853368
  0.3531754304035725  0.5554296128796063  0.4349687787401934
  0.6468246930299630  0.4445706116372170  0.4349692768404712
  0.4756371280568231  0.6952718642690471  0.4669773596035459
  0.5243629905852369  0.3047286324800393  0.4669764346484912
  0.4422520507786964  0.6433201331682540  0.4349721876285374
  0.5577481454150794  0.3566812034521586  0.4349724832562407
  0.4786681024991105  0.7807011436345360  0.4999659677135431
  0.5213316522847226  0.2192987933285293  0.4999631325772232
  0.4778490311689685  0.7483868211687392  0.4465014723307497
  0.5221509587488292  0.2516140333573603  0.4464998435283328
  0.4490615313642717  0.8119309817762485  0.4999670728446907
  0.5509377279274542  0.1880687595620992  0.4999639634994475
  0.4160260312102426  0.7805859107929038  0.6052899940748444
  0.5839733239567967  0.2194130538513898  0.6052874474731667
  0.3618359574431694  0.7465697780175028  0.6385241944931153
  0.6381633182489699  0.2534285400096895  0.6385222968964762
  0.4170965404002683  0.8118133540859619  0.5534745826396059
  0.5829022566292753  0.1881858398591626  0.5534705881771087
  0.3108972843471269  0.7453978347882307  0.6186612004969839
  0.6891020258571543  0.2546005740239509  0.6186588025709887
  0.2533131182396036  0.6393099936051216  0.6385564008244959
  0.7466863935039462  0.3606884225438380  0.6385559789257580
  0.2183485708458368  0.5852621770828712  0.6054017586813462
  0.7816512356053539  0.4147367503933336  0.6054011784125731
  0.2557313385525792  0.6908151487768731  0.6186605348726246
  0.7442681525496823  0.3091834518193847  0.6186591399393083
  0.1874135986726332  0.5848728562118662  0.5535617239801366
  0.8125864850542778  0.4151264834322375  0.5535614849914487
  0.2162888240542647  0.5215335052709320  0.5000067613638868
  0.7837113108496578  0.4784664109885279  0.5000071416128747
  0.2483955468930120  0.5218746331624932  0.4464903220534968
  0.7516050514407309  0.4781257570164019  0.4464901968847449
  0.1863864437224572  0.5525024356269438  0.5000033940074058
  0.8136137401278620  0.4474973164961553  0.5000036851918350
  0.2495139866403363  0.5530042634830542  0.3946085887865167
  0.7504873458428905  0.4469971786203233  0.3946084581969309
  0.3546606288810678  0.5881170785354818  0.3812871905986989
  0.6453396922549947  0.4118844207074406  0.3812877449205520
  0.4098648420555300  0.6426344404062905  0.3813029540785011
  0.5901351303538165  0.3573670502351258  0.3813025633811880
  0.3037590538161172  0.5869917051205008  0.3614404271233406
  0.6962421491459003  0.4130113133286877  0.3614404674737905
  0.4471364844596575  0.7481923182123551  0.3946564538758814
  0.5528630482244707  0.2518092532533701  0.3946547055750443
  0.4122539514537505  0.6941711086310780  0.3614670751694835
  0.5877461580026274  0.3058308581427183  0.3614650181161833
  0.4170848836667255  0.8117984606617865  0.4464711631645004
  0.5829147276624120  0.1882023481877675  0.4464672945110704
  0.4160021562062774  0.7805602485821147  0.3946657914892968
  0.5839991979483814  0.2194429027121574  0.3946631868669626
  0.3644793422967452  0.8106600741183360  0.5329591595735967
  0.6355200718369404  0.1893399086271466  0.5329556015431409
  0.3123810388463025  0.7781273558629659  0.5649863796315303
  0.6876182203907657  0.2218715212944952  0.5649830618677878
  0.3644765040092026  0.8106567841110122  0.4669947903456649
  0.6355225469934938  0.1893436017625599  0.4669915857779998
  0.2234036253016333  0.6900915895287678  0.5649908772242997
  0.7765958355621373  0.3099066571993061  0.5649889917621933
  0.1899732619063080  0.6381593848602292  0.5330515689055787
  0.8100264204526085  0.3618398495798068  0.5330504607087980
  0.2583406223023196  0.7440417919444737  0.5317914991051194
  0.7416588244976864  0.2559567909831867  0.5317890373439677
  0.1874028356734315  0.5848591017248723  0.4464420830983755
  0.8125973867826598  0.4151408180055763  0.4464416019543503
  0.2183255989609048  0.5852407684281166  0.3946000347108185
  0.7816748656165865  0.4147600587667217  0.3945991964377232
  0.1899607131816919  0.6381480750397758  0.4669486499670912
  0.8100394681749493  0.3618517705884934  0.4669468195620469
  0.3061295730968644  0.6404192800579979  0.3410023539981233
  0.6938716642020510  0.3595849616926645  0.3410010410809586
  0.3594028726354450  0.6930668850725594  0.3409756303717397
  0.6405985157269090  0.3069372789591463  0.3409734698215563
  0.3618044388800982  0.7465375322165385  0.3614398530517792
  0.6381961543775505  0.2534658673004331  0.3614378992101554
  0.2532851887397502  0.6392850180973495  0.3614350689498703
  0.7467156252190634  0.3607175465327558  0.3614336170955008
  0.3123718219742476  0.7781165350013344  0.4349793217830805
  0.6876276257928935  0.2218848937312368  0.4349767965382355
  0.2583389693583902  0.7440417630651188  0.4681858320195686
  0.7416609765226134  0.2559580825858613  0.4681829429619385
  0.2233866556534155  0.6900791768675290  0.4349996055497996
  0.7766128490193765  0.3099211164241910  0.4349973121238346
  0.3108667914151865  0.7453775013658217  0.3813022139817349
  0.6891330085046411  0.2546249908420899  0.3813007143210648
  0.2557019271471759  0.6907917147766842  0.3813168233802318
  0.7442985417429228  0.3092104032264089  0.3813148605547506
  0.9642072460087711  0.0257465291312897  0.3812661096190419
  0.1208167152600287  0.8046572988754142  0.4678421960806031
  0.1973814023810600  0.3172381431178389  0.4678466427859498
  0.6853794976721478  0.8802670684803060  0.4678431224292386
  0.8791820323909871  0.1953417844592406  0.4678424963727804
  0.8026186454342281  0.6827618367828321  0.4678463333572868
  0.3146207911981351  0.1197328657532893  0.4678428390579216
  0.9385104551204573  0.9642657339290774  0.3812495594323924
  0.1208153712880709  0.8046572970152922  0.5321734546992075
  0.1973771732135905  0.3172345629225771  0.5321481093446702
  0.6853756823231235  0.8802659653935001  0.5321801097607695
  0.8791835890529761  0.1953421144186267  0.5321737103545469
  0.8026228625370263  0.6827653713368651  0.5321477915518559
  0.3146249954496110  0.1197354226417251  0.5321798159061579
  0.8998010689685071  0.9417760096467509  0.4353918911680753
  0.1220467308790652  0.7517946905789152  0.5525529782030582
  0.2498325757206624  0.3715307934644155  0.5525744781186174
  0.6309442359615473  0.8783043169302843  0.5525729220639020
  0.8779525792096292  0.2482049243959034  0.5525529579940552
  0.7501675011623560  0.6284690538234652  0.5525741746178991
  0.3690564715497210  0.1216974080082859  0.5525720965863311
  0.9416909987516496  0.0419500154431104  0.4354154444169212
  0.1220476359438213  0.7517946334894742  0.4474663293708978
  0.2498355681716952  0.3715337086011682  0.4474261929802119
  0.6309517681303441  0.8783056125052705  0.4474423051675561
  0.8779513234370464  0.2482042529711263  0.4474665632548436
  0.7501645265415293  0.6284663760697516  0.4474258345357364
  0.3690475592971788  0.1216929736743904  0.4474414553330718
  0.9016581553964813  0.9899178717053496  0.4672807848404457
  0.1235854814849487  0.7205933737937787  0.5000100544267120
  0.2808739514371036  0.4042068671362922  0.5000005196083954
  0.5982239715196026  0.8766483261815585  0.5000039366973063
  0.8764139483937889  0.2794057971326853  0.5000099640727529
  0.7191261722732895  0.5957931549388340  0.5000001662165160
  0.4017759010761017  0.1233515895007617  0.5000028619743396
  0.9897766399440570  0.0881958034558406  0.4672806525998703
  0.0782464774622788  0.7225944570237063  0.4017593024637598
  0.2794508456209937  0.3572938590962209  0.4018127291376269
  0.6450625214111433  0.9221673180357911  0.4017768902675777
  0.9217532625806506  0.2774049050596033  0.4017596621148268
  0.7205491914304215  0.6427061315791621  0.4018125208926335
  0.3549363066038155  0.0778301738995780  0.4017767638486521
  0.0256883760181810  0.0614934754504513  0.3812534658457622
  0.0759440720741578  0.8070334530929504  0.4353974944956668
  0.1955648841676296  0.2702471260736786  0.4354115080882704
  0.7322242050058660  0.9254976534017344  0.4354034253710048
  0.9240547455658150  0.1929655079357036  0.4353980046179799
  0.8044351470714879  0.7297528737925052  0.4354113490569916
  0.2677751821943057  0.0745015439191632  0.4354040942078436
  0.0418753564956058  0.1002193838242058  0.4353832838860684
  0.0485336529317152  0.7552401266290669  0.3944870739247390
  0.2474224882018761  0.2950411989696033  0.3945469315229835
  0.7072805146241222  0.9524676727561633  0.3945814685889351
  0.9514655222510460  0.2447584136869348  0.3944874449416795
  0.7525775516973217  0.7049588022391027  0.3945467694851463
  0.2927181296051837  0.0475308143086339  0.3945821914161216
  0.0614896724866943  0.0357341894498939  0.3812492134683999
  0.0306421828144366  0.8086848960014772  0.4678356874873724
  0.1944572570328501  0.2235396763694633  0.4678156977535142
  0.7787521829401249  0.9710636537708539  0.4678409824262273
  0.9693562566882409  0.1913137537291853  0.4678365761980960
  0.8055427341041846  0.7764602860028463  0.4678156767671589
  0.2212481975092517  0.0289371346457665  0.4678428762100854
  0.9743117235273221  0.9385066035685264  0.3812538645260051
  0.0759417855617815  0.8070332543631128  0.5646172831083084
  0.1955566860899434  0.2702410958560810  0.5645845106455619
  0.7322174052218203  0.9254960562004205  0.5646269608798800
  0.9240574828043751  0.1929664998268126  0.5646178635707442
  0.8044433185500701  0.7297587621490006  0.5645842986077342
  0.2677840562828221  0.0745063123654119  0.5646277143877102
  0.0357927550206468  0.9742534383011251  0.3812660716939114
  0.0306393977457380  0.8086839532174850  0.5321771892965734
  0.1944560999756871  0.2235372262900912  0.5321798014845384
  0.7787463268967639  0.9710636573589559  0.5321950490991522
  0.9693595836193246  0.1913151092362433  0.5321779925237879
  0.8055439236675754  0.7764626780315299  0.5321797718312614
  0.2212544411475749  0.0289381358069530  0.5321971488139793
  0.9118064677286534  0.9016496593321209  0.4672688579810475
  0.0782456242997680  0.7225954582790831  0.5982592250252828
  0.2794443216487040  0.3572874342685152  0.5981891042755294
  0.6450491995200316  0.9221641454660116  0.5982380696854078
  0.9217538970959300  0.2774043189267595  0.5982592079261856
  0.7205556906591085  0.6427124199149887  0.5981889404829298
  0.3549522195399370  0.0778387306874224  0.5982380141609729
  0.9581251181373924  0.8997810119061485  0.4353837342076747
  0.0485313631011819  0.7552418847404220  0.6055291715624176
  0.2474130123402929  0.2950329602692875  0.6054535387301023
  0.7072677143045016  0.9524656064674816  0.6054439424384681
  0.9514679380203840  0.2447580396040736  0.6055296451623995
  0.7525870057799767  0.7049669234430156  0.6054534110421448
  0.2927345702632260  0.0475382596363067  0.6054448355214765
  0.9118042561495515  0.9016483417784650  0.5327485774902851
  0.0449671589090158  0.6596938461252736  0.5981491982120022
  0.3423760140991317  0.3874245658362852  0.5981662129678342
  0.6147359164567445  0.9548605850451114  0.5981622889331822
  0.9550328702460029  0.3403062917183995  0.5981487471702244
  0.6576239983909180  0.6125750961670854  0.5981657952609022
  0.3852652736662717  0.0451417940782731  0.5981629240876551
  0.9016606976140628  0.9899210441695896  0.5327391954919996
  0.0903788878746874  0.6580061096940821  0.5000109722402331
  0.3435206222719415  0.4340714570341667  0.5000065760141846
  0.5682172284107863  0.9094123251858592  0.5000028211495472
  0.9096208291721640  0.3419930943955481  0.5000106834912142
  0.6564794721575142  0.5659283422757856  0.5000059661614769
  0.4317828111599267  0.0905879291228563  0.5000027618399115
  0.8998383557216860  0.9417993491774351  0.5646125902823175
  0.0566630225866220  0.6281257904909467  0.5525097579446834
  0.3736472476370888  0.4308099786204695  0.5525262451587430
  0.5712862323696237  0.9426551054349634  0.5525768622243001
  0.9433368293732419  0.3718738077713890  0.5525092281866276
  0.6263529869625645  0.5691898518054038  0.5525255038623882
  0.4287147084360918  0.0573464432768494  0.5525776112580016
  0.9897773519538620  0.0881969749869681  0.5327339106417013
  0.0449687485603052  0.6596939839178608  0.4018698945151900
  0.3423821761666939  0.3874315483394353  0.4018439248869154
  0.6147487586318382  0.9548632652806887  0.4018483553069634
  0.9550307436686393  0.3403046149170130  0.4018694299779549
  0.6576179029303765  0.6125685139741209  0.4018435667459524
  0.3852495772342103  0.0451342071074707  0.4018489070858010
  0.9417158155477954  0.0419365459452219  0.5645925678745219
  0.0566654396831145  0.6281266685065491  0.4475135023712189
  0.3736493317175911  0.4308135489955922  0.4474891320644745
  0.5712945305803742  0.9426568225240948  0.4474281132244924
  0.9433344608184443  0.3718723449459377  0.4475128614743197
  0.6263506603333205  0.5691864137828909  0.4474885327226895
  0.4287050329631250  0.0573423460312925  0.4474282561444375
  0.0418606751818883  0.1001842457545902  0.5646191417920294
  0.9828370493987714  0.6309477377822653  0.3946035655084451
  0.3717813282916065  0.3545923988974749  0.3946924360923563
  0.6473255257690692  0.0170052732671657  0.3947016943472454
  0.0171629694068495  0.3690507620051420  0.3946038440207510
  0.6282185900744400  0.6454076194393489  0.3946924126830187
  0.3526732165693879  0.9829928589954363  0.3947032090621510
  0.0881946344898874  0.0983512342334387  0.4672681965417002
  0.9863807136847788  0.7265182709910412  0.4017354032836265
  0.2768269184084219  0.2621741493578360  0.4018102188508001
  0.7400023787785925  0.0146885511072432  0.4018102963994242
  0.0136184805608674  0.2734799739630496  0.4017357248419543
  0.7231730579069577  0.7378258271448580  0.4018101820922486
  0.2599964779274823  0.9853103875154052  0.4018118469256478
  0.1001994029207461  0.0582243547506518  0.4353914850773329
  0.9746510892805061  0.7580613620630040  0.4474691549381146
  0.2455857391680017  0.2188471115158293  0.4474983477278813
  0.7833044241074760  0.0267992021651229  0.4475296063230398
  0.0253479097591877  0.2419370643205341  0.4474699328972145
  0.7544142306700107  0.7811528301565825  0.4474984466680436
  0.2166951024358720  0.9732007981502061  0.4475321377459479
  0.0881964866091634  0.0983520829698471  0.5327478631476563
  0.9531673609660929  0.6636108724961907  0.4017640944409047
  0.3397772835123914  0.2923393996401840  0.4018671618360184
  0.7095844948914618  0.0472822711692605  0.4018791042011838
  0.0468323187101679  0.3363873040375069  0.4017641311232585
  0.6602226611201192  0.7076606092531673  0.4018672048853719
  0.2904137664528383  0.9527162812817066  0.4018815036372226
  0.0583093494445837  0.9580501049191689  0.4354152939464542
  0.9746490444993494  0.7580621482686387  0.5525447444829283
  0.2455819916062042  0.2188426910465233  0.5524997511019255
  0.7832955479409499  0.0267975448552226  0.5525048398729139
  0.0253502733218106  0.2419368685529005  0.5525458401981637
  0.7544180410273377  0.7811572029312318  0.5524998263777030
  0.2167052827968683  0.9732044240345336  0.5525074732894624
  0.0102239569054215  0.9118046006145316  0.4672808136709295
  0.9863790905570929  0.7265190096887145  0.5982789552641863
  0.2768187817397770  0.2621682721498821  0.5981915129160950
  0.7399896116211770  0.0146864697445353  0.5982169382479013
  0.0136202833108988  0.2734803725384962  0.5982796800129202
  0.7231812241170671  0.7378315304251206  0.5981914551726900
  0.2600126131773179  0.9853171353219430  0.5982185662523033
  0.0983418155911625  0.0100821652747082  0.4672805802349415
  0.9409555110323854  0.7283291124006677  0.5000077145349325
  0.2756486901759390  0.2153393573471626  0.5000004226315420
  0.7867487545423232  0.0603501272344011  0.5000152885936118
  0.0590437142602042  0.2716694433200705  0.5000085995524066
  0.7243513121093786  0.7846606388996793  0.5000006145921544
  0.2132513047052531  0.9396509417421329  0.5000183325438152
  0.9581402281879943  0.8998162458943891  0.5646196631760437
  0.9828354141801441  0.6309474201895187  0.6054120086006864
  0.3717726124116438  0.3545852847586990  0.6053183020503952
  0.6473109253692969  0.0170017898541526  0.6053133566226859
  0.0171644226207351  0.3690522309313444  0.6054115337162463
  0.6282274823644777  0.6454144247225068  0.6053181122933909
  0.3526905229587799  0.9830005206858851  0.6053148738903847
  0.0102233435348346  0.9118034401344082  0.5327339386682557
  0.9531662070026673  0.6636103416726452  0.5982515493707085
  0.3397693119791279  0.2923314900078602  0.5981397354576288
  0.7095730652331678  0.0472808223262283  0.5981440673590142
  0.0468334793242923  0.3363892573099926  0.5982518287274508
  0.6602307454337422  0.7076683374504249  0.5981398035252926
  0.2904280392130875  0.9527217928341646  0.5981468028971808
  0.9385034480048798  0.9642607403776658  0.6187716461914209
  0.0008003359088939  0.5772171529314437  0.5321774716976115
  0.4250016346064858  0.4264716187787476  0.5321917520257108
  0.5754783605097975  0.9982499614090283  0.5321865276090942
  0.9991998591939715  0.4227821823977141  0.5321763888537911
  0.5749985202762747  0.5735282718644809  0.5321915659489656
  0.4245228764764127  0.0017516712578497  0.5321878570294389
  0.9642042908391207  0.0257500582014116  0.6187561888182196
  0.0008015993028643  0.5772180824037236  0.4678426437151429
  0.4250025320485216  0.4264737417904464  0.4678260230195093
  0.5754840310646030  0.9982512941064269  0.4678146949893972
  0.9991973940676159  0.4227795572654819  0.4678417786998091
  0.5749975188342812  0.5735262088705914  0.4678258664518822
  0.4245168558941852  0.0017492538004917  0.4678160461552351
  0.0256935851123430  0.0615032695569322  0.6187678341468394
  0.9554704451068610  0.5790895791368417  0.4354659160505905
  0.4236836469038595  0.3795544363157536  0.4355274575007993
  0.6222122934790116  0.0438416126286925  0.4354955905919441
  0.0445293867364688  0.4209088151764170  0.4354655387102879
  0.5763162920599568  0.6204455214528501  0.4355274937737674
  0.3777869856282978  0.9561573435574016  0.4354979830016225
  0.9743075241898659  0.9384973884463093  0.6187680502691904
  0.9554681090584437  0.5790888092230723  0.5645515768095172
  0.4236795609562515  0.3795497068285640  0.5644906251506865
  0.6222045490698630  0.0438388673403881  0.5645120835304409
  0.0445320370476975  0.4209107052811907  0.5645508114958457
  0.5763205579593430  0.6204501155520201  0.5644905819595960
  0.3777968515001631  0.9561630755366617  0.5645142279342635
  0.1001625512131818  0.0582011656040676  0.5646122728544564
  0.9093408805043961  0.6344284240823471  0.4474662330896074
  0.3694578188584383  0.2781855603974241  0.4475285773848944
  0.7236189199350597  0.0910201599564206  0.4475253308070322
  0.0906582288109934  0.3655696734681297  0.4474662422561462
  0.6305421514647515  0.7218144193456554  0.4475287117143303
  0.2763801654588518  0.9089795798015710  0.4475291127629009
  0.0983398367203193  0.0100793507768141  0.5327388951017451
  0.9078975008229205  0.6656555012045111  0.5000092816411434
  0.3383860936554061  0.2453740112587540  0.5000009914636951
  0.7565530985843110  0.0929043832689770  0.5000128271326394
  0.0921017302974081  0.3343431814670733  0.5000098178538706
  0.6616139136522714  0.7546260087689105  0.5000011750596892
  0.2434460293600692  0.9070953221605136  0.5000164826689310
  0.0582850379366781  0.9580640326559108  0.5645921553227969
  0.9093389486583029  0.6344265766158134  0.5525488270160113
  0.3694549086551384  0.2781825824641969  0.5524791657766959
  0.7236102869139867  0.0910186614906091  0.5524953033108849
  0.0906605044443219  0.3655726135642430  0.5525491923253739
  0.6305451252652146  0.7218173166397228  0.5524793188919486
  0.2763902565132914  0.9089824563996723  0.5524989083123428
  0.0614976740156150  0.0357398008358857  0.6187716152830283
  0.9107015310891305  0.5815977068884786  0.4678830327620982
  0.4220691364888082  0.3326368077120907  0.4678660687402896
  0.6690965767102672  0.0891870159955331  0.4678618751643172
  0.0892981400365973  0.4184006371159892  0.4678827024169740
  0.5779308381742508  0.6673631566236696  0.4678661466824827
  0.3309032305605782  0.9108133919276998  0.4678652868274672
  0.0357968940125161  0.9742504920552388  0.6187562924009231
  0.9107001130850408  0.5815970635131704  0.5321333767762914
  0.4220682010959886  0.3326353934143145  0.5321476524411480
  0.6690928049254405  0.0891856866712424  0.5321498544226858
  0.0892996203254534  0.4184020926978183  0.5321331846906798
  0.5779318806824703  0.6673645060387701  0.5321477262000501
  0.3309080921735275  0.9108157086231544  0.5321533062422175
 
  0.00000000E+00  0.00000000E+00  0.00000000E+00
  0.00000000E+00  0.00000000E+00  0.00000000E+00
  0.00000000E+00  0.00000000E+00  0.00000000E+00
  0.00000000E+00  0.00000000E+00  0.00000000E+00
  0.00000000E+00  0.00000000E+00  0.00000000E+00
  0.00000000E+00  0.00000000E+00  0.00000000E+00
  0.00000000E+00  0.00000000E+00  0.00000000E+00
  0.00000000E+00  0.00000000E+00  0.00000000E+00
  0.00000000E+00  0.00000000E+00  0.00000000E+00
  0.00000000E+00  0.00000000E+00  0.00000000E+00
  0.00000000E+00  0.00000000E+00  0.00000000E+00
  0.00000000E+00  0.00000000E+00  0.00000000E+00
  0.00000000E+00  0.00000000E+00  0.00000000E+00
  0.00000000E+00  0.00000000E+00  0.00000000E+00
  0.00000000E+00  0.00000000E+00  0.00000000E+00
  0.00000000E+00  0.00000000E+00  0.00000000E+00
  0.00000000E+00  0.00000000E+00  0.00000000E+00
  0.00000000E+00  0.00000000E+00  0.00000000E+00
  0.00000000E+00  0.00000000E+00  0.00000000E+00
  0.00000000E+00  0.00000000E+00  0.00000000E+00
  0.00000000E+00  0.00000000E+00  0.00000000E+00
  0.00000000E+00  0.00000000E+00  0.00000000E+00
  0.00000000E+00  0.00000000E+00  0.00000000E+00
  0.00000000E+00  0.00000000E+00  0.00000000E+00
  0.00000000E+00  0.00000000E+00  0.00000000E+00
  0.00000000E+00  0.00000000E+00  0.00000000E+00
  0.00000000E+00  0.00000000E+00  0.00000000E+00
  0.00000000E+00  0.00000000E+00  0.00000000E+00
  0.00000000E+00  0.00000000E+00  0.00000000E+00
  0.00000000E+00  0.00000000E+00  0.00000000E+00
  0.00000000E+00  0.00000000E+00  0.00000000E+00
  0.00000000E+00  0.00000000E+00  0.00000000E+00
  0.00000000E+00  0.00000000E+00  0.00000000E+00
  0.00000000E+00  0.00000000E+00  0.00000000E+00
  0.00000000E+00  0.00000000E+00  0.00000000E+00
  0.00000000E+00  0.00000000E+00  0.00000000E+00
  0.00000000E+00  0.00000000E+00  0.00000000E+00
  0.00000000E+00  0.00000000E+00  0.00000000E+00
  0.00000000E+00  0.00000000E+00  0.00000000E+00
  0.00000000E+00  0.00000000E+00  0.00000000E+00
  0.00000000E+00  0.00000000E+00  0.00000000E+00
  0.00000000E+00  0.00000000E+00  0.00000000E+00
  0.00000000E+00  0.00000000E+00  0.00000000E+00
  0.00000000E+00  0.00000000E+00  0.00000000E+00
  0.00000000E+00  0.00000000E+00  0.00000000E+00
  0.00000000E+00  0.00000000E+00  0.00000000E+00
  0.00000000E+00  0.00000000E+00  0.00000000E+00
  0.00000000E+00  0.00000000E+00  0.00000000E+00
  0.00000000E+00  0.00000000E+00  0.00000000E+00
  0.00000000E+00  0.00000000E+00  0.00000000E+00
  0.00000000E+00  0.00000000E+00  0.00000000E+00
  0.00000000E+00  0.00000000E+00  0.00000000E+00
  0.00000000E+00  0.00000000E+00  0.00000000E+00
  0.00000000E+00  0.00000000E+00  0.00000000E+00
  0.00000000E+00  0.00000000E+00  0.00000000E+00
  0.00000000E+00  0.00000000E+00  0.00000000E+00
  0.00000000E+00  0.00000000E+00  0.00000000E+00
  0.00000000E+00  0.00000000E+00  0.00000000E+00
  0.00000000E+00  0.00000000E+00  0.00000000E+00
  0.00000000E+00  0.00000000E+00  0.00000000E+00
  0.00000000E+00  0.00000000E+00  0.00000000E+00
  0.00000000E+00  0.00000000E+00  0.00000000E+00
  0.00000000E+00  0.00000000E+00  0.00000000E+00
  0.00000000E+00  0.00000000E+00  0.00000000E+00
  0.00000000E+00  0.00000000E+00  0.00000000E+00
  0.00000000E+00  0.00000000E+00  0.00000000E+00
  0.00000000E+00  0.00000000E+00  0.00000000E+00
  0.00000000E+00  0.00000000E+00  0.00000000E+00
  0.00000000E+00  0.00000000E+00  0.00000000E+00
  0.00000000E+00  0.00000000E+00  0.00000000E+00
  0.00000000E+00  0.00000000E+00  0.00000000E+00
  0.00000000E+00  0.00000000E+00  0.00000000E+00
  0.00000000E+00  0.00000000E+00  0.00000000E+00
  0.00000000E+00  0.00000000E+00  0.00000000E+00
  0.00000000E+00  0.00000000E+00  0.00000000E+00
  0.00000000E+00  0.00000000E+00  0.00000000E+00
  0.00000000E+00  0.00000000E+00  0.00000000E+00
  0.00000000E+00  0.00000000E+00  0.00000000E+00
  0.00000000E+00  0.00000000E+00  0.00000000E+00
  0.00000000E+00  0.00000000E+00  0.00000000E+00
  0.00000000E+00  0.00000000E+00  0.00000000E+00
  0.00000000E+00  0.00000000E+00  0.00000000E+00
  0.00000000E+00  0.00000000E+00  0.00000000E+00
  0.00000000E+00  0.00000000E+00  0.00000000E+00
  0.00000000E+00  0.00000000E+00  0.00000000E+00
  0.00000000E+00  0.00000000E+00  0.00000000E+00
  0.00000000E+00  0.00000000E+00  0.00000000E+00
  0.00000000E+00  0.00000000E+00  0.00000000E+00
  0.00000000E+00  0.00000000E+00  0.00000000E+00
  0.00000000E+00  0.00000000E+00  0.00000000E+00
  0.00000000E+00  0.00000000E+00  0.00000000E+00
  0.00000000E+00  0.00000000E+00  0.00000000E+00
  0.00000000E+00  0.00000000E+00  0.00000000E+00
  0.00000000E+00  0.00000000E+00  0.00000000E+00
  0.00000000E+00  0.00000000E+00  0.00000000E+00
  0.00000000E+00  0.00000000E+00  0.00000000E+00
  0.00000000E+00  0.00000000E+00  0.00000000E+00
  0.00000000E+00  0.00000000E+00  0.00000000E+00
  0.00000000E+00  0.00000000E+00  0.00000000E+00
  0.00000000E+00  0.00000000E+00  0.00000000E+00
  0.00000000E+00  0.00000000E+00  0.00000000E+00
  0.00000000E+00  0.00000000E+00  0.00000000E+00
  0.00000000E+00  0.00000000E+00  0.00000000E+00
  0.00000000E+00  0.00000000E+00  0.00000000E+00
  0.00000000E+00  0.00000000E+00  0.00000000E+00
  0.00000000E+00  0.00000000E+00  0.00000000E+00
  0.00000000E+00  0.00000000E+00  0.00000000E+00
  0.00000000E+00  0.00000000E+00  0.00000000E+00
  0.00000000E+00  0.00000000E+00  0.00000000E+00
  0.00000000E+00  0.00000000E+00  0.00000000E+00
  0.00000000E+00  0.00000000E+00  0.00000000E+00
  0.00000000E+00  0.00000000E+00  0.00000000E+00
  0.00000000E+00  0.00000000E+00  0.00000000E+00
  0.00000000E+00  0.00000000E+00  0.00000000E+00
  0.00000000E+00  0.00000000E+00  0.00000000E+00
  0.00000000E+00  0.00000000E+00  0.00000000E+00
  0.00000000E+00  0.00000000E+00  0.00000000E+00
  0.00000000E+00  0.00000000E+00  0.00000000E+00
  0.00000000E+00  0.00000000E+00  0.00000000E+00
  0.00000000E+00  0.00000000E+00  0.00000000E+00
  0.00000000E+00  0.00000000E+00  0.00000000E+00
  0.00000000E+00  0.00000000E+00  0.00000000E+00
  0.00000000E+00  0.00000000E+00  0.00000000E+00
  0.00000000E+00  0.00000000E+00  0.00000000E+00
  0.00000000E+00  0.00000000E+00  0.00000000E+00
  0.00000000E+00  0.00000000E+00  0.00000000E+00
  0.00000000E+00  0.00000000E+00  0.00000000E+00
  0.00000000E+00  0.00000000E+00  0.00000000E+00
  0.00000000E+00  0.00000000E+00  0.00000000E+00
  0.00000000E+00  0.00000000E+00  0.00000000E+00
  0.00000000E+00  0.00000000E+00  0.00000000E+00
  0.00000000E+00  0.00000000E+00  0.00000000E+00
  0.00000000E+00  0.00000000E+00  0.00000000E+00
  0.00000000E+00  0.00000000E+00  0.00000000E+00
  0.00000000E+00  0.00000000E+00  0.00000000E+00
  0.00000000E+00  0.00000000E+00  0.00000000E+00
  0.00000000E+00  0.00000000E+00  0.00000000E+00
  0.00000000E+00  0.00000000E+00  0.00000000E+00
  0.00000000E+00  0.00000000E+00  0.00000000E+00
  0.00000000E+00  0.00000000E+00  0.00000000E+00
  0.00000000E+00  0.00000000E+00  0.00000000E+00
  0.00000000E+00  0.00000000E+00  0.00000000E+00
  0.00000000E+00  0.00000000E+00  0.00000000E+00
  0.00000000E+00  0.00000000E+00  0.00000000E+00
  0.00000000E+00  0.00000000E+00  0.00000000E+00
  0.00000000E+00  0.00000000E+00  0.00000000E+00
  0.00000000E+00  0.00000000E+00  0.00000000E+00
  0.00000000E+00  0.00000000E+00  0.00000000E+00
  0.00000000E+00  0.00000000E+00  0.00000000E+00
  0.00000000E+00  0.00000000E+00  0.00000000E+00
  0.00000000E+00  0.00000000E+00  0.00000000E+00
  0.00000000E+00  0.00000000E+00  0.00000000E+00
  0.00000000E+00  0.00000000E+00  0.00000000E+00
  0.00000000E+00  0.00000000E+00  0.00000000E+00
  0.00000000E+00  0.00000000E+00  0.00000000E+00
  0.00000000E+00  0.00000000E+00  0.00000000E+00
  0.00000000E+00  0.00000000E+00  0.00000000E+00
  0.00000000E+00  0.00000000E+00  0.00000000E+00
  0.00000000E+00  0.00000000E+00  0.00000000E+00
  0.00000000E+00  0.00000000E+00  0.00000000E+00
  0.00000000E+00  0.00000000E+00  0.00000000E+00
  0.00000000E+00  0.00000000E+00  0.00000000E+00
  0.00000000E+00  0.00000000E+00  0.00000000E+00
  0.00000000E+00  0.00000000E+00  0.00000000E+00
  0.00000000E+00  0.00000000E+00  0.00000000E+00
  0.00000000E+00  0.00000000E+00  0.00000000E+00
  0.00000000E+00  0.00000000E+00  0.00000000E+00
  0.00000000E+00  0.00000000E+00  0.00000000E+00
  0.00000000E+00  0.00000000E+00  0.00000000E+00
  0.00000000E+00  0.00000000E+00  0.00000000E+00
  0.00000000E+00  0.00000000E+00  0.00000000E+00
  0.00000000E+00  0.00000000E+00  0.00000000E+00
  0.00000000E+00  0.00000000E+00  0.00000000E+00
  0.00000000E+00  0.00000000E+00  0.00000000E+00
  0.00000000E+00  0.00000000E+00  0.00000000E+00
  0.00000000E+00  0.00000000E+00  0.00000000E+00
  0.00000000E+00  0.00000000E+00  0.00000000E+00
  0.00000000E+00  0.00000000E+00  0.00000000E+00
  0.00000000E+00  0.00000000E+00  0.00000000E+00
  0.00000000E+00  0.00000000E+00  0.00000000E+00
  0.00000000E+00  0.00000000E+00  0.00000000E+00
  0.00000000E+00  0.00000000E+00  0.00000000E+00
  0.00000000E+00  0.00000000E+00  0.00000000E+00
  0.00000000E+00  0.00000000E+00  0.00000000E+00
  0.00000000E+00  0.00000000E+00  0.00000000E+00
  0.00000000E+00  0.00000000E+00  0.00000000E+00
  0.00000000E+00  0.00000000E+00  0.00000000E+00
  0.00000000E+00  0.00000000E+00  0.00000000E+00
  0.00000000E+00  0.00000000E+00  0.00000000E+00
  0.00000000E+00  0.00000000E+00  0.00000000E+00
  0.00000000E+00  0.00000000E+00  0.00000000E+00
  0.00000000E+00  0.00000000E+00  0.00000000E+00
  0.00000000E+00  0.00000000E+00  0.00000000E+00
  0.00000000E+00  0.00000000E+00  0.00000000E+00
  0.00000000E+00  0.00000000E+00  0.00000000E+00
  0.00000000E+00  0.00000000E+00  0.00000000E+00
  0.00000000E+00  0.00000000E+00  0.00000000E+00
  0.00000000E+00  0.00000000E+00  0.00000000E+00
  0.00000000E+00  0.00000000E+00  0.00000000E+00
  0.00000000E+00  0.00000000E+00  0.00000000E+00
  0.00000000E+00  0.00000000E+00  0.00000000E+00
  0.00000000E+00  0.00000000E+00  0.00000000E+00
  0.00000000E+00  0.00000000E+00  0.00000000E+00
  0.00000000E+00  0.00000000E+00  0.00000000E+00
  0.00000000E+00  0.00000000E+00  0.00000000E+00
  0.00000000E+00  0.00000000E+00  0.00000000E+00
  0.00000000E+00  0.00000000E+00  0.00000000E+00
  0.00000000E+00  0.00000000E+00  0.00000000E+00
  0.00000000E+00  0.00000000E+00  0.00000000E+00
  0.00000000E+00  0.00000000E+00  0.00000000E+00
  0.00000000E+00  0.00000000E+00  0.00000000E+00
  0.00000000E+00  0.00000000E+00  0.00000000E+00
  0.00000000E+00  0.00000000E+00  0.00000000E+00
  0.00000000E+00  0.00000000E+00  0.00000000E+00
  0.00000000E+00  0.00000000E+00  0.00000000E+00
  0.00000000E+00  0.00000000E+00  0.00000000E+00
  0.00000000E+00  0.00000000E+00  0.00000000E+00
  0.00000000E+00  0.00000000E+00  0.00000000E+00
  0.00000000E+00  0.00000000E+00  0.00000000E+00
  0.00000000E+00  0.00000000E+00  0.00000000E+00
  0.00000000E+00  0.00000000E+00  0.00000000E+00
  0.00000000E+00  0.00000000E+00  0.00000000E+00
  0.00000000E+00  0.00000000E+00  0.00000000E+00
  0.00000000E+00  0.00000000E+00  0.00000000E+00
  0.00000000E+00  0.00000000E+00  0.00000000E+00
  0.00000000E+00  0.00000000E+00  0.00000000E+00
  0.00000000E+00  0.00000000E+00  0.00000000E+00
  0.00000000E+00  0.00000000E+00  0.00000000E+00
  0.00000000E+00  0.00000000E+00  0.00000000E+00
  0.00000000E+00  0.00000000E+00  0.00000000E+00
  0.00000000E+00  0.00000000E+00  0.00000000E+00
  0.00000000E+00  0.00000000E+00  0.00000000E+00
  0.00000000E+00  0.00000000E+00  0.00000000E+00
  0.00000000E+00  0.00000000E+00  0.00000000E+00
  0.00000000E+00  0.00000000E+00  0.00000000E+00
  0.00000000E+00  0.00000000E+00  0.00000000E+00
  0.00000000E+00  0.00000000E+00  0.00000000E+00
  0.00000000E+00  0.00000000E+00  0.00000000E+00
  0.00000000E+00  0.00000000E+00  0.00000000E+00
  0.00000000E+00  0.00000000E+00  0.00000000E+00
  0.00000000E+00  0.00000000E+00  0.00000000E+00
  0.00000000E+00  0.00000000E+00  0.00000000E+00
  0.00000000E+00  0.00000000E+00  0.00000000E+00
  0.00000000E+00  0.00000000E+00  0.00000000E+00
  0.00000000E+00  0.00000000E+00  0.00000000E+00
  0.00000000E+00  0.00000000E+00  0.00000000E+00
  0.00000000E+00  0.00000000E+00  0.00000000E+00
  0.00000000E+00  0.00000000E+00  0.00000000E+00
  0.00000000E+00  0.00000000E+00  0.00000000E+00
  0.00000000E+00  0.00000000E+00  0.00000000E+00
  0.00000000E+00  0.00000000E+00  0.00000000E+00
  0.00000000E+00  0.00000000E+00  0.00000000E+00
  0.00000000E+00  0.00000000E+00  0.00000000E+00
  0.00000000E+00  0.00000000E+00  0.00000000E+00
  0.00000000E+00  0.00000000E+00  0.00000000E+00
  0.00000000E+00  0.00000000E+00  0.00000000E+00
  0.00000000E+00  0.00000000E+00  0.00000000E+00
  0.00000000E+00  0.00000000E+00  0.00000000E+00
  0.00000000E+00  0.00000000E+00  0.00000000E+00
  0.00000000E+00  0.00000000E+00  0.00000000E+00
  0.00000000E+00  0.00000000E+00  0.00000000E+00
  0.00000000E+00  0.00000000E+00  0.00000000E+00
  0.00000000E+00  0.00000000E+00  0.00000000E+00
  0.00000000E+00  0.00000000E+00  0.00000000E+00
  0.00000000E+00  0.00000000E+00  0.00000000E+00
  0.00000000E+00  0.00000000E+00  0.00000000E+00
  0.00000000E+00  0.00000000E+00  0.00000000E+00
  0.00000000E+00  0.00000000E+00  0.00000000E+00
  0.00000000E+00  0.00000000E+00  0.00000000E+00
  0.00000000E+00  0.00000000E+00  0.00000000E+00
  0.00000000E+00  0.00000000E+00  0.00000000E+00
  0.00000000E+00  0.00000000E+00  0.00000000E+00
  0.00000000E+00  0.00000000E+00  0.00000000E+00
  0.00000000E+00  0.00000000E+00  0.00000000E+00
  0.00000000E+00  0.00000000E+00  0.00000000E+00
  0.00000000E+00  0.00000000E+00  0.00000000E+00
  0.00000000E+00  0.00000000E+00  0.00000000E+00
  0.00000000E+00  0.00000000E+00  0.00000000E+00
  0.00000000E+00  0.00000000E+00  0.00000000E+00
  0.00000000E+00  0.00000000E+00  0.00000000E+00
  0.00000000E+00  0.00000000E+00  0.00000000E+00
  0.00000000E+00  0.00000000E+00  0.00000000E+00
  0.00000000E+00  0.00000000E+00  0.00000000E+00
  0.00000000E+00  0.00000000E+00  0.00000000E+00
  0.00000000E+00  0.00000000E+00  0.00000000E+00
  0.00000000E+00  0.00000000E+00  0.00000000E+00
  0.00000000E+00  0.00000000E+00  0.00000000E+00
  0.00000000E+00  0.00000000E+00  0.00000000E+00
  0.00000000E+00  0.00000000E+00  0.00000000E+00
  0.00000000E+00  0.00000000E+00  0.00000000E+00
  0.00000000E+00  0.00000000E+00  0.00000000E+00
  0.00000000E+00  0.00000000E+00  0.00000000E+00
  0.00000000E+00  0.00000000E+00  0.00000000E+00
  0.00000000E+00  0.00000000E+00  0.00000000E+00
  0.00000000E+00  0.00000000E+00  0.00000000E+00
  0.00000000E+00  0.00000000E+00  0.00000000E+00
  0.00000000E+00  0.00000000E+00  0.00000000E+00
  0.00000000E+00  0.00000000E+00  0.00000000E+00
  0.00000000E+00  0.00000000E+00  0.00000000E+00
  0.00000000E+00  0.00000000E+00  0.00000000E+00
  0.00000000E+00  0.00000000E+00  0.00000000E+00
  0.00000000E+00  0.00000000E+00  0.00000000E+00
  0.00000000E+00  0.00000000E+00  0.00000000E+00
  0.00000000E+00  0.00000000E+00  0.00000000E+00
  0.00000000E+00  0.00000000E+00  0.00000000E+00
  0.00000000E+00  0.00000000E+00  0.00000000E+00
  0.00000000E+00  0.00000000E+00  0.00000000E+00
  0.00000000E+00  0.00000000E+00  0.00000000E+00
  0.00000000E+00  0.00000000E+00  0.00000000E+00
  0.00000000E+00  0.00000000E+00  0.00000000E+00
  0.00000000E+00  0.00000000E+00  0.00000000E+00
  0.00000000E+00  0.00000000E+00  0.00000000E+00
  0.00000000E+00  0.00000000E+00  0.00000000E+00
  0.00000000E+00  0.00000000E+00  0.00000000E+00
  0.00000000E+00  0.00000000E+00  0.00000000E+00
  0.00000000E+00  0.00000000E+00  0.00000000E+00
  0.00000000E+00  0.00000000E+00  0.00000000E+00
  0.00000000E+00  0.00000000E+00  0.00000000E+00
  0.00000000E+00  0.00000000E+00  0.00000000E+00
  0.00000000E+00  0.00000000E+00  0.00000000E+00
  0.00000000E+00  0.00000000E+00  0.00000000E+00
  0.00000000E+00  0.00000000E+00  0.00000000E+00
  0.00000000E+00  0.00000000E+00  0.00000000E+00
  0.00000000E+00  0.00000000E+00  0.00000000E+00
  0.00000000E+00  0.00000000E+00  0.00000000E+00
  0.00000000E+00  0.00000000E+00  0.00000000E+00
  0.00000000E+00  0.00000000E+00  0.00000000E+00
  0.00000000E+00  0.00000000E+00  0.00000000E+00
  0.00000000E+00  0.00000000E+00  0.00000000E+00
  0.00000000E+00  0.00000000E+00  0.00000000E+00
  0.00000000E+00  0.00000000E+00  0.00000000E+00
  0.00000000E+00  0.00000000E+00  0.00000000E+00
  0.00000000E+00  0.00000000E+00  0.00000000E+00
  0.00000000E+00  0.00000000E+00  0.00000000E+00
  0.00000000E+00  0.00000000E+00  0.00000000E+00
  0.00000000E+00  0.00000000E+00  0.00000000E+00
  0.00000000E+00  0.00000000E+00  0.00000000E+00
  0.00000000E+00  0.00000000E+00  0.00000000E+00
  0.00000000E+00  0.00000000E+00  0.00000000E+00
  0.00000000E+00  0.00000000E+00  0.00000000E+00
  0.00000000E+00  0.00000000E+00  0.00000000E+00
  0.00000000E+00  0.00000000E+00  0.00000000E+00
  0.00000000E+00  0.00000000E+00  0.00000000E+00
  0.00000000E+00  0.00000000E+00  0.00000000E+00
  0.00000000E+00  0.00000000E+00  0.00000000E+00
  0.00000000E+00  0.00000000E+00  0.00000000E+00
  0.00000000E+00  0.00000000E+00  0.00000000E+00
  0.00000000E+00  0.00000000E+00  0.00000000E+00
  0.00000000E+00  0.00000000E+00  0.00000000E+00
  0.00000000E+00  0.00000000E+00  0.00000000E+00
  0.00000000E+00  0.00000000E+00  0.00000000E+00
  0.00000000E+00  0.00000000E+00  0.00000000E+00
  0.00000000E+00  0.00000000E+00  0.00000000E+00
  0.00000000E+00  0.00000000E+00  0.00000000E+00
  0.00000000E+00  0.00000000E+00  0.00000000E+00
  0.00000000E+00  0.00000000E+00  0.00000000E+00
  0.00000000E+00  0.00000000E+00  0.00000000E+00
  0.00000000E+00  0.00000000E+00  0.00000000E+00
  0.00000000E+00  0.00000000E+00  0.00000000E+00
  0.00000000E+00  0.00000000E+00  0.00000000E+00
  0.00000000E+00  0.00000000E+00  0.00000000E+00
  0.00000000E+00  0.00000000E+00  0.00000000E+00
  0.00000000E+00  0.00000000E+00  0.00000000E+00
  0.00000000E+00  0.00000000E+00  0.00000000E+00
  0.00000000E+00  0.00000000E+00  0.00000000E+00
  0.00000000E+00  0.00000000E+00  0.00000000E+00
  0.00000000E+00  0.00000000E+00  0.00000000E+00
  0.00000000E+00  0.00000000E+00  0.00000000E+00
  0.00000000E+00  0.00000000E+00  0.00000000E+00
  0.00000000E+00  0.00000000E+00  0.00000000E+00
  0.00000000E+00  0.00000000E+00  0.00000000E+00
  0.00000000E+00  0.00000000E+00  0.00000000E+00
