Generated by VASPKIT code               
   1.00000000000000     
    23.5861333934512807   -0.0000000101532504    0.0000000000000000
     0.0000000019423487   23.5436395253075617    0.0000000000000000
     0.0000000000000013    0.0000000000000013   21.9969119627689516
  C             
   264
Direct
  0.4692828619573458  0.5977777751367477  0.3808651008864554
  0.9692828652700207  0.9022222259782442  0.3808650918277563
  0.4188375554633070  0.5624355831559089  0.3808425503714997
  0.9188375583021009  0.9375644184494918  0.3808425404082222
  0.3861794925802923  0.5762416328740665  0.4348317353633909
  0.8861794930896436  0.9237583670817462  0.4348317214004640
  0.4675012940878058  0.6333276116518758  0.4348408918602611
  0.9675012959135341  0.8666723891007437  0.4348408829029485
  0.4169860739080178  0.6189093839815334  0.4682803812770736
  0.9169860746314527  0.8810906166278918  0.4682803715510371
  0.5168129594901247  0.6463815877337029  0.4669164922651389
  0.0168129605048536  0.8536184126313544  0.4669164844648614
  0.5700525410158226  0.6227393995728436  0.4463899837749749
  0.0700525430184858  0.8772606014686533  0.4463899790846322
  0.5210335147576739  0.5756278793210687  0.3608806957155554
  0.0210335188111463  0.9243721227495354  0.3608806894298469
  0.5724809596440823  0.5883932256784428  0.3944503268651869
  0.0724809630965971  0.9116067763497706  0.3944503224083988
  0.5243174811597608  0.5170649743816025  0.3403835769722917
  0.0243174849170928  0.9829350294255947  0.3403835752819854
  0.4219016400741150  0.5061164507144387  0.3608983625567954
  0.9219016425387025  0.9938835528528986  0.3608983583360265
  0.4756812110208709  0.4829561281381383  0.3403816433849333
  0.9756812148302596  0.0170438756503707  0.3403816449895239
  0.3922910429162966  0.4620607266202654  0.3944237712164034
  0.8922910452242496  0.0379392765520228  0.3944237690864448
  0.3570569441881610  0.5342956547033706  0.4668793764962899
  0.8570569440938880  0.9657043455876573  0.4668793637365690
  0.3609664490078420  0.4761483570932523  0.4463599591727060
  0.8609664488194864  0.0238516449195612  0.4463599531517269
  0.3570558176569287  0.5342920175168460  0.5331287349501432
  0.8570558165244910  0.9657079814032878  0.5331287224078751
  0.4169861286942095  0.6189052523215959  0.5317342146042658
  0.9169861272381441  0.8810947461867851  0.5317342050325422
  0.3861785709620080  0.5762353254315995  0.5651797871197377
  0.8861785694338911  0.9237646737288794  0.5651797735501070
  0.5168118474910486  0.6463771290443185  0.5330983985512860
  0.0168118459478233  0.8536228699606716  0.5330983911713869
  0.4675011769402104  0.6333173662733000  0.5651757219323674
  0.9675011746920066  0.8666826321847274  0.5651757134184892
  0.6017093814766490  0.6072638288993395  0.5000043706550230
  0.1017093810130426  0.8927361707627253  0.5000043678027255
  0.5700511042710115  0.6227309578596687  0.5536211848000847
  0.0700511018336801  0.8772690405849195  0.5536211801263311
  0.6355682106947791  0.5590390118566282  0.5000014007973808
  0.1355682102764292  0.9409609878177272  0.5000014026650048
  0.6077104160235389  0.5379532298326248  0.3944237973355150
  0.1077104183687918  0.9620467732929181  0.3944237993568191
  0.5780976804293143  0.4939005480393620  0.3608967566207588
  0.0780976829401915  0.0060994554816419  0.3608967607883913
  0.6390350955848330  0.5238579173485916  0.4463591779878786
  0.1390350953118319  0.9761420845656090  0.4463591840092864
  0.5811621492028505  0.4375795238977441  0.3808344255092995
  0.0811621520190708  0.0624204777694382  0.3808344353154947
  0.4789653822544632  0.4243901527773323  0.3608737053426984
  0.9789653862309908  0.0756098493285486  0.3608737115410439
  0.4275196067163020  0.4116206291100466  0.3944440355080153
  0.9275196101294312  0.0883793729603460  0.3944440398421839
  0.5307163027562094  0.4022366157971320  0.3808531796629608
  0.0307163061206512  0.0977633853376757  0.3808531886662175
  0.4299488960622232  0.3772690419555430  0.4463788152480935
  0.9299488979654935  0.1227309590057784  0.4463788198673936
  0.3644317896694184  0.4409609878953042  0.4999985992174851
  0.8644317893498223  0.0590390117398915  0.4999985973257124
  0.3609649050223874  0.4761420824637038  0.5536408219315565
  0.8609649041833587  0.0238579151692564  0.5536408160816086
  0.3982906189816893  0.3927361707872369  0.4999956293743136
  0.8982906186135220  0.1072638288141724  0.4999956321693463
  0.3922895844764694  0.4620467699980746  0.6055762026012992
  0.8922895812181966  0.0379532263730680  0.6055762006642822
  0.4188378512197866  0.5624204757981455  0.6191655742584929
  0.9188378476106727  0.9375795217192280  0.6191655649052179
  0.4692836977445107  0.5977633837658496  0.6191468204644379
  0.9692836934690154  0.9022366140349947  0.6191468113272125
  0.4219023200086929  0.5060994515695449  0.6391032431880539
  0.9219023167006990  0.9939005439727779  0.6391032393868670
  0.5724803937306846  0.5883793705946085  0.6055559646665001
  0.0724803895679605  0.9116206265862914  0.6055559600529974
  0.5210346181061127  0.5756098468435227  0.6391262947750094
  0.0210346134765840  0.9243901501176350  0.6391262884361468
  0.6390335515915779  0.5238516427103836  0.5536400409546689
  0.1390335506963634  0.9761483548106404  0.5536400467369049
  0.6077089575739472  0.5379392731991726  0.6055762288899187
  0.1077089543569023  0.9620607231158473  0.6055762308687074
  0.6429441829862144  0.4657079821316643  0.4668712650535497
  0.1429441829558639  0.0342920181603562  0.4668712776729133
  0.6138214295520545  0.4237646741807303  0.4348202127854397
  0.1138214301522031  0.0762353258040596  0.4348202266279073
  0.6429430564473577  0.4657043449399659  0.5331206235350703
  0.1429430553703390  0.0342956539602561  0.5331206361699723
  0.5324988233436494  0.3666826334974325  0.4348242779516633
  0.0324988251145460  0.1333173673356444  0.4348242867654947
  0.4831881528375778  0.3536228707548932  0.4669016013467747
  0.9831881538276610  0.1463771295349525  0.4669016089801397
  0.5830138717127120  0.3810947473525460  0.4682657853964209
  0.0830138724264456  0.1189052533194983  0.4682657950116680
  0.4299474592954929  0.3772606002316531  0.5536100162484510
  0.9299474567954047  0.1227393980997249  0.5536100208503241
  0.4275190408038890  0.4116067740268734  0.6055496730579359
  0.9275190365985466  0.0883932231814154  0.6055496776136156
  0.4831870408377150  0.3536184120693482  0.5330835079385656
  0.9831870392657209  0.1463815868446798  0.5330835152933684
  0.4756825193079977  0.4829350254582644  0.6596164230030395
  0.9756825147857029  0.0170649702918485  0.6596164247274856
  0.5243187894585133  0.5170438716850911  0.6596183566838756
  0.0243187848603585  0.9829561240521123  0.6596183549670493
  0.5780983603752432  0.4938835488790699  0.6391016376874314
  0.0780983570835665  0.0061164465905686  0.6391016414505117
  0.4789664856075789  0.4243721203154294  0.6391193042332044
  0.9789664808940308  0.0756278767025705  0.6391193105280397
  0.6138205079274861  0.4237583667450899  0.5651682647663800
  0.1138205065048240  0.0762416324471759  0.5651682784095522
  0.5830139264919589  0.3810906156979574  0.5317196187735438
  0.0830139250552375  0.1189093829027718  0.5317196284003294
  0.5324987061926025  0.3666723880947168  0.5651591083479759
  0.0324987038779504  0.1333276103996254  0.5651591168533212
  0.5811624449730846  0.4375644165366870  0.6191574499064045
  0.0811624413185305  0.0624355810403430  0.6191574593555658
  0.5307171385489746  0.4022222244363919  0.6191348990498267
  0.0307171343000970  0.0977777734001422  0.6191349081272888
  0.6530560292412115  0.0798178599194433  0.5322141172582668
  0.3469435584945781  0.9201821088952606  0.5322139361793834
  0.0798967731822569  0.3466604002575407  0.5322067863720825
  0.9201026749720667  0.6533398402339698  0.5322070442591607
  0.6530564419966109  0.0798178913385331  0.4677860639660980
  0.3469439712061341  0.9201821403067245  0.4677858826977729
  0.0798973242642373  0.3466601599764974  0.4677929555308427
  0.9201032260192745  0.6533395999668588  0.4677932137167293
  0.7117091075906823  0.0926089610759643  0.4473951435355309
  0.2882915432098215  0.9073912350008349  0.4473943256499975
  0.0928965560701158  0.2879258319869776  0.4474014812872598
  0.9071035435663135  0.7120739245713938  0.4474017505693707
  0.7117084571636674  0.0926087653587538  0.5526056744212624
  0.2882908928916651  0.9073910392007030  0.5526048565234873
  0.0928964559132521  0.2879260757526904  0.5525982495565727
  0.9071034433425356  0.7120741682490195  0.5525985186263429
  0.7465490222445035  0.0996463392769606  0.5000003970711171
  0.2534509781852990  0.9003536609121521  0.4999996030199144
  0.0999247886786988  0.2529480587754631  0.5000001385814428
  0.9000752110220023  0.7470519417996877  0.4999998614799511
  0.7102843646176722  0.1360987849376726  0.5982900682582815
  0.2897151660196747  0.8639009825625186  0.5982891915287953
  0.1362440601202900  0.2894650291587338  0.5983022842739572
  0.8637554872631001  0.7105346769239900  0.5983018477410909
  0.6165002924058955  0.1165990546373364  0.5644060825750634
  0.3834992112131606  0.8834009492216883  0.5644058933641565
  0.1165002965435653  0.3834009443988238  0.5644060967733946
  0.8834992152003227  0.6165990497229308  0.5644058789428050
  0.6521671178666146  0.1522185147626686  0.6054909146843954
  0.3478326119608078  0.8477818662119099  0.6054905508154820
  0.1521671235551322  0.3477814834964442  0.6054909264749913
  0.8478326176224356  0.6522181318844700  0.6054905389986878
  0.5798967723251065  0.1533395989481499  0.5322067678468081
  0.4201026741661136  0.8466601589949345  0.5322070628175726
  0.1530560312247642  0.4201821392846244  0.5322141274069270
  0.8469435599966839  0.5798178903140294  0.5322139258924288
  0.6165007893496928  0.1165990509486727  0.4355941068376037
  0.3834997081682152  0.8834009455781098  0.4355939172595925
  0.1165007841038740  0.3834009507138366  0.4355941208572381
  0.8834997026779277  0.6165990561033436  0.4355939032790737
  0.5798973264370253  0.1533398411448370  0.4677929372560184
  0.4201032283155901  0.8466604012307282  0.4677932320486757
  0.1530564395551814  0.4201821102197206  0.4677860738453200
  0.8469439683176496  0.5798178611949696  0.4677858726406576
  0.7102848345107420  0.1360990175804737  0.4017108085340302
  0.2897156358498493  0.8639012153483909  0.4017099317668535
  0.1362445122607985  0.2894653233834308  0.4016981521979029
  0.8637559394937924  0.7105349713736424  0.4016977158092029
  0.6521673885526089  0.1522181338895220  0.3945094493070207
  0.3478328825880245  0.8477814853981986  0.3945090852125576
  0.1521673816622676  0.3477818684998129  0.3945094607511904
  0.8478328757092357  0.6522185171221035  0.3945090738267276
  0.7535289921072685  0.1794978023374195  0.4018183377625755
  0.2464714618114788  0.8205023234146465  0.4018178914354803
  0.1797671313963566  0.2463343302843090  0.4017998142091534
  0.8202327756530743  0.7536658522942079  0.4017999243092576
  0.7889233642773597  0.1432246504333169  0.5000004277830599
  0.2110766361251477  0.8567753498452761  0.4999995722222637
  0.1437680759690539  0.2109231698858790  0.4999998959879777
  0.8562319233480156  0.7890768305249134  0.5000001040613649
  0.7965859045675665  0.1780313775989489  0.4475481390513474
  0.2034143093580614  0.8219688220129937  0.4475475896988163
  0.1785739237656366  0.2033026437836192  0.4475924232864934
  0.8214259387266101  0.7966966936375091  0.4475930325010096
  0.7535285387337012  0.1794976768519556  0.5981821085603929
  0.2464710085183831  0.8205021977858786  0.5981816623165690
  0.1797672238507648  0.2463341482975318  0.5982000758143535
  0.8202328680561348  0.7536656701426421  0.5982001857154273
  0.7965856910486613  0.1780311782800492  0.5524524102793262
  0.2034140959398276  0.8219686226359049  0.5524518610123219
  0.1785740607107508  0.2033033068993948  0.5524069676113095
  0.8214260756317957  0.7966973565918052  0.5524075767153771
  0.7379881303855580  0.2378356741230682  0.6056893498894691
  0.2620116947498315  0.7621639809022465  0.6056894286102488
  0.2379881349633960  0.2621643229444726  0.6056893496070042
  0.7620116991364387  0.7378360164244906  0.6056894293018136
  0.6362440553647297  0.2105349684108841  0.5983022726090712
  0.3637554825644570  0.7894653205629778  0.5983018590157971
  0.2102843699769775  0.3639012130950871  0.5982900753225633
  0.7897151712105219  0.6360990154471480  0.5982891846488991
  0.5928964540519310  0.2120739223728226  0.5525982339746156
  0.4071034417769670  0.7879258298377616  0.5525985340065169
  0.2117084604387385  0.4073912330505646  0.5526056802455592
  0.7882908956969157  0.5926089594726323  0.5526048506680268
  0.6797672194531605  0.2536658485750690  0.5982000705291923
  0.3202328636342946  0.7463343267473352  0.5982001907303836
  0.2535285432762038  0.3205023207310530  0.5981821086945776
  0.7464710128561345  0.6794977998140241  0.5981816623361473
  0.5928965587626920  0.2120741702599396  0.4474014658830340
  0.4071035464718854  0.7879260778046322  0.4474017659883803
  0.2117091037546760  0.4073910409600746  0.4473951491289642
  0.7882915390773444  0.5926087674420890  0.4473943197725049
  0.6362445179711933  0.2105346795380806  0.4016981408725292
  0.3637559450697130  0.7894650318041398  0.4016977274115721
  0.2102848280990972  0.3639009847386906  0.4017108152344645
  0.7897156293113268  0.6360987872284172  0.4017099246274560
  0.5999247890763340  0.2470519416622893  0.5000001262597218
  0.4000752113145626  0.7529480585911621  0.4999998736474540
  0.2465490218707193  0.4003536609097015  0.5000004005761032
  0.7534509774432179  0.5996463393429892  0.4999995992987095
  0.7379883058086647  0.2378360192661118  0.3943105713164965
  0.2620118701177213  0.7621643261771860  0.3943106501158297
  0.2379883003209488  0.2621639838406912  0.3943105708187594
  0.7620118645586795  0.7378356774825101  0.3943106504433083
  0.6797671369464504  0.2536656734286878  0.4017998091861573
  0.3202327810094386  0.7463341517870632  0.4017999294601460
  0.2535289864146776  0.3205022004484964  0.4018183374959603
  0.7464714560100705  0.6794976797125749  0.4018178914549175
  0.8101148896799919  0.2366147714089585  0.4678162567131908
  0.1898854188882731  0.7633852952290670  0.4678155833877824
  0.2371569967758158  0.1900565839154313  0.4678252899079637
  0.7628432685080260  0.8099424933891686  0.4678266421091603
  0.8101145815254998  0.2366147050720612  0.5321844165767331
  0.1898851107673062  0.7633852288306873  0.5321837433666767
  0.2371567308987601  0.1900575068400683  0.5321733581681196
  0.7628430025754236  0.8099434162894625  0.5321747100349996
  0.7737390310180416  0.2734400474408315  0.5646657673103139
  0.2262605980861868  0.7265599147605635  0.5646660996950688
  0.2737390344711886  0.2265599499661712  0.5646657665810899
  0.7262606015589521  0.7734400830273320  0.5646661006917646
  0.7737394024711595  0.2734400854335547  0.4353339003531155
  0.2262609694761888  0.7265599528334366  0.4353342326051567
  0.2737393978855007  0.2265599173549739  0.4353338992649393
  0.7262609650255367  0.7734400504959804  0.4353342336068098
  0.6785740583017195  0.2966966920759739  0.5524069660735518
  0.3214260730340558  0.7033026422407591  0.5524075780455711
  0.2965856941380601  0.3219688211155721  0.5524524097948262
  0.7034140989725994  0.6780313770260915  0.5524518615658749
  0.6437680766224738  0.2890768304913266  0.4999998911054784
  0.3562319239035761  0.7109231697564684  0.5000001088500983
  0.2889233637913110  0.3567753497867200  0.5000004263177067
  0.7110766356784777  0.6432246508036594  0.4999995736695328
  0.6785739275088483  0.2966973578791640  0.4475924219122676
  0.3214259421743064  0.7033033081503124  0.4475930338198890
  0.2965859003854836  0.3219686234983234  0.4475481383627375
  0.7034143052777053  0.6780311793926559  0.4475475902521183
  0.7371567294118953  0.3099424924616152  0.5321733610071655
  0.2628430008011702  0.6900565834149919  0.5321747069212384
  0.3101145840478704  0.2633852941852819  0.5321844158923590
  0.6898851132129380  0.7366147707754749  0.5321837441264372
  0.7371569997947598  0.3099434166202581  0.4678252931224808
  0.2628432711176925  0.6900575076165345  0.4678266388158301
  0.3101148863709724  0.2633852297670766  0.4678162557738540
  0.6898854155411427  0.7366147064354505  0.4678155842817520
