Generated by VASPKIT code               
   1.00000000000000     
    31.4468651869037288    0.0000007490742969    0.0000000000000000
     0.0000007548358957   31.4467784624249909    0.0000000000000000
     0.0000000000000014    0.0000000000000014   21.9287916360973796
  C             
   408
Direct
  0.4171743191860572  0.0226717391501973  0.3950554598177275
  0.9773273707760228  0.4171733393076425  0.3950549482617391
  0.4171739162244991  0.9773298650104216  0.3950552781181877
  0.0226687868068373  0.4171744819442148  0.3950543412587905
  0.4545144024758146  0.9635332676523647  0.3590696347911624
  0.0364669609596092  0.4545131166719351  0.3590685796665238
  0.4545137322583803  0.0364681448165542  0.3590694615883801
  0.9635323847600142  0.4545146772867595  0.3590686663620653
  0.4770428139991228  0.0000002741715470  0.3367835204314860
  0.9999978279036789  0.4770428640859230  0.3367827311338608
  0.4768468303167648  0.0718733102888845  0.3795239077968361
  0.9281261061340613  0.4768450824152674  0.3795232938772869
  0.4637958336772410  0.0921652818458560  0.4342132837977294
  0.9078354200187491  0.4637952367999331  0.4342134845146974
  0.4032229971602285  0.0451162325889547  0.4459440713026734
  0.9548823165975904  0.4032228598848847  0.4459443314030951
  0.4205899095582516  0.0886111804731504  0.4600156439309632
  0.9113888197826812  0.4205904880300808  0.4600167274911576
  0.3915627003500821  0.0226055653690952  0.5000010473285499
  0.9773947531790542  0.3915616305617038  0.5000008321029535
  0.4032219225700376  0.9548847961913829  0.4459429053415381
  0.0451143821102139  0.4032215960982086  0.4459423946106550
  0.3915623934222547  0.9773959664698058  0.5000009001457226
  0.0226040724762103  0.3915624262749480  0.5000004918739303
  0.4205886792624924  0.9113898351356545  0.4600155060403188
  0.0886097856104201  0.4205878575380024  0.4600139266837991
  0.4768452003038133  0.9281276587498246  0.3795218877860376
  0.0718709862437160  0.4768464984054678  0.3795219876426117
  0.4637942425664111  0.9078350324689298  0.4342119699034569
  0.0921641127588403  0.4637943970330426  0.4342117021562351
  0.5231538699879569  0.9281275643199531  0.3795223009563957
  0.0718709901853778  0.5231523658996480  0.3795225165119843
  0.5229560742521053  0.0000003609368595  0.3367830203022934
  0.9999977783753530  0.5229561024461035  0.3367823009964345
  0.5454847676193876  0.9635331963543201  0.3590682251902854
  0.0364670242145997  0.5454859809838213  0.3590679894093256
  0.5231528199872397  0.0718731886307501  0.3795229002322015
  0.9281261699359514  0.5231545318082127  0.3795223639581275
  0.5454856475415650  0.0364682386828625  0.3590685649119650
  0.9635324804070827  0.5454848155657431  0.3590679019794883
  0.5000008113484232  0.1040070861146770  0.4674095329403312
  0.8959917536551892  0.5000008204394625  0.4674076531245142
  0.5362053500858153  0.0921653959474895  0.4342120636282514
  0.9078353677335478  0.5362055448076896  0.4342124340292283
  0.5000010174419368  0.1040074367732832  0.5325918058097868
  0.8959918592629061  0.5000008894564947  0.5325937226714479
  0.4205900487960749  0.0886111829309923  0.5399864904130984
  0.9113889017093852  0.4205906795301444  0.5399855696882402
  0.4032231106110108  0.0451160258636654  0.5540587995282251
  0.9548825968662932  0.4032231452101868  0.5540575789836242
  0.4637958799456942  0.0921651093188313  0.5657888641368704
  0.9078356301623683  0.4637957139771332  0.5657886472352761
  0.4171756838065199  0.0226709965057860  0.6049467838442696
  0.9773280220468104  0.4171742522674282  0.6049460342470857
  0.4032224435180539  0.9548846231992552  0.5540588104436355
  0.0451146152452539  0.4032220268992682  0.5540583879106407
  0.4205888233363142  0.9113897311191567  0.5399849976038198
  0.0886100124053823  0.4205878647522042  0.5399859715192108
  0.4171746354076717  0.9773292369946797  0.6049458087823032
  0.0226696062807275  0.4171751267579119  0.6049462852938596
  0.4637946630461831  0.9078347940414546  0.5657877179122925
  0.0921643955037460  0.4637948360512654  0.5657875731895100
  0.4999992688536611  0.8959918168877237  0.4674069218744829
  0.1040053611249864  0.4999992250277780  0.4674081264941833
  0.5362046005580798  0.9078350560716661  0.4342115154106048
  0.0921641221726351  0.5362042132924266  0.4342114770390303
  0.4999993905373673  0.8959918147110192  0.5325919838311070
  0.1040054434333328  0.4999993718729858  0.5325904298557320
  0.5794099871249865  0.9113893557453053  0.4600142294716994
  0.0886102311635653  0.5794107126546115  0.4600128510923344
  0.5828253050170890  0.9773291058642475  0.3950540908182107
  0.0226697714106115  0.5828246582800539  0.3950535293694753
  0.5828249076200009  0.0226705321585114  0.3950536803612850
  0.9773283999387293  0.5828261759220860  0.3950540444272906
  0.5967771454523066  0.9548840856874622  0.4459412769538367
  0.0451149759669216  0.5967772322984843  0.4459412437480545
  0.5794116623249692  0.0886107146569041  0.4600143630570647
  0.9113892608150287  0.5794109416660417  0.4600156960962332
  0.5967777910713525  0.0451156094355465  0.4459417070572675
  0.9548836717448848  0.5967783776562416  0.4459417298247138
  0.5362057397607827  0.0921651538838507  0.5657880738229659
  0.9078355754072456  0.5362059308200338  0.5657883164953089
  0.5794119516867915  0.0886105841614381  0.5399845563265265
  0.9113895468350133  0.5794110830243177  0.5399842302588062
  0.4768477691354236  0.0718723466599208  0.6204766012845873
  0.9281270315731812  0.4768459770190180  0.6204778710262290
  0.4545148355278025  0.0364673647703451  0.6409318364334637
  0.9635336289263603  0.4545155573468253  0.6409321881120496
  0.5231536601944390  0.0718722307424264  0.6204767233469349
  0.9281271225174752  0.5231554397065552  0.6204782625385729
  0.4545153598750376  0.9635322170636901  0.6409312781817832
  0.0364680937596645  0.4545139890950040  0.6409312561759257
  0.4768461198466576  0.9281270619857016  0.6204777446987696
  0.0718718905746922  0.4768473895489577  0.6204772658260250
  0.4770441876704740  0.9999993683978329  0.6632170288155937
  0.9999989551879297  0.4770439615363672  0.6632172651858603
  0.5362050978597352  0.9078349306290260  0.5657866727564805
  0.0921643888398651  0.5362045117759183  0.5657863984352089
  0.5794101872227359  0.9113892088778739  0.5399837423803566
  0.0886104363807947  0.5794107012818434  0.5399848141566406
  0.5231546975188649  0.9281269901251776  0.6204768832945179
  0.0718719994894250  0.5231530802767510  0.6204764610036999
  0.6084380458088600  0.9773950397446437  0.4999991516747506
  0.0226049595298427  0.6084375757666621  0.4999991296759227
  0.6084375109844719  0.0226044073945366  0.4999993045251269
  0.9773957994240542  0.6084383987025948  0.4999992899795425
  0.5967783984572814  0.0451153170841648  0.5540570835626135
  0.9548839759024914  0.5967789648731755  0.5540573993837421
  0.5967773325228460  0.9548837144644924  0.5540561839063320
  0.0451153350994480  0.5967775776859158  0.5540562312570925
  0.5454868173797227  0.0364671203846540  0.6409308047016719
  0.9635335563146341  0.5454856933019737  0.6409317949081798
  0.5229574568278491  0.9999995736799163  0.6632164280334933
  0.9999988940586723  0.5229573506840353  0.6632170030380412
  0.5454855607065950  0.9635325752279723  0.6409300302658409
  0.0364682530997796  0.5454868543606991  0.6409306277759433
  0.5828257918557455  0.0226699511149701  0.6049451369648553
  0.9773291345712234  0.5828269151699156  0.6049451923646092
  0.5828262215954713  0.9773285164649761  0.6049446390329458
  0.0226705939025016  0.5828255673353128  0.6049453214964038
  0.3451510115170855  0.7579595899218425  0.6191335820979325
  0.6548489385465941  0.2420404858902838  0.6191330038850730
  0.2420408608696606  0.3451512920939809  0.6191333015347622
  0.7579597829657702  0.6548476699936884  0.6191333013919941
  0.6548490194507348  0.7579590204713017  0.6191332683483768
  0.3451500608249835  0.2420414630625350  0.6191338656325835
  0.7579587857143775  0.3451509537875616  0.6191337006335089
  0.2420409601438884  0.6548486107770050  0.6191333786080261
  0.3899097212395669  0.7615382115610946  0.6202618270289311
  0.6100902052011901  0.2384621406714580  0.6202611698354176
  0.2384620114245226  0.3899102440081848  0.6202612775006193
  0.7615382346518941  0.6100887570152146  0.6202613759336286
  0.6100900647453605  0.7615370093660229  0.6202607406846465
  0.3899088238176485  0.2384639523955167  0.6202622620649071
  0.7615365755101475  0.3899100406728023  0.6202619042670988
  0.2384628148847071  0.6100894540018045  0.6202606762861214
  0.4065831232314370  0.7372281014129742  0.5662276162077604
  0.5934170456286316  0.2627720922065541  0.5662268351420582
  0.2627718746234471  0.4065836256403427  0.5662269765652844
  0.7372283786884943  0.5934153654869413  0.5662272032910350
  0.5934178453377738  0.7372264951683072  0.5662262955215591
  0.4065820452769526  0.2627739281136073  0.5662277825360755
  0.7372262400777359  0.4065826719479435  0.5662275988872709
  0.2627731700446015  0.5934171293533397  0.5662262305597434
  0.3341824687543021  0.7332744578872571  0.5645234562986141
  0.6658176954281296  0.2667257351688087  0.5645228726908156
  0.2667259201580360  0.3341827044339157  0.5645231441817075
  0.7332748093003950  0.6658165534574847  0.5645231185254612
  0.6658183258610828  0.7332740872025942  0.5645230466136339
  0.3341813611011455  0.2667260017232499  0.5645230914842839
  0.7332742838472150  0.3341819039335234  0.5645230868795807
  0.2667258917411619  0.6658179345282764  0.5645230624635670
  0.3713703369793376  0.7194862419056890  0.5330896873638767
  0.6286298237667017  0.2805138626144586  0.5330890149302950
  0.2805138858980890  0.3713707837022694  0.5330893780959548
  0.7194867473665548  0.6286284152650741  0.5330894985571307
  0.6286306471950448  0.7194852652287077  0.5330891841170953
  0.3713691472047992  0.2805147559838714  0.5330899000355387
  0.7194855341736140  0.3713697902257692  0.5330897878547959
  0.2805145733391385  0.6286301636505891  0.5330892676085757
  0.3011612945439954  0.7547793228570627  0.5326544760482107
  0.6988387022735080  0.2452207389452643  0.5326540074957606
  0.2452211492422905  0.3011613902825909  0.5326543481273268
  0.7547793850998681  0.6988379147363301  0.5326544587658288
  0.6988391863619622  0.7547796294747028  0.5326544552015322
  0.3011610370124851  0.2452201020691766  0.5326540321907719
  0.7547799064561294  0.3011614159739359  0.5326542429717501
  0.2452203761078081  0.6988389541744610  0.5326545760908750
  0.3191996316624974  0.7948456096223185  0.6197035107197932
  0.6808003130014260  0.2051545641385886  0.6197031547219991
  0.2051550744559078  0.3191998583226643  0.6197033885324498
  0.7948456175691540  0.6807993511623295  0.6197036338549332
  0.6807995866772567  0.7948456946014570  0.6197032514706566
  0.3191997652662382  0.2051547224445399  0.6197034778160555
  0.7948453045492329  0.3192003458751487  0.6197035556996947
  0.2051545234575319  0.6807992165239241  0.6197032771909309
  0.2906670048210209  0.7923687555857316  0.5654972035964171
  0.7093329304338142  0.2076314464013580  0.5654968729849696
  0.2076320783121857  0.2906672116958393  0.5654971791943475
  0.7923686551489852  0.7093322146577672  0.5654973469833720
  0.7093324151496363  0.7923693977077263  0.5654970211854059
  0.2906673848744880  0.2076306810249146  0.5654966640875240
  0.7923694018523374  0.2906677557213969  0.5654968629777953
  0.2076308496692250  0.7093321846727205  0.5654971463642634
  0.3384116034332088  0.8355407581890710  0.6188135133698011
  0.6615883406153693  0.1644594453618961  0.6188133975726101
  0.1644600156375471  0.3384119970586925  0.6188135946982969
  0.8355405203642480  0.6615873068929957  0.6188135568001188
  0.6615866756152087  0.8355406371854530  0.6188132135778828
  0.3384127752013516  0.1644603158054398  0.6188145081541426
  0.8355395026836022  0.3384135321211463  0.6188146244962140
  0.1644600711148145  0.6615859183629738  0.6188135583291919
  0.4077454836033962  0.8029119661836425  0.6189559744044355
  0.5922543187674056  0.1970882375599080  0.6189557066903670
  0.1970883922848112  0.4077462609817180  0.6189557581585956
  0.8029118420248280  0.5922527334218869  0.6189556140344762
  0.5922534692397661  0.8029103884437527  0.6189548118606117
  0.4077455660701030  0.1970902873898882  0.6189573387480557
  0.8029096410755422  0.4077470600787995  0.6189568132417462
  0.1970895618107333  0.5922526680001523  0.6189549056437715
  0.3833007290798897  0.8413663473287440  0.6198807453019217
  0.6166991633818830  0.1586338475913682  0.6198805201999207
  0.1586341022460809  0.3833012883881798  0.6198805261758165
  0.8413659125868851  0.6166977563200329  0.6198807451277146
  0.6166972996414314  0.8413654132282287  0.6198796954970123
  0.3833018680381844  0.1586353730446546  0.6198816848217434
  0.8413643945745622  0.3833030973013473  0.6198817534390595
  0.1586347456109658  0.6166965673697317  0.6198795052313705
  0.4359382665450109  0.7623407170037440  0.5332874595874117
  0.5640617919063466  0.2376595963549255  0.5332869084264781
  0.2376592219903343  0.4359390593774905  0.5332873760353458
  0.7623407168698141  0.5640597484364760  0.5332871309174221
  0.5640622207847645  0.7623382704498844  0.5332855895792676
  0.4359381658187139  0.2376619278474583  0.5332881764218482
  0.7623381898430154  0.4359391451069894  0.5332879114117254
  0.2376614408738901  0.5640612815587109  0.5332858921638320
  0.4354761597720261  0.8028019863135480  0.5649593115132381
  0.5645239868218918  0.1971981453274008  0.5649587117295506
  0.1971978117551141  0.4354769820482895  0.5649591944723816
  0.8028019629217347  0.5645215079947835  0.5649594327684119
  0.5645228180112780  0.8027992758482684  0.5649582058023920
  0.4354770608416848  0.1972012369969014  0.5649613062365463
  0.8027987309255404  0.4354787128525266  0.5649606652454802
  0.1972004445302301  0.5645217712645786  0.5649582282863821
  0.4359383438496682  0.7623407333677044  0.4667131123254185
  0.5640618169343131  0.2376596622149459  0.4667123019862000
  0.2376591108512605  0.4359389897480902  0.4667125718031604
  0.7623406893879939  0.5640597846777222  0.4667129159055700
  0.5640623876032028  0.7623381300461801  0.4667118871797926
  0.4359384298759930  0.2376616958650172  0.4667143860799907
  0.7623383003460780  0.4359393292844623  0.4667143636372625
  0.2376617791102329  0.5640614465457576  0.4667119856114950
  0.3713703296177132  0.7194863481811667  0.4669109374903964
  0.6286298651202552  0.2805139932753892  0.4669101723926630
  0.2805138261198784  0.3713707478414036  0.4669103706383042
  0.7194867172396111  0.6286284285093539  0.4669107044003959
  0.6286310790087690  0.7194851242376594  0.4669100086498891
  0.3713696423234145  0.2805145822916402  0.4669109413566297
  0.7194856690223491  0.3713701676984011  0.4669109244689195
  0.2805147947164683  0.6286306098275375  0.4669100572559715
  0.4065831565983464  0.7372281539489531  0.4337730608692102
  0.5934170473093975  0.2627721370504947  0.4337723498826900
  0.2627716940338753  0.4065835966848452  0.4337728507192292
  0.7372281832524238  0.5934153374483817  0.4337728671702910
  0.5934183462039535  0.7372260644433561  0.4337722895683271
  0.4065826880837322  0.2627734159253514  0.4337736964016963
  0.7372266479533113  0.4065832742162402  0.4337737500538205
  0.2627736547626272  0.5934176643825330  0.4337724647911065
  0.3011614947462618  0.7547793344538687  0.4673460647809624
  0.6988389182468666  0.2452207293125963  0.4673454435214753
  0.2452211545602848  0.3011613730017421  0.4673456643978386
  0.7547793998608177  0.6988378946300519  0.4673456215787479
  0.6988393841880779  0.7547795938428483  0.4673458397469847
  0.3011612315541395  0.2452200798307321  0.4673455511370364
  0.7547799865012811  0.3011615780634966  0.4673455096595841
  0.2452204234142670  0.6988391466738790  0.4673457490531263
  0.3341824531564778  0.7332743871303498  0.4354771961618948
  0.6658177766745098  0.2667256849134143  0.4354764249759101
  0.2667258185257066  0.3341826627533135  0.4354767038502141
  0.7332747159186791  0.6658165670343015  0.4354769973780189
  0.6658189561195970  0.7332738697171552  0.4354767949263501
  0.3341820962000580  0.2667257852276735  0.4354770495073637
  0.7332744254562741  0.3341824796555254  0.4354771449391047
  0.2667261723938544  0.6658185994627227  0.4354768032777230
  0.2906671608126405  0.7923686937286060  0.4345031497562422
  0.7093330806184061  0.2076313663878037  0.4345027695786249
  0.2076319644664683  0.2906671701559934  0.4345030428613328
  0.7923685862353720  0.7093322546151324  0.4345027388629755
  0.7093329243936292  0.7923691384940851  0.4345032744621217
  0.2906679789219950  0.2076304321554199  0.4345027483810272
  0.7923696334226756  0.2906683385030664  0.4345026936279821
  0.2076311357322112  0.7093326515813279  0.4345032108041254
  0.2896219343525578  0.8313619435284324  0.5332390462297278
  0.7103781305705202  0.1686380764526743  0.5332388613631522
  0.1686387241569586  0.2896221127596080  0.5332394020707296
  0.8313617037751710  0.7103772033035146  0.5332389205726169
  0.7103766149856924  0.8313626085066766  0.5332388870497871
  0.2896233697074440  0.1686372723755938  0.5332389303646577
  0.8313625955201759  0.2896238620521611  0.5332389450350340
  0.1686377263672490  0.7103763558028806  0.5332389726799447
  0.3199321627932696  0.8577173756636971  0.5654536763983196
  0.6800679297261102  0.1422828120235368  0.5654535795835679
  0.1422835046810775  0.3199324086411954  0.5654536249014701
  0.8577168318428778  0.6800668155015059  0.5654535565109703
  0.6800658101279757  0.8577172609507551  0.5654529923423511
  0.3199339387731576  0.1422827899075797  0.5654540000633750
  0.8577168302129723  0.3199345207776357  0.5654543051151490
  0.1422833486251119  0.6800654744733332  0.5654530266968927
  0.2896219621286390  0.8313619521991642  0.4667612398875570
  0.7103781752284571  0.1686380820495669  0.4667608623573151
  0.1686386916217628  0.2896220954242129  0.4667609880173182
  0.8313616867509479  0.7103772592313053  0.4667609762766963
  0.7103768732790464  0.8313625235699276  0.4667610342391429
  0.2896236782018926  0.1686372093720090  0.4667609298487607
  0.8313626511879342  0.2896241569280083  0.4667610796014535
  0.1686377885383127  0.7103766191925095  0.4667607987026721
  0.3956692129645922  0.8697796634947556  0.5619509971267432
  0.6043308266313009  0.1302204548002416  0.5619505063244776
  0.1302203435024666  0.3956699171033425  0.5619510878362841
  0.8697791785895737  0.6043295681902241  0.5619504959883953
  0.6043281029018372  0.8697782971570557  0.5619493068315398
  0.3956720651500846  0.1302219661026916  0.5619513566605540
  0.8697777737569872  0.3956728446874681  0.5619513466615035
  0.1302217937453019  0.6043272629453043  0.5619494292197258
  0.4244765662606896  0.8378579690895784  0.5314787991170125
  0.5755237132074122  0.1621423765427795  0.5314785889463434
  0.1621417376324139  0.4244778798766050  0.5314790617460027
  0.8378584397395974  0.5755204688138188  0.5314791181556772
  0.5755204769149532  0.8378560325984512  0.5314776124689676
  0.4244796485225801  0.1621445284975272  0.5314805714358379
  0.8378560962485357  0.4244817406853081  0.5314804361688937
  0.1621434816726321  0.5755188926225852  0.5314777353609242
  0.3531064252287311  0.8740371740707046  0.5318992677427580
  0.6468938249664200  0.1259632046410806  0.5318990919497473
  0.1259637043758272  0.3531064411006438  0.5318993522806112
  0.8740359139659930  0.6468923918994027  0.5318989968214374
  0.6468913435109759  0.8740357886173914  0.5318982522267484
  0.3531087146200588  0.1259644598579102  0.5318999023224269
  0.8740344171179335  0.3531098733495637  0.5318997375719814
  0.1259654999530143  0.6468908544134542  0.5318980602842115
  0.4354761834096438  0.8028020371836236  0.4350410927562161
  0.5645240780221188  0.1971981767276807  0.4350407998818756
  0.1971976508013147  0.4354769808451122  0.4350408725445707
  0.8028020716270159  0.5645216608413660  0.4350407469754305
  0.5645234880623516  0.8027987324875722  0.4350389304171566
  0.4354778596417599  0.1972006967554860  0.4350417400544924
  0.8027990460727045  0.4354790867939050  0.4350416984205857
  0.1972009307857126  0.5645223207796238  0.4350393505069678
  0.4244765390902768  0.8378580113071574  0.4685214701932821
  0.5755237316289947  0.1621424147958591  0.4685210282738883
  0.1621416770602994  0.4244778091009500  0.4685210943033571
  0.8378580713873450  0.5755209491780471  0.4685210753658425
  0.5755205549970230  0.8378557639212967  0.4685192955734854
  0.4244802097460468  0.1621437293530535  0.4685227018539445
  0.8378563207054482  0.4244818289308423  0.4685223109890583
  0.1621438061429734  0.5755190254017439  0.4685194176391843
  0.3899098704747054  0.7615381277230088  0.3797388234008208
  0.6100904523992168  0.2384620265452617  0.3797379780637875
  0.2384617929994628  0.3899101663591724  0.3797386237826712
  0.7615381141844545  0.6100887721878926  0.3797387302585721
  0.6100914801411510  0.7615360228591707  0.3797377445451950
  0.3899104565987787  0.2384628877645955  0.3797392805985942
  0.7615370900405276  0.3899111133229157  0.3797394079988294
  0.2384635203957606  0.6100905603365554  0.3797380276707615
  0.3451512142714172  0.7579596434275460  0.3808669735175759
  0.6548492582031760  0.2420405445204155  0.3808663455754916
  0.2420406673143626  0.3451512519895624  0.3808666864138937
  0.7579597136526871  0.6548477013053683  0.3808668108513647
  0.6548501533739832  0.7579584218054218  0.3808661679577092
  0.3451513960612201  0.2420407935843844  0.3808665909760667
  0.7579592516101212  0.3451520213778930  0.3808667519093185
  0.2420415652420089  0.6548496734861511  0.3808660831522575
  0.3191997536166079  0.7948455383264341  0.3802968310647059
  0.6808004906824643  0.2051544603887508  0.3802964486037744
  0.2051548566160025  0.3191997742870247  0.3802967683597824
  0.7948454954061233  0.6807994098655976  0.3802964277848775
  0.6808005326427865  0.7948451697453818  0.3802965253387059
  0.3192009574277367  0.2051539959383170  0.3802967034015670
  0.7948459153587930  0.3192014709400681  0.3802966506293777
  0.2051550586099579  0.6808001453184720  0.3802964441695241
  0.4077456332544459  0.8029119247288784  0.3810443194222213
  0.5922545554642342  0.1970881692047072  0.3810437866113071
  0.1970881520885835  0.4077462488536297  0.3810442481624343
  0.8029116811994089  0.5922527636205500  0.3810445091296509
  0.5922549083890015  0.8029096673360627  0.3810427218266498
  0.4077470937000732  0.1970896191162894  0.3810450736194169
  0.8029100939076244  0.4077479086381066  0.3810451322936785
  0.1970901910198229  0.5922535435212994  0.3810431168824244
  0.3199321694676101  0.8577173200476645  0.4345464756182464
  0.6800679538198373  0.1422827476302890  0.4345463081413380
  0.1422834413679488  0.3199323696629293  0.4345468478314785
  0.8577166727966096  0.6800670096182354  0.4345461004530122
  0.6800663051295374  0.8577170807103541  0.4345460243665401
  0.3199346041345913  0.1422825155127235  0.4345471468923623
  0.8577172192728370  0.3199353114430832  0.4345470696186949
  0.1422835102702136  0.6800659608904762  0.4345458687876905
  0.3531063943807460  0.8740371310108105  0.4681009114874089
  0.6468937983198133  0.1259631295328084  0.4681007753029175
  0.1259637697913160  0.3531064613504628  0.4681011150148949
  0.8740355497092233  0.6468922594403074  0.4681008600813273
  0.6468914404179690  0.8740356675787098  0.4680999983762418
  0.3531088991664862  0.1259642733533618  0.4681018359744161
  0.8740350768145162  0.3531098824991411  0.4681019560102422
  0.1259656178794191  0.6468909689797839  0.4681001857265672
  0.3956691467339608  0.8697797111152042  0.4380493170023149
  0.6043307579871391  0.1302204465909712  0.4380491438606153
  0.1302202067426386  0.3956698465300764  0.4380491265303805
  0.8697790577408918  0.6043295979356714  0.4380493872452236
  0.6043283900978021  0.8697782251818079  0.4380484503581847
  0.3956723845199906  0.1302219276107083  0.4380507546603660
  0.8697777057304629  0.3956731328895270  0.4380508022942892
  0.1302217409668856  0.6043274691684516  0.4380483751539666
  0.3384116983341052  0.8355406554658376  0.3811866927736219
  0.6615884783696211  0.1644593103467613  0.3811863686234360
  0.1644598169999369  0.3384118941024563  0.3811866995768332
  0.8355403651639625  0.6615873157617703  0.3811864238279827
  0.6615877031117995  0.8355400736820913  0.3811858570989181
  0.3384139611564791  0.1644591733372082  0.3811871509926817
  0.8355406347025975  0.3384145568782917  0.3811871634104932
  0.1644608318049814  0.6615869763366822  0.3811853513473804
  0.3833008321706031  0.8413663420997813  0.3801193692355475
  0.6166993311927673  0.1586337897632337  0.3801192938697386
  0.1586339175527718  0.3833012220530574  0.3801196718002451
  0.8413657749237003  0.6166977372636601  0.3801192010065146
  0.6166985010411995  0.8413646421513158  0.3801182311316047
  0.3833034147404623  0.1586344435626474  0.3801204827794092
  0.8413651316728172  0.3833042747068016  0.3801202159013338
  0.1586355267177993  0.6166975441321803  0.3801185880697153
 
  0.00000000E+00  0.00000000E+00  0.00000000E+00
  0.00000000E+00  0.00000000E+00  0.00000000E+00
  0.00000000E+00  0.00000000E+00  0.00000000E+00
  0.00000000E+00  0.00000000E+00  0.00000000E+00
  0.00000000E+00  0.00000000E+00  0.00000000E+00
  0.00000000E+00  0.00000000E+00  0.00000000E+00
  0.00000000E+00  0.00000000E+00  0.00000000E+00
  0.00000000E+00  0.00000000E+00  0.00000000E+00
  0.00000000E+00  0.00000000E+00  0.00000000E+00
  0.00000000E+00  0.00000000E+00  0.00000000E+00
  0.00000000E+00  0.00000000E+00  0.00000000E+00
  0.00000000E+00  0.00000000E+00  0.00000000E+00
  0.00000000E+00  0.00000000E+00  0.00000000E+00
  0.00000000E+00  0.00000000E+00  0.00000000E+00
  0.00000000E+00  0.00000000E+00  0.00000000E+00
  0.00000000E+00  0.00000000E+00  0.00000000E+00
  0.00000000E+00  0.00000000E+00  0.00000000E+00
  0.00000000E+00  0.00000000E+00  0.00000000E+00
  0.00000000E+00  0.00000000E+00  0.00000000E+00
  0.00000000E+00  0.00000000E+00  0.00000000E+00
  0.00000000E+00  0.00000000E+00  0.00000000E+00
  0.00000000E+00  0.00000000E+00  0.00000000E+00
  0.00000000E+00  0.00000000E+00  0.00000000E+00
  0.00000000E+00  0.00000000E+00  0.00000000E+00
  0.00000000E+00  0.00000000E+00  0.00000000E+00
  0.00000000E+00  0.00000000E+00  0.00000000E+00
  0.00000000E+00  0.00000000E+00  0.00000000E+00
  0.00000000E+00  0.00000000E+00  0.00000000E+00
  0.00000000E+00  0.00000000E+00  0.00000000E+00
  0.00000000E+00  0.00000000E+00  0.00000000E+00
  0.00000000E+00  0.00000000E+00  0.00000000E+00
  0.00000000E+00  0.00000000E+00  0.00000000E+00
  0.00000000E+00  0.00000000E+00  0.00000000E+00
  0.00000000E+00  0.00000000E+00  0.00000000E+00
  0.00000000E+00  0.00000000E+00  0.00000000E+00
  0.00000000E+00  0.00000000E+00  0.00000000E+00
  0.00000000E+00  0.00000000E+00  0.00000000E+00
  0.00000000E+00  0.00000000E+00  0.00000000E+00
  0.00000000E+00  0.00000000E+00  0.00000000E+00
  0.00000000E+00  0.00000000E+00  0.00000000E+00
  0.00000000E+00  0.00000000E+00  0.00000000E+00
  0.00000000E+00  0.00000000E+00  0.00000000E+00
  0.00000000E+00  0.00000000E+00  0.00000000E+00
  0.00000000E+00  0.00000000E+00  0.00000000E+00
  0.00000000E+00  0.00000000E+00  0.00000000E+00
  0.00000000E+00  0.00000000E+00  0.00000000E+00
  0.00000000E+00  0.00000000E+00  0.00000000E+00
  0.00000000E+00  0.00000000E+00  0.00000000E+00
  0.00000000E+00  0.00000000E+00  0.00000000E+00
  0.00000000E+00  0.00000000E+00  0.00000000E+00
  0.00000000E+00  0.00000000E+00  0.00000000E+00
  0.00000000E+00  0.00000000E+00  0.00000000E+00
  0.00000000E+00  0.00000000E+00  0.00000000E+00
  0.00000000E+00  0.00000000E+00  0.00000000E+00
  0.00000000E+00  0.00000000E+00  0.00000000E+00
  0.00000000E+00  0.00000000E+00  0.00000000E+00
  0.00000000E+00  0.00000000E+00  0.00000000E+00
  0.00000000E+00  0.00000000E+00  0.00000000E+00
  0.00000000E+00  0.00000000E+00  0.00000000E+00
  0.00000000E+00  0.00000000E+00  0.00000000E+00
  0.00000000E+00  0.00000000E+00  0.00000000E+00
  0.00000000E+00  0.00000000E+00  0.00000000E+00
  0.00000000E+00  0.00000000E+00  0.00000000E+00
  0.00000000E+00  0.00000000E+00  0.00000000E+00
  0.00000000E+00  0.00000000E+00  0.00000000E+00
  0.00000000E+00  0.00000000E+00  0.00000000E+00
  0.00000000E+00  0.00000000E+00  0.00000000E+00
  0.00000000E+00  0.00000000E+00  0.00000000E+00
  0.00000000E+00  0.00000000E+00  0.00000000E+00
  0.00000000E+00  0.00000000E+00  0.00000000E+00
  0.00000000E+00  0.00000000E+00  0.00000000E+00
  0.00000000E+00  0.00000000E+00  0.00000000E+00
  0.00000000E+00  0.00000000E+00  0.00000000E+00
  0.00000000E+00  0.00000000E+00  0.00000000E+00
  0.00000000E+00  0.00000000E+00  0.00000000E+00
  0.00000000E+00  0.00000000E+00  0.00000000E+00
  0.00000000E+00  0.00000000E+00  0.00000000E+00
  0.00000000E+00  0.00000000E+00  0.00000000E+00
  0.00000000E+00  0.00000000E+00  0.00000000E+00
  0.00000000E+00  0.00000000E+00  0.00000000E+00
  0.00000000E+00  0.00000000E+00  0.00000000E+00
  0.00000000E+00  0.00000000E+00  0.00000000E+00
  0.00000000E+00  0.00000000E+00  0.00000000E+00
  0.00000000E+00  0.00000000E+00  0.00000000E+00
  0.00000000E+00  0.00000000E+00  0.00000000E+00
  0.00000000E+00  0.00000000E+00  0.00000000E+00
  0.00000000E+00  0.00000000E+00  0.00000000E+00
  0.00000000E+00  0.00000000E+00  0.00000000E+00
  0.00000000E+00  0.00000000E+00  0.00000000E+00
  0.00000000E+00  0.00000000E+00  0.00000000E+00
  0.00000000E+00  0.00000000E+00  0.00000000E+00
  0.00000000E+00  0.00000000E+00  0.00000000E+00
  0.00000000E+00  0.00000000E+00  0.00000000E+00
  0.00000000E+00  0.00000000E+00  0.00000000E+00
  0.00000000E+00  0.00000000E+00  0.00000000E+00
  0.00000000E+00  0.00000000E+00  0.00000000E+00
  0.00000000E+00  0.00000000E+00  0.00000000E+00
  0.00000000E+00  0.00000000E+00  0.00000000E+00
  0.00000000E+00  0.00000000E+00  0.00000000E+00
  0.00000000E+00  0.00000000E+00  0.00000000E+00
  0.00000000E+00  0.00000000E+00  0.00000000E+00
  0.00000000E+00  0.00000000E+00  0.00000000E+00
  0.00000000E+00  0.00000000E+00  0.00000000E+00
  0.00000000E+00  0.00000000E+00  0.00000000E+00
  0.00000000E+00  0.00000000E+00  0.00000000E+00
  0.00000000E+00  0.00000000E+00  0.00000000E+00
  0.00000000E+00  0.00000000E+00  0.00000000E+00
  0.00000000E+00  0.00000000E+00  0.00000000E+00
  0.00000000E+00  0.00000000E+00  0.00000000E+00
  0.00000000E+00  0.00000000E+00  0.00000000E+00
  0.00000000E+00  0.00000000E+00  0.00000000E+00
  0.00000000E+00  0.00000000E+00  0.00000000E+00
  0.00000000E+00  0.00000000E+00  0.00000000E+00
  0.00000000E+00  0.00000000E+00  0.00000000E+00
  0.00000000E+00  0.00000000E+00  0.00000000E+00
  0.00000000E+00  0.00000000E+00  0.00000000E+00
  0.00000000E+00  0.00000000E+00  0.00000000E+00
  0.00000000E+00  0.00000000E+00  0.00000000E+00
  0.00000000E+00  0.00000000E+00  0.00000000E+00
  0.00000000E+00  0.00000000E+00  0.00000000E+00
  0.00000000E+00  0.00000000E+00  0.00000000E+00
  0.00000000E+00  0.00000000E+00  0.00000000E+00
  0.00000000E+00  0.00000000E+00  0.00000000E+00
  0.00000000E+00  0.00000000E+00  0.00000000E+00
  0.00000000E+00  0.00000000E+00  0.00000000E+00
  0.00000000E+00  0.00000000E+00  0.00000000E+00
  0.00000000E+00  0.00000000E+00  0.00000000E+00
  0.00000000E+00  0.00000000E+00  0.00000000E+00
  0.00000000E+00  0.00000000E+00  0.00000000E+00
  0.00000000E+00  0.00000000E+00  0.00000000E+00
  0.00000000E+00  0.00000000E+00  0.00000000E+00
  0.00000000E+00  0.00000000E+00  0.00000000E+00
  0.00000000E+00  0.00000000E+00  0.00000000E+00
  0.00000000E+00  0.00000000E+00  0.00000000E+00
  0.00000000E+00  0.00000000E+00  0.00000000E+00
  0.00000000E+00  0.00000000E+00  0.00000000E+00
  0.00000000E+00  0.00000000E+00  0.00000000E+00
  0.00000000E+00  0.00000000E+00  0.00000000E+00
  0.00000000E+00  0.00000000E+00  0.00000000E+00
  0.00000000E+00  0.00000000E+00  0.00000000E+00
  0.00000000E+00  0.00000000E+00  0.00000000E+00
  0.00000000E+00  0.00000000E+00  0.00000000E+00
  0.00000000E+00  0.00000000E+00  0.00000000E+00
  0.00000000E+00  0.00000000E+00  0.00000000E+00
  0.00000000E+00  0.00000000E+00  0.00000000E+00
  0.00000000E+00  0.00000000E+00  0.00000000E+00
  0.00000000E+00  0.00000000E+00  0.00000000E+00
  0.00000000E+00  0.00000000E+00  0.00000000E+00
  0.00000000E+00  0.00000000E+00  0.00000000E+00
  0.00000000E+00  0.00000000E+00  0.00000000E+00
  0.00000000E+00  0.00000000E+00  0.00000000E+00
  0.00000000E+00  0.00000000E+00  0.00000000E+00
  0.00000000E+00  0.00000000E+00  0.00000000E+00
  0.00000000E+00  0.00000000E+00  0.00000000E+00
  0.00000000E+00  0.00000000E+00  0.00000000E+00
  0.00000000E+00  0.00000000E+00  0.00000000E+00
  0.00000000E+00  0.00000000E+00  0.00000000E+00
  0.00000000E+00  0.00000000E+00  0.00000000E+00
  0.00000000E+00  0.00000000E+00  0.00000000E+00
  0.00000000E+00  0.00000000E+00  0.00000000E+00
  0.00000000E+00  0.00000000E+00  0.00000000E+00
  0.00000000E+00  0.00000000E+00  0.00000000E+00
  0.00000000E+00  0.00000000E+00  0.00000000E+00
  0.00000000E+00  0.00000000E+00  0.00000000E+00
  0.00000000E+00  0.00000000E+00  0.00000000E+00
  0.00000000E+00  0.00000000E+00  0.00000000E+00
  0.00000000E+00  0.00000000E+00  0.00000000E+00
  0.00000000E+00  0.00000000E+00  0.00000000E+00
  0.00000000E+00  0.00000000E+00  0.00000000E+00
  0.00000000E+00  0.00000000E+00  0.00000000E+00
  0.00000000E+00  0.00000000E+00  0.00000000E+00
  0.00000000E+00  0.00000000E+00  0.00000000E+00
  0.00000000E+00  0.00000000E+00  0.00000000E+00
  0.00000000E+00  0.00000000E+00  0.00000000E+00
  0.00000000E+00  0.00000000E+00  0.00000000E+00
  0.00000000E+00  0.00000000E+00  0.00000000E+00
  0.00000000E+00  0.00000000E+00  0.00000000E+00
  0.00000000E+00  0.00000000E+00  0.00000000E+00
  0.00000000E+00  0.00000000E+00  0.00000000E+00
  0.00000000E+00  0.00000000E+00  0.00000000E+00
  0.00000000E+00  0.00000000E+00  0.00000000E+00
  0.00000000E+00  0.00000000E+00  0.00000000E+00
  0.00000000E+00  0.00000000E+00  0.00000000E+00
  0.00000000E+00  0.00000000E+00  0.00000000E+00
  0.00000000E+00  0.00000000E+00  0.00000000E+00
  0.00000000E+00  0.00000000E+00  0.00000000E+00
  0.00000000E+00  0.00000000E+00  0.00000000E+00
  0.00000000E+00  0.00000000E+00  0.00000000E+00
  0.00000000E+00  0.00000000E+00  0.00000000E+00
  0.00000000E+00  0.00000000E+00  0.00000000E+00
  0.00000000E+00  0.00000000E+00  0.00000000E+00
  0.00000000E+00  0.00000000E+00  0.00000000E+00
  0.00000000E+00  0.00000000E+00  0.00000000E+00
  0.00000000E+00  0.00000000E+00  0.00000000E+00
  0.00000000E+00  0.00000000E+00  0.00000000E+00
  0.00000000E+00  0.00000000E+00  0.00000000E+00
  0.00000000E+00  0.00000000E+00  0.00000000E+00
  0.00000000E+00  0.00000000E+00  0.00000000E+00
  0.00000000E+00  0.00000000E+00  0.00000000E+00
  0.00000000E+00  0.00000000E+00  0.00000000E+00
  0.00000000E+00  0.00000000E+00  0.00000000E+00
  0.00000000E+00  0.00000000E+00  0.00000000E+00
  0.00000000E+00  0.00000000E+00  0.00000000E+00
  0.00000000E+00  0.00000000E+00  0.00000000E+00
  0.00000000E+00  0.00000000E+00  0.00000000E+00
  0.00000000E+00  0.00000000E+00  0.00000000E+00
  0.00000000E+00  0.00000000E+00  0.00000000E+00
  0.00000000E+00  0.00000000E+00  0.00000000E+00
  0.00000000E+00  0.00000000E+00  0.00000000E+00
  0.00000000E+00  0.00000000E+00  0.00000000E+00
  0.00000000E+00  0.00000000E+00  0.00000000E+00
  0.00000000E+00  0.00000000E+00  0.00000000E+00
  0.00000000E+00  0.00000000E+00  0.00000000E+00
  0.00000000E+00  0.00000000E+00  0.00000000E+00
  0.00000000E+00  0.00000000E+00  0.00000000E+00
  0.00000000E+00  0.00000000E+00  0.00000000E+00
  0.00000000E+00  0.00000000E+00  0.00000000E+00
  0.00000000E+00  0.00000000E+00  0.00000000E+00
  0.00000000E+00  0.00000000E+00  0.00000000E+00
  0.00000000E+00  0.00000000E+00  0.00000000E+00
  0.00000000E+00  0.00000000E+00  0.00000000E+00
  0.00000000E+00  0.00000000E+00  0.00000000E+00
  0.00000000E+00  0.00000000E+00  0.00000000E+00
  0.00000000E+00  0.00000000E+00  0.00000000E+00
  0.00000000E+00  0.00000000E+00  0.00000000E+00
  0.00000000E+00  0.00000000E+00  0.00000000E+00
  0.00000000E+00  0.00000000E+00  0.00000000E+00
  0.00000000E+00  0.00000000E+00  0.00000000E+00
  0.00000000E+00  0.00000000E+00  0.00000000E+00
  0.00000000E+00  0.00000000E+00  0.00000000E+00
  0.00000000E+00  0.00000000E+00  0.00000000E+00
  0.00000000E+00  0.00000000E+00  0.00000000E+00
  0.00000000E+00  0.00000000E+00  0.00000000E+00
  0.00000000E+00  0.00000000E+00  0.00000000E+00
  0.00000000E+00  0.00000000E+00  0.00000000E+00
  0.00000000E+00  0.00000000E+00  0.00000000E+00
  0.00000000E+00  0.00000000E+00  0.00000000E+00
  0.00000000E+00  0.00000000E+00  0.00000000E+00
  0.00000000E+00  0.00000000E+00  0.00000000E+00
  0.00000000E+00  0.00000000E+00  0.00000000E+00
  0.00000000E+00  0.00000000E+00  0.00000000E+00
  0.00000000E+00  0.00000000E+00  0.00000000E+00
  0.00000000E+00  0.00000000E+00  0.00000000E+00
  0.00000000E+00  0.00000000E+00  0.00000000E+00
  0.00000000E+00  0.00000000E+00  0.00000000E+00
  0.00000000E+00  0.00000000E+00  0.00000000E+00
  0.00000000E+00  0.00000000E+00  0.00000000E+00
  0.00000000E+00  0.00000000E+00  0.00000000E+00
  0.00000000E+00  0.00000000E+00  0.00000000E+00
  0.00000000E+00  0.00000000E+00  0.00000000E+00
  0.00000000E+00  0.00000000E+00  0.00000000E+00
  0.00000000E+00  0.00000000E+00  0.00000000E+00
  0.00000000E+00  0.00000000E+00  0.00000000E+00
  0.00000000E+00  0.00000000E+00  0.00000000E+00
  0.00000000E+00  0.00000000E+00  0.00000000E+00
  0.00000000E+00  0.00000000E+00  0.00000000E+00
  0.00000000E+00  0.00000000E+00  0.00000000E+00
  0.00000000E+00  0.00000000E+00  0.00000000E+00
  0.00000000E+00  0.00000000E+00  0.00000000E+00
  0.00000000E+00  0.00000000E+00  0.00000000E+00
  0.00000000E+00  0.00000000E+00  0.00000000E+00
  0.00000000E+00  0.00000000E+00  0.00000000E+00
  0.00000000E+00  0.00000000E+00  0.00000000E+00
  0.00000000E+00  0.00000000E+00  0.00000000E+00
  0.00000000E+00  0.00000000E+00  0.00000000E+00
  0.00000000E+00  0.00000000E+00  0.00000000E+00
  0.00000000E+00  0.00000000E+00  0.00000000E+00
  0.00000000E+00  0.00000000E+00  0.00000000E+00
  0.00000000E+00  0.00000000E+00  0.00000000E+00
  0.00000000E+00  0.00000000E+00  0.00000000E+00
  0.00000000E+00  0.00000000E+00  0.00000000E+00
  0.00000000E+00  0.00000000E+00  0.00000000E+00
  0.00000000E+00  0.00000000E+00  0.00000000E+00
  0.00000000E+00  0.00000000E+00  0.00000000E+00
  0.00000000E+00  0.00000000E+00  0.00000000E+00
  0.00000000E+00  0.00000000E+00  0.00000000E+00
  0.00000000E+00  0.00000000E+00  0.00000000E+00
  0.00000000E+00  0.00000000E+00  0.00000000E+00
  0.00000000E+00  0.00000000E+00  0.00000000E+00
  0.00000000E+00  0.00000000E+00  0.00000000E+00
  0.00000000E+00  0.00000000E+00  0.00000000E+00
  0.00000000E+00  0.00000000E+00  0.00000000E+00
  0.00000000E+00  0.00000000E+00  0.00000000E+00
  0.00000000E+00  0.00000000E+00  0.00000000E+00
  0.00000000E+00  0.00000000E+00  0.00000000E+00
  0.00000000E+00  0.00000000E+00  0.00000000E+00
  0.00000000E+00  0.00000000E+00  0.00000000E+00
  0.00000000E+00  0.00000000E+00  0.00000000E+00
  0.00000000E+00  0.00000000E+00  0.00000000E+00
  0.00000000E+00  0.00000000E+00  0.00000000E+00
  0.00000000E+00  0.00000000E+00  0.00000000E+00
  0.00000000E+00  0.00000000E+00  0.00000000E+00
  0.00000000E+00  0.00000000E+00  0.00000000E+00
  0.00000000E+00  0.00000000E+00  0.00000000E+00
  0.00000000E+00  0.00000000E+00  0.00000000E+00
  0.00000000E+00  0.00000000E+00  0.00000000E+00
  0.00000000E+00  0.00000000E+00  0.00000000E+00
  0.00000000E+00  0.00000000E+00  0.00000000E+00
  0.00000000E+00  0.00000000E+00  0.00000000E+00
  0.00000000E+00  0.00000000E+00  0.00000000E+00
  0.00000000E+00  0.00000000E+00  0.00000000E+00
  0.00000000E+00  0.00000000E+00  0.00000000E+00
  0.00000000E+00  0.00000000E+00  0.00000000E+00
  0.00000000E+00  0.00000000E+00  0.00000000E+00
  0.00000000E+00  0.00000000E+00  0.00000000E+00
  0.00000000E+00  0.00000000E+00  0.00000000E+00
  0.00000000E+00  0.00000000E+00  0.00000000E+00
  0.00000000E+00  0.00000000E+00  0.00000000E+00
  0.00000000E+00  0.00000000E+00  0.00000000E+00
  0.00000000E+00  0.00000000E+00  0.00000000E+00
  0.00000000E+00  0.00000000E+00  0.00000000E+00
  0.00000000E+00  0.00000000E+00  0.00000000E+00
  0.00000000E+00  0.00000000E+00  0.00000000E+00
  0.00000000E+00  0.00000000E+00  0.00000000E+00
  0.00000000E+00  0.00000000E+00  0.00000000E+00
  0.00000000E+00  0.00000000E+00  0.00000000E+00
  0.00000000E+00  0.00000000E+00  0.00000000E+00
  0.00000000E+00  0.00000000E+00  0.00000000E+00
  0.00000000E+00  0.00000000E+00  0.00000000E+00
  0.00000000E+00  0.00000000E+00  0.00000000E+00
  0.00000000E+00  0.00000000E+00  0.00000000E+00
  0.00000000E+00  0.00000000E+00  0.00000000E+00
  0.00000000E+00  0.00000000E+00  0.00000000E+00
  0.00000000E+00  0.00000000E+00  0.00000000E+00
  0.00000000E+00  0.00000000E+00  0.00000000E+00
  0.00000000E+00  0.00000000E+00  0.00000000E+00
  0.00000000E+00  0.00000000E+00  0.00000000E+00
  0.00000000E+00  0.00000000E+00  0.00000000E+00
  0.00000000E+00  0.00000000E+00  0.00000000E+00
  0.00000000E+00  0.00000000E+00  0.00000000E+00
  0.00000000E+00  0.00000000E+00  0.00000000E+00
  0.00000000E+00  0.00000000E+00  0.00000000E+00
  0.00000000E+00  0.00000000E+00  0.00000000E+00
  0.00000000E+00  0.00000000E+00  0.00000000E+00
  0.00000000E+00  0.00000000E+00  0.00000000E+00
  0.00000000E+00  0.00000000E+00  0.00000000E+00
  0.00000000E+00  0.00000000E+00  0.00000000E+00
  0.00000000E+00  0.00000000E+00  0.00000000E+00
  0.00000000E+00  0.00000000E+00  0.00000000E+00
  0.00000000E+00  0.00000000E+00  0.00000000E+00
  0.00000000E+00  0.00000000E+00  0.00000000E+00
  0.00000000E+00  0.00000000E+00  0.00000000E+00
  0.00000000E+00  0.00000000E+00  0.00000000E+00
  0.00000000E+00  0.00000000E+00  0.00000000E+00
  0.00000000E+00  0.00000000E+00  0.00000000E+00
  0.00000000E+00  0.00000000E+00  0.00000000E+00
  0.00000000E+00  0.00000000E+00  0.00000000E+00
  0.00000000E+00  0.00000000E+00  0.00000000E+00
  0.00000000E+00  0.00000000E+00  0.00000000E+00
  0.00000000E+00  0.00000000E+00  0.00000000E+00
  0.00000000E+00  0.00000000E+00  0.00000000E+00
  0.00000000E+00  0.00000000E+00  0.00000000E+00
  0.00000000E+00  0.00000000E+00  0.00000000E+00
  0.00000000E+00  0.00000000E+00  0.00000000E+00
  0.00000000E+00  0.00000000E+00  0.00000000E+00
  0.00000000E+00  0.00000000E+00  0.00000000E+00
  0.00000000E+00  0.00000000E+00  0.00000000E+00
  0.00000000E+00  0.00000000E+00  0.00000000E+00
  0.00000000E+00  0.00000000E+00  0.00000000E+00
  0.00000000E+00  0.00000000E+00  0.00000000E+00
  0.00000000E+00  0.00000000E+00  0.00000000E+00
  0.00000000E+00  0.00000000E+00  0.00000000E+00
  0.00000000E+00  0.00000000E+00  0.00000000E+00
  0.00000000E+00  0.00000000E+00  0.00000000E+00
  0.00000000E+00  0.00000000E+00  0.00000000E+00
  0.00000000E+00  0.00000000E+00  0.00000000E+00
  0.00000000E+00  0.00000000E+00  0.00000000E+00
  0.00000000E+00  0.00000000E+00  0.00000000E+00
  0.00000000E+00  0.00000000E+00  0.00000000E+00
  0.00000000E+00  0.00000000E+00  0.00000000E+00
  0.00000000E+00  0.00000000E+00  0.00000000E+00
  0.00000000E+00  0.00000000E+00  0.00000000E+00
  0.00000000E+00  0.00000000E+00  0.00000000E+00
  0.00000000E+00  0.00000000E+00  0.00000000E+00
  0.00000000E+00  0.00000000E+00  0.00000000E+00
  0.00000000E+00  0.00000000E+00  0.00000000E+00
  0.00000000E+00  0.00000000E+00  0.00000000E+00
  0.00000000E+00  0.00000000E+00  0.00000000E+00
  0.00000000E+00  0.00000000E+00  0.00000000E+00
  0.00000000E+00  0.00000000E+00  0.00000000E+00
  0.00000000E+00  0.00000000E+00  0.00000000E+00
  0.00000000E+00  0.00000000E+00  0.00000000E+00
  0.00000000E+00  0.00000000E+00  0.00000000E+00
  0.00000000E+00  0.00000000E+00  0.00000000E+00
  0.00000000E+00  0.00000000E+00  0.00000000E+00
  0.00000000E+00  0.00000000E+00  0.00000000E+00
  0.00000000E+00  0.00000000E+00  0.00000000E+00
  0.00000000E+00  0.00000000E+00  0.00000000E+00
  0.00000000E+00  0.00000000E+00  0.00000000E+00
  0.00000000E+00  0.00000000E+00  0.00000000E+00
  0.00000000E+00  0.00000000E+00  0.00000000E+00
  0.00000000E+00  0.00000000E+00  0.00000000E+00
  0.00000000E+00  0.00000000E+00  0.00000000E+00
  0.00000000E+00  0.00000000E+00  0.00000000E+00
  0.00000000E+00  0.00000000E+00  0.00000000E+00
  0.00000000E+00  0.00000000E+00  0.00000000E+00
  0.00000000E+00  0.00000000E+00  0.00000000E+00
  0.00000000E+00  0.00000000E+00  0.00000000E+00
  0.00000000E+00  0.00000000E+00  0.00000000E+00
  0.00000000E+00  0.00000000E+00  0.00000000E+00
  0.00000000E+00  0.00000000E+00  0.00000000E+00
  0.00000000E+00  0.00000000E+00  0.00000000E+00
  0.00000000E+00  0.00000000E+00  0.00000000E+00
  0.00000000E+00  0.00000000E+00  0.00000000E+00
  0.00000000E+00  0.00000000E+00  0.00000000E+00
  0.00000000E+00  0.00000000E+00  0.00000000E+00
  0.00000000E+00  0.00000000E+00  0.00000000E+00
  0.00000000E+00  0.00000000E+00  0.00000000E+00
