Generated by VASPKIT code               
   1.00000000000000     
    27.8653598658949271   -0.2426867760951342    0.0000000000000000
   -14.1428527459828057   24.0107752121980198    0.0000000000000000
     0.0000000000000013    0.0000000000000022   21.9435677089795327
  C             
   336
Direct
  0.2330537348606198  0.6028870554864211  0.3698251907531355
  0.6028796346840116  0.2330464198469015  0.3698439667925983
  0.2108072868029212  0.6277287452941039  0.4109238618052799
  0.6277207103186888  0.2108027225256200  0.4109408769455005
  0.1905525398859333  0.5935334197257592  0.4653544153029399
  0.5935364853291666  0.1905541796909105  0.4653750519957067
  0.2264918820660792  0.5532812221579454  0.3987829391425541
  0.5532758015844776  0.2264882962192722  0.3988027104404276
  0.2002976506904641  0.5476437307794250  0.4583534832857882
  0.5476450944850190  0.2002959079758772  0.4583721866904573
  0.2682631433302681  0.5400091002027197  0.3927744387672738
  0.5400054701406595  0.2682591320676903  0.3927918945622264
  0.3173929249429531  0.5750701172431499  0.3557931035611576
  0.5750627036276416  0.3173876738813243  0.3558070917608681
  0.2808739796786011  0.6374097645906146  0.3348834864921922
  0.6374012708108276  0.2808650376405419  0.3348945134186361
  0.3237732841117150  0.6230179460866616  0.3276623290931609
  0.6230104658147625  0.3237655502368283  0.3276723716786477
  0.3083909632265497  0.6977951333631137  0.3402202595942417
  0.6977868478874524  0.3083801952291397  0.3402265445297635
  0.2374664774790843  0.6859106959042459  0.4156783438394166
  0.6859078550137790  0.2374619881802650  0.4156903338643930
  0.2868694492825260  0.7217773464228250  0.3796304409762979
  0.7217697179058503  0.2868595248510759  0.3796316769717921
  0.2446786377294304  0.7112393940080902  0.4753410605279126
  0.7112398998605810  0.2446794152056358  0.4753507647125594
  0.1963608199045686  0.6180860061302894  0.5228704045459800
  0.6180915816578805  0.1963654653796628  0.5228881911925658
  0.2240615339892690  0.6782981969562466  0.5278888909732528
  0.6783068191158501  0.2240691269863524  0.5278974328348356
  0.2128176582937316  0.5979928317332138  0.5747205586449134
  0.5979996456493920  0.2128240490503450  0.5747379749358357
  0.2159660209800539  0.5286151612883321  0.5082538438778657
  0.5286186437204270  0.2159680300751833  0.5082741485938064
  0.2233284561250908  0.5542256734752987  0.5665652043591013
  0.5542310910602380  0.2233332932997495  0.5665854291478682
  0.2854174680452063  0.5201317383808122  0.4441986289739221
  0.5201368340605654  0.2854184209787596  0.4442141560615096
  0.2528358796910258  0.5029046894741822  0.5030584536422114
  0.5029081283285900  0.2528389146620939  0.5030755685479814
  0.3644219232433182  0.5767761972476146  0.3860172116588622
  0.5767751854150777  0.3644189449665565  0.3860271606085172
  0.3432794647969223  0.5423243665240678  0.4411287185920668
  0.5423260478045878  0.3432826660049748  0.4411420460345974
  0.4160103379846443  0.6260703110346337  0.3870640932392704
  0.6260652172037797  0.4160037396297346  0.3870651348452518
  0.3778350269879250  0.6745750800931315  0.3286807561203559
  0.6745649853972321  0.3778249389865031  0.3286814692993542
  0.3682981173211314  0.7207704618343229  0.3366202227086974
  0.7207630765386428  0.3682878799263331  0.3366163659370776
  0.4230444425950172  0.6758500230260138  0.3577929519107463
  0.6758452603678217  0.4230387596506900  0.3577886962942165
  0.4048208656893266  0.7665835037800520  0.3731600188158007
  0.7665815913816417  0.4048128371649821  0.3731496146999660
  0.3247920931470096  0.7689168019439738  0.4173984281701195
  0.7689140156740060  0.3247858131475799  0.4173961670051856
  0.2985854287684510  0.7623468296570749  0.4763564649962528
  0.7623503387930949  0.2985879087424401  0.4763549627548818
  0.3825530944045220  0.7912968629220374  0.4142327496921299
  0.7912993294283313  0.3825507653249860  0.4142204353260153
  0.3304838670979091  0.7793896559766375  0.5297681542237505
  0.7793962247577066  0.3304872971374413  0.5297604314174192
  0.2572909238850503  0.6954769514306715  0.5832158497658713
  0.6954870501610656  0.2573003691580352  0.5832225265582089
  0.2504029105291318  0.6455326924668419  0.6123317791280585
  0.6455463217525217  0.2504147485726105  0.6123442460845947
  0.3095266683414155  0.7451304788229316  0.5841383180092375
  0.7451431013391683  0.3095372961986950  0.5841360606521437
  0.2958870328054501  0.6471091462493006  0.6415416298314548
  0.6471261675307237  0.2959013144072040  0.6415463730246443
  0.2702318440821391  0.5555107896909028  0.5970127544351804
  0.5555205291840332  0.2702425596801940  0.5970272764650932
  0.2920039505434991  0.5299380962905854  0.5576983303903273
  0.5299453730396618  0.2920112887968941  0.5577130915696119
  0.3057141291643131  0.6009454731695701  0.6344723433130212
  0.6009634654973294  0.3057283929655472  0.6344775347189137
  0.3769012356216848  0.5584398079247398  0.4948541785235268
  0.5584452927827644  0.3769047252525927  0.4948632969612015
  0.3492919819972690  0.5525139403816470  0.5538976280763873
  0.5525250845261599  0.3493021551273950  0.5539096099109142
  0.4492020537128192  0.6434368924427543  0.4431679659895029
  0.6434408365783950  0.4492023639470742  0.4431636497441327
  0.4294146906047588  0.6085888705828131  0.4957959724236122
  0.6085927153344938  0.4294174387217273  0.4957992449344669
  0.4600588231441639  0.7229136575495935  0.3964141937755673
  0.7229137703657915  0.4600577445106432  0.3964027171932377
  0.4516791517023903  0.7678742741772422  0.4031582191695664
  0.7678775403501354  0.4516772789948407  0.4031467181154925
  0.4759769961101243  0.7018249163046449  0.4477554321693505
  0.7018269516958053  0.4759764827636622  0.4477458899248708
  0.4155694670879030  0.8077938364045966  0.4696562631781169
  0.8078002502957007  0.4155697104530051  0.4696426275394195
  0.3902437702160171  0.8026965315332313  0.5265044263921931
  0.8027034726889609  0.3902477072384587  0.5264942236942302
  0.4582766466010870  0.7934220684332874  0.4633589783046527
  0.7934297396393707  0.4582790992820075  0.4633433160874537
  0.3566858085460364  0.7467482915231106  0.6142964316077060
  0.7467629272263684  0.3566977533488407  0.6142903201035999
  0.3499417425708214  0.6986040784785222  0.6425370130816168
  0.6986202555228307  0.3499586862153904  0.6425354935038905
  0.4063545379907185  0.7823043466560985  0.5783444738396654
  0.7823160792662621  0.4063638210351347  0.5783311692340894
  0.3653721770853665  0.6237998017379934  0.6312276659298881
  0.6238191435249210  0.3653877507397222  0.6312303889432443
  0.3866858005864064  0.6001427139582958  0.5911255357546102
  0.6001565706540722  0.3866965050204999  0.5911298685352612
  0.4362823717791796  0.6354844709869444  0.5555086200181579
  0.6354977424979801  0.4362931348694726  0.5555065833274151
  0.3927867937025907  0.6839463244861032  0.6360411306865627
  0.6839637699364428  0.3927998905538803  0.6360377484586983
  0.4947179361850108  0.7330448689415544  0.5077258712303651
  0.7330518125264401  0.4947222471415719  0.5077122246158431
  0.4741560251840140  0.7743921503615739  0.5133456743237124
  0.7744010365141879  0.4741617658644433  0.5133321409246598
  0.4471250880888702  0.7674135327222427  0.5708554450029483
  0.7674258764381779  0.4471318284389136  0.5708409388236337
  0.4632043129883187  0.6931326794310437  0.5608317909589527
  0.6931432206055930  0.4632111680043290  0.5608241486791765
  0.4402124812148317  0.7174910607421816  0.6001525492362878
  0.7175047499646287  0.4402233997074016  0.6001430341072003
  0.5855257934790440  0.7538910717888498  0.5696585421024498
  0.2471365632609568  0.8325579477762449  0.5472660879007368
  0.1755051846246725  0.4157188461082398  0.5629008740319179
  0.7538950525467186  0.5855273992268021  0.5696499358763836
  0.8325549224850555  0.2471334094237569  0.5472801514658375
  0.4157191425833422  0.1755076634835163  0.5629079834410009
  0.5608668801879526  0.7632278861098828  0.5122647611653102
  0.2297910523294516  0.8052151780825291  0.4900466016375992
  0.2134249798657062  0.4374801725396171  0.5074079426498899
  0.7632345538197094  0.5608704978391876  0.5122551093768559
  0.8052132382754885  0.2297883998022690  0.4900612488651548
  0.4374833467028418  0.2134304864628811  0.5074202912731544
  0.5941537814949696  0.8282314137605353  0.5103701040917530
  0.1690902610461859  0.7670586470543060  0.4916500489153625
  0.2424776450495352  0.4031253894439255  0.5119024620670465
  0.8282367553927283  0.5941568814296343  0.5103587042358185
  0.7670576462758463  0.1690880314956060  0.4916625489438597
  0.4031318048057675  0.2424858316726050  0.5119135061636941
  0.6189477175399194  0.8060637551923029  0.6010130862799535
  0.1962100166329761  0.8112645528991977  0.5850364941510632
  0.1902309448461569  0.3824856825707157  0.5993837939585032
  0.8060667998946783  0.6189474645882431  0.6010035546464324
  0.8112599874008365  0.1962022084356113  0.5850521960058359
  0.3824845381659384  0.1902322396094356  0.5993872775967471
  0.6231322790431001  0.8519015191087977  0.5655204596684985
  0.1485830123758325  0.7705020565423705  0.5503288540829685
  0.2326108196953447  0.3759088501662569  0.5690051793661234
  0.8519042535803845  0.6231331676605960  0.5655097464914013
  0.7704998984467636  0.1485790097444733  0.5503390541671412
  0.3759099705798585  0.2326149039992322  0.5690141991694067
  0.6687720050331005  0.8103724621947754  0.6266054761571146
  0.1953678669130672  0.8575167405889523  0.6122285677338206
  0.1411671918353125  0.3342656829086390  0.6244735845146230
  0.8103723274049023  0.6687687022930623  0.6266006455625924
  0.8575124585540072  0.1953611097334785  0.6122407218425709
  0.3342639546247928  0.1411661360387797  0.6244752762744451
  0.6154938330173140  0.7259701520305440  0.5695011564170918
  0.2769739265605605  0.8917641862258936  0.5488581112075215
  0.1168761245153016  0.3872515920619595  0.5590552102533149
  0.7259729765574421  0.6154924679305722  0.5694944989701667
  0.8917598815054354  0.2769670704127194  0.5488736462340510
  0.3872528224357528  0.1168791716123417  0.5590594441826765
  0.6679128516224989  0.7617380456402132  0.6037618336059584
  0.2437357037995211  0.9069595533474588  0.5881054964927848
  0.0956298196007779  0.3358881081129512  0.5961514627405428
  0.7617388230449252  0.6679093769311290  0.6037592697187687
  0.9069565411922894  0.2437304514453456  0.5881177143762112
  0.3358874988505951  0.0956313641380735  0.5961511890385850
  0.6297068729787666  0.7076094613694111  0.5156481051066178
  0.2929096667717567  0.9254075867752439  0.4955306232329866
  0.0864667818298057  0.3721776998283499  0.5032718205600194
  0.7076114907930419  0.6297054078510392  0.5156404237810633
  0.9254052404417097  0.2929048512580327  0.4955442106664739
  0.3721855655218106  0.0864751385534259  0.5032713513844120
  0.5859070118799041  0.7513685255473947  0.4567477546603942
  0.2437338393997709  0.8369071312445245  0.4354869734206323
  0.1782823597405370  0.4118309291464240  0.4504924079009540
  0.7513723004129450  0.5859109488906934  0.4567393145731007
  0.8369020328257434  0.2437332163852213  0.4354985992170421
  0.4118414847425648  0.1782925551023561  0.4505022800993511
  0.6155292453687299  0.7233833639600716  0.4598964421687919
  0.2736276808277278  0.8960307383789574  0.4395097476511086
  0.1197259017954660  0.3839031446927952  0.4498995043760908
  0.7233897144511927  0.6155309011280845  0.4598926640071024
  0.8960277044922332  0.2736276041048953  0.4395220583039702
  0.3839098055133706  0.1197369959503639  0.4499019889148209
  0.6229978932587427  0.8491645713989779  0.4544973266306753
  0.1451054124716269  0.7748662673878580  0.4376310496580207
  0.2355954913329378  0.3725417224301357  0.4578195397195653
  0.8491697489661647  0.6230039048158884  0.4544896339749288
  0.7748652483197154  0.1451034796270086  0.4376417430412721
  0.3725478542851638  0.2356075365886355  0.4578283033916822
  0.6188422893503890  0.8018300048896605  0.4223679145939063
  0.1906106419336323  0.8183017764070234  0.4026830406922028
  0.1950213580268230  0.3769922145192603  0.4208328606103344
  0.8018332216177101  0.6188476922772539  0.4223596496233213
  0.8183000611979767  0.1906100527636136  0.4026917293307576
  0.3770035990107656  0.1950345794848593  0.4208422828421985
  0.6752739394371027  0.9022289193283090  0.4533204143981305
  0.0928395091165735  0.7735557162949701  0.4425863564544851
  0.2327773574752143  0.3195034213086343  0.4614253110246609
  0.9022337800606152  0.6752798545131998  0.4533128050205482
  0.7735522177845879  0.0928373317420778  0.4425935453637626
  0.3195091724265705  0.2327876690093997  0.4614323535635824
  0.6754654554035181  0.9049414314563835  0.5643076228575581
  0.0963184146936168  0.7692851890222332  0.5538121023486980
  0.2298033124199416  0.3228221332839674  0.5726182706992905
  0.9049427564643877  0.6754676192980146  0.5643005667509754
  0.7692822532594473  0.0963132453738311  0.5538215786715681
  0.3228248867485705  0.2298081670424003  0.5726253670391764
  0.6971762350789631  0.9329312080601867  0.5080823111513849
  0.0654706194923389  0.7635838890091574  0.4999170296912115
  0.2368678982016207  0.2989609239279180  0.5190132642314479
  0.9329338423174338  0.6971819061289884  0.5080772361508916
  0.7635832090138023  0.0654693437046146  0.4999228663234389
  0.2989639495648498  0.2368754506498079  0.5190225844145048
  0.7202160966317691  0.8623353488079497  0.6254040883857730
  0.1439843218460189  0.8568344933028990  0.6167312756683949
  0.1385449076151644  0.2820865757717032  0.6283180565157884
  0.8623350901891749  0.7202142964251909  0.6253969140882714
  0.8568320308239108  0.1439743163863848  0.6167408578034844
  0.2820832925045271  0.1385469186323824  0.6283162074545791
  0.7226261146746191  0.9108791660072580  0.5986192616580425
  0.0936033214034884  0.8104414895167275  0.5915142028416271
  0.1849057123644282  0.2773624884639062  0.6068151003055149
  0.9108808923238264  0.7226304802609980  0.5986130407176093
  0.8104405550548789  0.0935954061755881  0.5915226855314542
  0.2773589490246681  0.1849050988718735  0.6068185544792865
  0.7687962681863000  0.8636728497881589  0.6014820282560912
  0.1426585764021935  0.9049235345891313  0.5961874815653692
  0.0904689440433434  0.2335121869528607  0.6035054784928391
  0.8636712568748268  0.7687967066767507  0.6014787475515491
  0.9049194772276368  0.1426510531991939  0.5961940757770141
  0.2335114340619492  0.0904711216485963  0.6035020795291040
  0.7130500245597071  0.7665387119823134  0.5711183756221029
  0.2376878378927055  0.9476243673723331  0.5583680057526190
  0.0551813220195062  0.2904584276593088  0.5629519789466185
  0.7665375466914157  0.7130482484281691  0.5711154567469333
  0.9476205445844321  0.2376808797464592  0.5583770024995398
  0.2904574851541655  0.0551830463644768  0.5629493033498892
  0.6935275371731709  0.7268305285273692  0.5159824568748751
  0.2746142190421537  0.9701430256618425  0.5011060861060898
  0.0385025191444896  0.3084662896341840  0.5043056178384510
  0.7268305998544162  0.6935262312634797  0.5159813953110887
  0.9701422360480262  0.2746112626131485  0.5011159854473072
  0.3084702317782379  0.0385109965799058  0.5043021981617131
  0.7643527420464320  0.8181454239277445  0.5700325393243586
  0.1866434547824543  0.9466740296155884  0.5625222390442375
  0.0528008015407794  0.2387429592334943  0.5667104710916102
  0.8181417583887126  0.7643496246074514  0.5700279434809040
  0.9466718675469590  0.1866376201693515  0.5625282809160539
  0.2387438042687202  0.0528037714580710  0.5667034541266444
  0.6676042336528608  0.7574819367070481  0.4246460936305237
  0.2381672124861578  0.9138690175977269  0.4088716874113369
  0.1004014513227189  0.3305487855518857  0.4171777665094816
  0.7574862146231226  0.6676084031806050  0.4246402681154341
  0.9138675096063610  0.2381687657827756  0.4088796262746399
  0.3305571060165617  0.1004129890848419  0.4171775466936569
  0.6683919090401178  0.8048611697927454  0.3979090798142584
  0.1883004218629529  0.8663077329083630  0.3841372835447666
  0.1473697763724426  0.3274348885781660  0.3956586959760973
  0.8048639318193146  0.6683990927089094  0.3979033168086110
  0.8663053292721914  0.1882998779255396  0.3841430548468839
  0.3274461573179906  0.1473843089722968  0.3956620642857344
  0.7125370259553581  0.7642438389679124  0.4589548900470239
  0.2341778837380139  0.9518130096232750  0.4465034184429120
  0.0584353868233402  0.2872134095424401  0.4511830559679331
  0.7642434397551506  0.7125415807944228  0.4589527153290102
  0.9518073561658099  0.2341758594781989  0.4465105911630000
  0.2872214903336918  0.0584449762676730  0.4511761364520540
  0.7222104524333350  0.9065147426692342  0.4200722693659082
  0.0879910474947055  0.8172565332312556  0.4129842396918565
  0.1897220980325248  0.2722345172970769  0.4276943125364335
  0.9065172152049374  0.7222167535012739  0.4200672936554768
  0.8172515455957154  0.0879883272920191  0.4129877964957686
  0.2722438786432093  0.1897316967672114  0.4276993935116736
  0.7197746521872156  0.8568593343080624  0.3968988259341760
  0.1368279039539468  0.8655628255573251  0.3879562736627943
  0.1447632067548762  0.2752920431582478  0.3989847511138628
  0.8568582934255967  0.7197790814745566  0.3968931119727933
  0.8655574499169524  0.1368256069163722  0.3879586486334424
  0.2753022306195719  0.1447782778543852  0.3989875229910706
  0.7621905849654973  0.9672134387956232  0.5078174593547533
  0.0327825181627566  0.7948752532210214  0.5054521570736020
  0.2025229875508512  0.2344177873351631  0.5212088636215719
  0.9672139928021882  0.7621958504206652  0.5078127813926727
  0.7948721396085211  0.0327807783383715  0.5054577859406544
  0.2344178621466028  0.2025268858065634  0.5212104197234588
  0.7735480167714687  0.9439274676598681  0.5652920904088747
  0.0597116703229755  0.8289524437477858  0.5627425080918960
  0.1657467592422151  0.2252409542201422  0.5760520235782508
  0.9439297975854507  0.7735543632260853  0.5652856929640280
  0.8289500861814142  0.0597047776147610  0.5627466559615222
  0.2252394477224841  0.1657483943304062  0.5760505560082790
  0.8027778618810850  0.9152611364411721  0.5653624910653431
  0.0894513767006605  0.8875113612002716  0.5640617071390950
  0.1072786684070640  0.1973324889218416  0.5723085069207738
  0.9152608160909407  0.8027802182815110  0.5653585786688445
  0.8875088295021154  0.0894457626778252  0.5640650354191878
  0.1973309349591087  0.1072813852654163  0.5723056654090037
  0.7732972930831636  0.9411289563111017  0.4527258219180803
  0.0561633329669925  0.8332523374290323  0.4502903322913910
  0.1685294020522858  0.2222532399300831  0.4631359684429415
  0.9411290375224608  0.7733021864341274  0.4527222034029538
  0.8332470843358635  0.0561619614496276  0.4502922313980527
  0.2222582357938894  0.1685378128460331  0.4631368358590715
  0.8027598964468263  0.8365903132479772  0.5136470988887637
  0.1656805138821940  0.9671105084460965  0.5095707585653456
  0.0340756507057687  0.1987477560820585  0.5120247693107727
  0.8365890905529110  0.8027619734303055  0.5136438608478018
  0.9671070539235458  0.1656768237224474  0.5095754381480152
  0.1987499432050770  0.0340804123432278  0.5120182420770450
  0.7637375234615789  0.8158374800777495  0.4578794503144653
  0.1830488071750516  0.9506976790673726  0.4504679198971920
  0.0558465053156328  0.2353552903804210  0.4544933397310025
  0.8158380899936162  0.7637419587573279  0.4578752670974992
  0.9506925312743248  0.1830453216184658  0.4504714633427768
  0.2353631938863608  0.0558535586608263  0.4544892361666902
  0.7684411419227074  0.8594857767550921  0.4226495164657179
  0.1370221426253648  0.9117058140830914  0.4169763141025579
  0.0952422708037506  0.2281214304459886  0.4238388810903291
  0.8594850966968044  0.7684468675317043  0.4226463951695298
  0.9116986989291223  0.1370204045759891  0.4169797423913965
  0.2281325570252002  0.0952551187677002  0.4238373651211330
  0.8204017164878165  0.9003053334557041  0.5115526863053587
  0.1020987316344340  0.9211221241220017  0.5108005882939640
  0.0772870878981671  0.1791412679169961  0.5163969939426490
  0.9003033794709862  0.8204031334993216  0.5115485321260267
  0.9211195232077214  0.1020940400629661  0.5108036817333785
  0.1791429032685243  0.0772923340466945  0.5163902174736404
  0.8026247352610409  0.9127044346324670  0.4559418442395848
  0.0859910212774593  0.8916653062422131  0.4543515214778199
  0.1100482387438082  0.1941038079296061  0.4624016847080595
  0.9127030022824372  0.8026298572492381  0.4559376374053650
  0.8916614479481892  0.0859898558404277  0.4543531975212650
  0.1941107796449040  0.1100577274142056  0.4623985644158465
 
  0.00000000E+00  0.00000000E+00  0.00000000E+00
  0.00000000E+00  0.00000000E+00  0.00000000E+00
  0.00000000E+00  0.00000000E+00  0.00000000E+00
  0.00000000E+00  0.00000000E+00  0.00000000E+00
  0.00000000E+00  0.00000000E+00  0.00000000E+00
  0.00000000E+00  0.00000000E+00  0.00000000E+00
  0.00000000E+00  0.00000000E+00  0.00000000E+00
  0.00000000E+00  0.00000000E+00  0.00000000E+00
  0.00000000E+00  0.00000000E+00  0.00000000E+00
  0.00000000E+00  0.00000000E+00  0.00000000E+00
  0.00000000E+00  0.00000000E+00  0.00000000E+00
  0.00000000E+00  0.00000000E+00  0.00000000E+00
  0.00000000E+00  0.00000000E+00  0.00000000E+00
  0.00000000E+00  0.00000000E+00  0.00000000E+00
  0.00000000E+00  0.00000000E+00  0.00000000E+00
  0.00000000E+00  0.00000000E+00  0.00000000E+00
  0.00000000E+00  0.00000000E+00  0.00000000E+00
  0.00000000E+00  0.00000000E+00  0.00000000E+00
  0.00000000E+00  0.00000000E+00  0.00000000E+00
  0.00000000E+00  0.00000000E+00  0.00000000E+00
  0.00000000E+00  0.00000000E+00  0.00000000E+00
  0.00000000E+00  0.00000000E+00  0.00000000E+00
  0.00000000E+00  0.00000000E+00  0.00000000E+00
  0.00000000E+00  0.00000000E+00  0.00000000E+00
  0.00000000E+00  0.00000000E+00  0.00000000E+00
  0.00000000E+00  0.00000000E+00  0.00000000E+00
  0.00000000E+00  0.00000000E+00  0.00000000E+00
  0.00000000E+00  0.00000000E+00  0.00000000E+00
  0.00000000E+00  0.00000000E+00  0.00000000E+00
  0.00000000E+00  0.00000000E+00  0.00000000E+00
  0.00000000E+00  0.00000000E+00  0.00000000E+00
  0.00000000E+00  0.00000000E+00  0.00000000E+00
  0.00000000E+00  0.00000000E+00  0.00000000E+00
  0.00000000E+00  0.00000000E+00  0.00000000E+00
  0.00000000E+00  0.00000000E+00  0.00000000E+00
  0.00000000E+00  0.00000000E+00  0.00000000E+00
  0.00000000E+00  0.00000000E+00  0.00000000E+00
  0.00000000E+00  0.00000000E+00  0.00000000E+00
  0.00000000E+00  0.00000000E+00  0.00000000E+00
  0.00000000E+00  0.00000000E+00  0.00000000E+00
  0.00000000E+00  0.00000000E+00  0.00000000E+00
  0.00000000E+00  0.00000000E+00  0.00000000E+00
  0.00000000E+00  0.00000000E+00  0.00000000E+00
  0.00000000E+00  0.00000000E+00  0.00000000E+00
  0.00000000E+00  0.00000000E+00  0.00000000E+00
  0.00000000E+00  0.00000000E+00  0.00000000E+00
  0.00000000E+00  0.00000000E+00  0.00000000E+00
  0.00000000E+00  0.00000000E+00  0.00000000E+00
  0.00000000E+00  0.00000000E+00  0.00000000E+00
  0.00000000E+00  0.00000000E+00  0.00000000E+00
  0.00000000E+00  0.00000000E+00  0.00000000E+00
  0.00000000E+00  0.00000000E+00  0.00000000E+00
  0.00000000E+00  0.00000000E+00  0.00000000E+00
  0.00000000E+00  0.00000000E+00  0.00000000E+00
  0.00000000E+00  0.00000000E+00  0.00000000E+00
  0.00000000E+00  0.00000000E+00  0.00000000E+00
  0.00000000E+00  0.00000000E+00  0.00000000E+00
  0.00000000E+00  0.00000000E+00  0.00000000E+00
  0.00000000E+00  0.00000000E+00  0.00000000E+00
  0.00000000E+00  0.00000000E+00  0.00000000E+00
  0.00000000E+00  0.00000000E+00  0.00000000E+00
  0.00000000E+00  0.00000000E+00  0.00000000E+00
  0.00000000E+00  0.00000000E+00  0.00000000E+00
  0.00000000E+00  0.00000000E+00  0.00000000E+00
  0.00000000E+00  0.00000000E+00  0.00000000E+00
  0.00000000E+00  0.00000000E+00  0.00000000E+00
  0.00000000E+00  0.00000000E+00  0.00000000E+00
  0.00000000E+00  0.00000000E+00  0.00000000E+00
  0.00000000E+00  0.00000000E+00  0.00000000E+00
  0.00000000E+00  0.00000000E+00  0.00000000E+00
  0.00000000E+00  0.00000000E+00  0.00000000E+00
  0.00000000E+00  0.00000000E+00  0.00000000E+00
  0.00000000E+00  0.00000000E+00  0.00000000E+00
  0.00000000E+00  0.00000000E+00  0.00000000E+00
  0.00000000E+00  0.00000000E+00  0.00000000E+00
  0.00000000E+00  0.00000000E+00  0.00000000E+00
  0.00000000E+00  0.00000000E+00  0.00000000E+00
  0.00000000E+00  0.00000000E+00  0.00000000E+00
  0.00000000E+00  0.00000000E+00  0.00000000E+00
  0.00000000E+00  0.00000000E+00  0.00000000E+00
  0.00000000E+00  0.00000000E+00  0.00000000E+00
  0.00000000E+00  0.00000000E+00  0.00000000E+00
  0.00000000E+00  0.00000000E+00  0.00000000E+00
  0.00000000E+00  0.00000000E+00  0.00000000E+00
  0.00000000E+00  0.00000000E+00  0.00000000E+00
  0.00000000E+00  0.00000000E+00  0.00000000E+00
  0.00000000E+00  0.00000000E+00  0.00000000E+00
  0.00000000E+00  0.00000000E+00  0.00000000E+00
  0.00000000E+00  0.00000000E+00  0.00000000E+00
  0.00000000E+00  0.00000000E+00  0.00000000E+00
  0.00000000E+00  0.00000000E+00  0.00000000E+00
  0.00000000E+00  0.00000000E+00  0.00000000E+00
  0.00000000E+00  0.00000000E+00  0.00000000E+00
  0.00000000E+00  0.00000000E+00  0.00000000E+00
  0.00000000E+00  0.00000000E+00  0.00000000E+00
  0.00000000E+00  0.00000000E+00  0.00000000E+00
  0.00000000E+00  0.00000000E+00  0.00000000E+00
  0.00000000E+00  0.00000000E+00  0.00000000E+00
  0.00000000E+00  0.00000000E+00  0.00000000E+00
  0.00000000E+00  0.00000000E+00  0.00000000E+00
  0.00000000E+00  0.00000000E+00  0.00000000E+00
  0.00000000E+00  0.00000000E+00  0.00000000E+00
  0.00000000E+00  0.00000000E+00  0.00000000E+00
  0.00000000E+00  0.00000000E+00  0.00000000E+00
  0.00000000E+00  0.00000000E+00  0.00000000E+00
  0.00000000E+00  0.00000000E+00  0.00000000E+00
  0.00000000E+00  0.00000000E+00  0.00000000E+00
  0.00000000E+00  0.00000000E+00  0.00000000E+00
  0.00000000E+00  0.00000000E+00  0.00000000E+00
  0.00000000E+00  0.00000000E+00  0.00000000E+00
  0.00000000E+00  0.00000000E+00  0.00000000E+00
  0.00000000E+00  0.00000000E+00  0.00000000E+00
  0.00000000E+00  0.00000000E+00  0.00000000E+00
  0.00000000E+00  0.00000000E+00  0.00000000E+00
  0.00000000E+00  0.00000000E+00  0.00000000E+00
  0.00000000E+00  0.00000000E+00  0.00000000E+00
  0.00000000E+00  0.00000000E+00  0.00000000E+00
  0.00000000E+00  0.00000000E+00  0.00000000E+00
  0.00000000E+00  0.00000000E+00  0.00000000E+00
  0.00000000E+00  0.00000000E+00  0.00000000E+00
  0.00000000E+00  0.00000000E+00  0.00000000E+00
  0.00000000E+00  0.00000000E+00  0.00000000E+00
  0.00000000E+00  0.00000000E+00  0.00000000E+00
  0.00000000E+00  0.00000000E+00  0.00000000E+00
  0.00000000E+00  0.00000000E+00  0.00000000E+00
  0.00000000E+00  0.00000000E+00  0.00000000E+00
  0.00000000E+00  0.00000000E+00  0.00000000E+00
  0.00000000E+00  0.00000000E+00  0.00000000E+00
  0.00000000E+00  0.00000000E+00  0.00000000E+00
  0.00000000E+00  0.00000000E+00  0.00000000E+00
  0.00000000E+00  0.00000000E+00  0.00000000E+00
  0.00000000E+00  0.00000000E+00  0.00000000E+00
  0.00000000E+00  0.00000000E+00  0.00000000E+00
  0.00000000E+00  0.00000000E+00  0.00000000E+00
  0.00000000E+00  0.00000000E+00  0.00000000E+00
  0.00000000E+00  0.00000000E+00  0.00000000E+00
  0.00000000E+00  0.00000000E+00  0.00000000E+00
  0.00000000E+00  0.00000000E+00  0.00000000E+00
  0.00000000E+00  0.00000000E+00  0.00000000E+00
  0.00000000E+00  0.00000000E+00  0.00000000E+00
  0.00000000E+00  0.00000000E+00  0.00000000E+00
  0.00000000E+00  0.00000000E+00  0.00000000E+00
  0.00000000E+00  0.00000000E+00  0.00000000E+00
  0.00000000E+00  0.00000000E+00  0.00000000E+00
  0.00000000E+00  0.00000000E+00  0.00000000E+00
  0.00000000E+00  0.00000000E+00  0.00000000E+00
  0.00000000E+00  0.00000000E+00  0.00000000E+00
  0.00000000E+00  0.00000000E+00  0.00000000E+00
  0.00000000E+00  0.00000000E+00  0.00000000E+00
  0.00000000E+00  0.00000000E+00  0.00000000E+00
  0.00000000E+00  0.00000000E+00  0.00000000E+00
  0.00000000E+00  0.00000000E+00  0.00000000E+00
  0.00000000E+00  0.00000000E+00  0.00000000E+00
  0.00000000E+00  0.00000000E+00  0.00000000E+00
  0.00000000E+00  0.00000000E+00  0.00000000E+00
  0.00000000E+00  0.00000000E+00  0.00000000E+00
  0.00000000E+00  0.00000000E+00  0.00000000E+00
  0.00000000E+00  0.00000000E+00  0.00000000E+00
  0.00000000E+00  0.00000000E+00  0.00000000E+00
  0.00000000E+00  0.00000000E+00  0.00000000E+00
  0.00000000E+00  0.00000000E+00  0.00000000E+00
  0.00000000E+00  0.00000000E+00  0.00000000E+00
  0.00000000E+00  0.00000000E+00  0.00000000E+00
  0.00000000E+00  0.00000000E+00  0.00000000E+00
  0.00000000E+00  0.00000000E+00  0.00000000E+00
  0.00000000E+00  0.00000000E+00  0.00000000E+00
  0.00000000E+00  0.00000000E+00  0.00000000E+00
  0.00000000E+00  0.00000000E+00  0.00000000E+00
  0.00000000E+00  0.00000000E+00  0.00000000E+00
  0.00000000E+00  0.00000000E+00  0.00000000E+00
  0.00000000E+00  0.00000000E+00  0.00000000E+00
  0.00000000E+00  0.00000000E+00  0.00000000E+00
  0.00000000E+00  0.00000000E+00  0.00000000E+00
  0.00000000E+00  0.00000000E+00  0.00000000E+00
  0.00000000E+00  0.00000000E+00  0.00000000E+00
  0.00000000E+00  0.00000000E+00  0.00000000E+00
  0.00000000E+00  0.00000000E+00  0.00000000E+00
  0.00000000E+00  0.00000000E+00  0.00000000E+00
  0.00000000E+00  0.00000000E+00  0.00000000E+00
  0.00000000E+00  0.00000000E+00  0.00000000E+00
  0.00000000E+00  0.00000000E+00  0.00000000E+00
  0.00000000E+00  0.00000000E+00  0.00000000E+00
  0.00000000E+00  0.00000000E+00  0.00000000E+00
  0.00000000E+00  0.00000000E+00  0.00000000E+00
  0.00000000E+00  0.00000000E+00  0.00000000E+00
  0.00000000E+00  0.00000000E+00  0.00000000E+00
  0.00000000E+00  0.00000000E+00  0.00000000E+00
  0.00000000E+00  0.00000000E+00  0.00000000E+00
  0.00000000E+00  0.00000000E+00  0.00000000E+00
  0.00000000E+00  0.00000000E+00  0.00000000E+00
  0.00000000E+00  0.00000000E+00  0.00000000E+00
  0.00000000E+00  0.00000000E+00  0.00000000E+00
  0.00000000E+00  0.00000000E+00  0.00000000E+00
  0.00000000E+00  0.00000000E+00  0.00000000E+00
  0.00000000E+00  0.00000000E+00  0.00000000E+00
  0.00000000E+00  0.00000000E+00  0.00000000E+00
  0.00000000E+00  0.00000000E+00  0.00000000E+00
  0.00000000E+00  0.00000000E+00  0.00000000E+00
  0.00000000E+00  0.00000000E+00  0.00000000E+00
  0.00000000E+00  0.00000000E+00  0.00000000E+00
  0.00000000E+00  0.00000000E+00  0.00000000E+00
  0.00000000E+00  0.00000000E+00  0.00000000E+00
  0.00000000E+00  0.00000000E+00  0.00000000E+00
  0.00000000E+00  0.00000000E+00  0.00000000E+00
  0.00000000E+00  0.00000000E+00  0.00000000E+00
  0.00000000E+00  0.00000000E+00  0.00000000E+00
  0.00000000E+00  0.00000000E+00  0.00000000E+00
  0.00000000E+00  0.00000000E+00  0.00000000E+00
  0.00000000E+00  0.00000000E+00  0.00000000E+00
  0.00000000E+00  0.00000000E+00  0.00000000E+00
  0.00000000E+00  0.00000000E+00  0.00000000E+00
  0.00000000E+00  0.00000000E+00  0.00000000E+00
  0.00000000E+00  0.00000000E+00  0.00000000E+00
  0.00000000E+00  0.00000000E+00  0.00000000E+00
  0.00000000E+00  0.00000000E+00  0.00000000E+00
  0.00000000E+00  0.00000000E+00  0.00000000E+00
  0.00000000E+00  0.00000000E+00  0.00000000E+00
  0.00000000E+00  0.00000000E+00  0.00000000E+00
  0.00000000E+00  0.00000000E+00  0.00000000E+00
  0.00000000E+00  0.00000000E+00  0.00000000E+00
  0.00000000E+00  0.00000000E+00  0.00000000E+00
  0.00000000E+00  0.00000000E+00  0.00000000E+00
  0.00000000E+00  0.00000000E+00  0.00000000E+00
  0.00000000E+00  0.00000000E+00  0.00000000E+00
  0.00000000E+00  0.00000000E+00  0.00000000E+00
  0.00000000E+00  0.00000000E+00  0.00000000E+00
  0.00000000E+00  0.00000000E+00  0.00000000E+00
  0.00000000E+00  0.00000000E+00  0.00000000E+00
  0.00000000E+00  0.00000000E+00  0.00000000E+00
  0.00000000E+00  0.00000000E+00  0.00000000E+00
  0.00000000E+00  0.00000000E+00  0.00000000E+00
  0.00000000E+00  0.00000000E+00  0.00000000E+00
  0.00000000E+00  0.00000000E+00  0.00000000E+00
  0.00000000E+00  0.00000000E+00  0.00000000E+00
  0.00000000E+00  0.00000000E+00  0.00000000E+00
  0.00000000E+00  0.00000000E+00  0.00000000E+00
  0.00000000E+00  0.00000000E+00  0.00000000E+00
  0.00000000E+00  0.00000000E+00  0.00000000E+00
  0.00000000E+00  0.00000000E+00  0.00000000E+00
  0.00000000E+00  0.00000000E+00  0.00000000E+00
  0.00000000E+00  0.00000000E+00  0.00000000E+00
  0.00000000E+00  0.00000000E+00  0.00000000E+00
  0.00000000E+00  0.00000000E+00  0.00000000E+00
  0.00000000E+00  0.00000000E+00  0.00000000E+00
  0.00000000E+00  0.00000000E+00  0.00000000E+00
  0.00000000E+00  0.00000000E+00  0.00000000E+00
  0.00000000E+00  0.00000000E+00  0.00000000E+00
  0.00000000E+00  0.00000000E+00  0.00000000E+00
  0.00000000E+00  0.00000000E+00  0.00000000E+00
  0.00000000E+00  0.00000000E+00  0.00000000E+00
  0.00000000E+00  0.00000000E+00  0.00000000E+00
  0.00000000E+00  0.00000000E+00  0.00000000E+00
  0.00000000E+00  0.00000000E+00  0.00000000E+00
  0.00000000E+00  0.00000000E+00  0.00000000E+00
  0.00000000E+00  0.00000000E+00  0.00000000E+00
  0.00000000E+00  0.00000000E+00  0.00000000E+00
  0.00000000E+00  0.00000000E+00  0.00000000E+00
  0.00000000E+00  0.00000000E+00  0.00000000E+00
  0.00000000E+00  0.00000000E+00  0.00000000E+00
  0.00000000E+00  0.00000000E+00  0.00000000E+00
  0.00000000E+00  0.00000000E+00  0.00000000E+00
  0.00000000E+00  0.00000000E+00  0.00000000E+00
  0.00000000E+00  0.00000000E+00  0.00000000E+00
  0.00000000E+00  0.00000000E+00  0.00000000E+00
  0.00000000E+00  0.00000000E+00  0.00000000E+00
  0.00000000E+00  0.00000000E+00  0.00000000E+00
  0.00000000E+00  0.00000000E+00  0.00000000E+00
  0.00000000E+00  0.00000000E+00  0.00000000E+00
  0.00000000E+00  0.00000000E+00  0.00000000E+00
  0.00000000E+00  0.00000000E+00  0.00000000E+00
  0.00000000E+00  0.00000000E+00  0.00000000E+00
  0.00000000E+00  0.00000000E+00  0.00000000E+00
  0.00000000E+00  0.00000000E+00  0.00000000E+00
  0.00000000E+00  0.00000000E+00  0.00000000E+00
  0.00000000E+00  0.00000000E+00  0.00000000E+00
  0.00000000E+00  0.00000000E+00  0.00000000E+00
  0.00000000E+00  0.00000000E+00  0.00000000E+00
  0.00000000E+00  0.00000000E+00  0.00000000E+00
  0.00000000E+00  0.00000000E+00  0.00000000E+00
  0.00000000E+00  0.00000000E+00  0.00000000E+00
  0.00000000E+00  0.00000000E+00  0.00000000E+00
  0.00000000E+00  0.00000000E+00  0.00000000E+00
  0.00000000E+00  0.00000000E+00  0.00000000E+00
  0.00000000E+00  0.00000000E+00  0.00000000E+00
  0.00000000E+00  0.00000000E+00  0.00000000E+00
  0.00000000E+00  0.00000000E+00  0.00000000E+00
  0.00000000E+00  0.00000000E+00  0.00000000E+00
  0.00000000E+00  0.00000000E+00  0.00000000E+00
  0.00000000E+00  0.00000000E+00  0.00000000E+00
  0.00000000E+00  0.00000000E+00  0.00000000E+00
  0.00000000E+00  0.00000000E+00  0.00000000E+00
  0.00000000E+00  0.00000000E+00  0.00000000E+00
  0.00000000E+00  0.00000000E+00  0.00000000E+00
  0.00000000E+00  0.00000000E+00  0.00000000E+00
  0.00000000E+00  0.00000000E+00  0.00000000E+00
  0.00000000E+00  0.00000000E+00  0.00000000E+00
  0.00000000E+00  0.00000000E+00  0.00000000E+00
  0.00000000E+00  0.00000000E+00  0.00000000E+00
  0.00000000E+00  0.00000000E+00  0.00000000E+00
  0.00000000E+00  0.00000000E+00  0.00000000E+00
  0.00000000E+00  0.00000000E+00  0.00000000E+00
  0.00000000E+00  0.00000000E+00  0.00000000E+00
  0.00000000E+00  0.00000000E+00  0.00000000E+00
  0.00000000E+00  0.00000000E+00  0.00000000E+00
  0.00000000E+00  0.00000000E+00  0.00000000E+00
  0.00000000E+00  0.00000000E+00  0.00000000E+00
  0.00000000E+00  0.00000000E+00  0.00000000E+00
  0.00000000E+00  0.00000000E+00  0.00000000E+00
  0.00000000E+00  0.00000000E+00  0.00000000E+00
  0.00000000E+00  0.00000000E+00  0.00000000E+00
  0.00000000E+00  0.00000000E+00  0.00000000E+00
  0.00000000E+00  0.00000000E+00  0.00000000E+00
  0.00000000E+00  0.00000000E+00  0.00000000E+00
  0.00000000E+00  0.00000000E+00  0.00000000E+00
  0.00000000E+00  0.00000000E+00  0.00000000E+00
  0.00000000E+00  0.00000000E+00  0.00000000E+00
  0.00000000E+00  0.00000000E+00  0.00000000E+00
  0.00000000E+00  0.00000000E+00  0.00000000E+00
  0.00000000E+00  0.00000000E+00  0.00000000E+00
  0.00000000E+00  0.00000000E+00  0.00000000E+00
  0.00000000E+00  0.00000000E+00  0.00000000E+00
  0.00000000E+00  0.00000000E+00  0.00000000E+00
  0.00000000E+00  0.00000000E+00  0.00000000E+00
  0.00000000E+00  0.00000000E+00  0.00000000E+00
  0.00000000E+00  0.00000000E+00  0.00000000E+00
  0.00000000E+00  0.00000000E+00  0.00000000E+00
  0.00000000E+00  0.00000000E+00  0.00000000E+00
  0.00000000E+00  0.00000000E+00  0.00000000E+00
  0.00000000E+00  0.00000000E+00  0.00000000E+00
  0.00000000E+00  0.00000000E+00  0.00000000E+00
  0.00000000E+00  0.00000000E+00  0.00000000E+00
  0.00000000E+00  0.00000000E+00  0.00000000E+00
  0.00000000E+00  0.00000000E+00  0.00000000E+00
  0.00000000E+00  0.00000000E+00  0.00000000E+00
  0.00000000E+00  0.00000000E+00  0.00000000E+00
  0.00000000E+00  0.00000000E+00  0.00000000E+00
