Generated by VASPKIT code               
   1.00000000000000     
    15.6218405577451307   -0.0192376412307161    0.0000000000000000
    -7.8292316474239225   13.5255223817278765    0.0000000000000000
     0.0000000000000014    0.0000000000000023   21.9565508008536234
   C 
   168
Direct
  0.9030553746687777  0.0044009019618008  0.3500026049951817
  0.9249532459151992  0.9254235345695476  0.3415503020211758
  0.0310641803534133  0.9689290536168866  0.3363212239804391
  0.9954412010332244  0.0968023699126132  0.3499943019941815
  0.0745048670310626  0.0749943979938678  0.3415308193971892
  0.0081132784129785  0.1704566394397801  0.3917952598536465
  0.9297213486019738  0.1567996117351145  0.4318991692819299
  0.8293905640396578  0.9916885682155346  0.3918220553011932
  0.8430509843328983  0.0700489666900326  0.4319187179880933
  0.7747245159833210  0.9009163725670981  0.4249439844231581
  0.8705765355187189  0.8375957448655394  0.3754459811397890
  0.7933381936280416  0.8251434953023566  0.4156498194017582
  0.9199154763938694  0.7914772519841567  0.4042245825233629
  0.0780197108375527  0.9220691464634071  0.3642556021201869
  0.0207799598263389  0.8323402781945075  0.3985943830897126
  0.1677596334949743  0.9793498543037847  0.3985883803594893
  0.1623746684054238  0.1294187691509132  0.3754076866219997
  0.2085720584827937  0.0801657685251436  0.4041959582136347
  0.0989296076723140  0.2251522750730809  0.4249037299325789
  0.1747998088112508  0.2066355980745304  0.4156016537836287
  0.9709951051859540  0.2164859679110384  0.4894932009956740
  0.0770315352754221  0.2432065608582290  0.4861418487987920
  0.9242531733370184  0.1619417287775488  0.5465021633446254
  0.7833976627301921  0.0287702298575698  0.4895055426842788
  0.7566784370531970  0.9227998049201287  0.4861833094165216
  0.8379122966806885  0.0755594838613158  0.5465039768098355
  0.7521800435421163  0.8724055832436697  0.5370843896472991
  0.7814973817321517  0.7577762597609932  0.4671218812006049
  0.8725210551796770  0.7522699275545216  0.4629704018697920
  0.7577644790676092  0.7814699114079428  0.5329328369537472
  0.9229679325847931  0.7567935388903173  0.5138580534734156
  0.0757482336099842  0.8380616005652946  0.4534984660331303
  0.1620885650070440  0.9244427086229653  0.4534976602377677
  0.0290063827876655  0.7835140095040182  0.5105077260205638
  0.2166007099307972  0.9712292237336427  0.5104952090274261
  0.2478196890140187  0.1275949148486600  0.4629169845976479
  0.2422386409816432  0.2185337049146002  0.4670666143141059
  0.2433199488931186  0.0772001400517192  0.5138190878709394
  0.1274792373181071  0.2477305461585178  0.5370311528626782
  0.2185000667327480  0.2422228771773239  0.5328787269722915
  0.9792208798028584  0.1676624677514860  0.6014055088283745
  0.0800854318971628  0.2085274034169985  0.5957762763740115
  0.8322409351659559  0.0206501920784328  0.6014116938592807
  0.7914270523453678  0.9198338095956318  0.5958047636167246
  0.9219789678107819  0.0779327679797135  0.6357438708573062
  0.8251993856658704  0.7933663821998233  0.5843990540206103
  0.9010701096092983  0.7748492012632956  0.5750968760121277
  0.8376234647281848  0.8705818578226442  0.6245928234799604
  0.0702781837535609  0.8431999415908948  0.5681011943839127
  0.1569472919040524  0.9299517327848007  0.5680820006549775
  0.9918850518761134  0.8295435757141152  0.6082049401828367
  0.2252769214010119  0.0990867640976098  0.5750572487233330
  0.2066609154079279  0.1748578508361854  0.5843496260170727
  0.1294242487583488  0.1624069173207990  0.6245534357188134
  0.1706093042738587  0.0083131395415230  0.6081785158155910
  0.9689345454453732  0.0310722068312790  0.6636796030065127
  0.9254939859514834  0.9250073101368693  0.6584688415284277
  0.0045579825909158  0.9031973726661590  0.6500067402884766
  0.0750465905737243  0.0745788122368679  0.6584507015032486
  0.0969456511301640  0.9956015585087511  0.6499983440652243
  0.4818008718179392  0.0205027221784945  0.6349180967850839
  0.9812868818335492  0.5190492602161206  0.6350064264742297
  0.5098449904257505  0.4901066810580618  0.6377918131446532
  0.3842305502429834  0.9693252120526841  0.6111544399231835
  0.0277805842039221  0.4610709236535810  0.6307548372176850
  0.5620144096989125  0.5915775781770870  0.6203770037348229
  0.3769931354177808  0.0323030898639808  0.5655316063133899
  0.9607601541676827  0.3739560542305537  0.5945621713580097
  0.6432742565444084  0.6091066154397954  0.5814055029175085
  0.5341931032151851  0.1168286669570180  0.6026460041038552
  0.8844966095317336  0.4664921252148806  0.6032360382390404
  0.5569368353216584  0.4431174894916073  0.6048955607153144
  0.4653767416957582  0.1218721487719853  0.5600520316442185
  0.8729297966694066  0.3780166852965438  0.5783486000743606
  0.6390336119719867  0.5179297252890588  0.5704027820921416
  0.6225332890370229  0.1280319833337632  0.5777282618309127
  0.8789389436918021  0.5350440252442371  0.5606837686412095
  0.4821632151571240  0.3610172139134778  0.5703968254305617
  0.5397575751862255  0.9739567640885749  0.6309181307060638
  0.0321923895400138  0.6164431454412944  0.6110085570829837
  0.4083383149732118  0.4378735619667863  0.6203777972266720
  0.6266681408866320  0.0404362656684138  0.5944068892858099
  0.9686088680828495  0.6234412440016637  0.5657285950440113
  0.3908992659973942  0.3566907241338767  0.5813811220928599
  0.4988666275592618  0.8774696035083273  0.6044197549868898
  0.1279629673560481  0.6565437434435553  0.5844219485781318
  0.3603046628668613  0.4861881589751432  0.5929508486464518
  0.3439301330924216  0.8732491094857526  0.5850414890758346
  0.1239181947979917  0.5017314382474565  0.6037840438339418
  0.5136302328137926  0.6395542194770572  0.5929712337898998
  0.4012319069484439  0.8259272522069345  0.5825106040668996
  0.1752118610538307  0.5992018785740288  0.5816225327181146
  0.4102337768620189  0.5895609763409431  0.5812866758304808
  0.3155620289684491  0.9718283088979217  0.5120165640704386
  0.0159124165095594  0.3645721840778578  0.5472015785953804
  0.6591665914203244  0.6827575100036160  0.5327348193132156
  0.3072270056356902  0.8727161446532949  0.5241356737201721
  0.1159805039529787  0.4379768134301645  0.5517247793778858
  0.5654212164966318  0.6853883590027576  0.5375985704968186
  0.3643632658080872  0.0153768074381939  0.4526900886645800
  0.9715752566726487  0.3154015506614962  0.4880641672777719
  0.6827768283433518  0.6592135597402938  0.4673089959593268
  0.4974274166492409  0.1638546839710118  0.5001667727375437
  0.8321311177603461  0.3471424299532065  0.5180046062467900
  0.6600034794807152  0.4964747657263703  0.5104410729830932
  0.4376910273610717  0.1153451386255468  0.4476525769393242
  0.8722801060014805  0.3070961264397262  0.4764572824203204
  0.6854919703684399  0.5655734749125346  0.4624297652632773
  0.6529784126001764  0.1679722485357942  0.5171766925101282
  0.8361732808293468  0.5026403854381516  0.5010116419022829
  0.5036877161509111  0.3401072279402118  0.5104238805881379
  0.5973762897399818  0.2006616395964486  0.4823163119764830
  0.7990946823297389  0.4026145868596239  0.4833194765992451
  0.6001713525854775  0.4000306003061542  0.4841268079067915
  0.6927764312493906  0.1272861866366173  0.4758674394925306
  0.8840222638893857  0.5620213244079554  0.4482704402434822
  0.4345758648094641  0.3146099334998893  0.4624005489994927
  0.6356414435077630  0.9846267887713637  0.5473132088987942
  0.0284242126728814  0.6845975122162373  0.5119369527453990
  0.3172222880637108  0.3407827601565486  0.5326910486523730
  0.5623090403492670  0.8846551808155060  0.5523498609596957
  0.1277241177241577  0.6929079862267492  0.5235409379854394
  0.3145051405183873  0.4344276114336754  0.5375701905623729
  0.6844356308071176  0.0281659567792026  0.4879826719559554
  0.9840894233917954  0.6354287373106180  0.4527959816687450
  0.3408344173477004  0.3172435872876115  0.4672649709397973
  0.4026264055772082  0.7993393355204125  0.5176873972506233
  0.2009085464730762  0.5973853164265150  0.5166756718181780
  0.3998266171271465  0.5999684622526563  0.5158720466391471
  0.3470131960948638  0.8320228371232750  0.4828245299090604
  0.1638261115447412  0.4973590607479480  0.4989867615635910
  0.4963134906399074  0.6598932154853620  0.4895778761129386
  0.5025684868818119  0.8361406118741499  0.4998354786379120
  0.1678716110702927  0.6528574188103804  0.4819929692121039
  0.3399932386302119  0.5035224136198255  0.4895590547803570
  0.3733323088377648  0.9595630756208968  0.4055948596292788
  0.0313919752238855  0.3765627126459232  0.4342680295433577
  0.6091024644379053  0.6433060477471059  0.4186214704996217
  0.3774687032269257  0.8719712130959728  0.4222742000240436
  0.1210676685622584  0.4649580180002432  0.4393121287385358
  0.5178336400779689  0.6389805859553922  0.4296048995466848
  0.5011360195423362  0.1225308087798018  0.3955832301827306
  0.8720327465030249  0.3434542786625400  0.4155730937495744
  0.6396977382515379  0.5138102631188134  0.4070485735764920
  0.5987685348063349  0.1740725123702935  0.4174937314324371
  0.8247826639413870  0.4007920344311138  0.4183707464558397
  0.5897681915147770  0.4104386825736576  0.4187128217887378
  0.6560739381093081  0.1267502028966877  0.4149617325194294
  0.8760768041341833  0.4982656503754062  0.3962086529550599
  0.4863717490673373  0.3604437589939038  0.4070281784382543
  0.4602417572205981  0.0260433548489020  0.3690849752076024
  0.9678022826342261  0.3835521011479930  0.3889855839755539
  0.5916617104659926  0.5621254416242055  0.3796226576257989
  0.6230078526561504  0.9676998271154881  0.4344725771444180
  0.0392416756681494  0.6260429200406834  0.4054349483818511
  0.3567273669456434  0.3908891240853271  0.4185954557242773
  0.5346244543932381  0.8781354000496814  0.4399514494337751
  0.1270766775018339  0.6219877554711062  0.4216469111206160
  0.3609706577345179  0.4820710727196200  0.4295974615406691
  0.4658043162695921  0.8831718058255302  0.3973535298105755
  0.1155011596697055  0.5335077912507064  0.3967647183242757
  0.4430662971142009  0.5568807827855852  0.3951046847047819
  0.6157721053271586  0.0306734914144804  0.3888510251482653
  0.9722125679496884  0.5389217571125344  0.3692388251280875
  0.4379861197873015  0.4084209530688654  0.3796207290955577
  0.5182011553572807  0.9794967720972936  0.3650847857331259
  0.0187051673887292  0.4809460712899982  0.3649881740091055
  0.4901559968027201  0.5098920775950032  0.3622074921391221
 
  0.00000000E+00  0.00000000E+00  0.00000000E+00
  0.00000000E+00  0.00000000E+00  0.00000000E+00
  0.00000000E+00  0.00000000E+00  0.00000000E+00
  0.00000000E+00  0.00000000E+00  0.00000000E+00
  0.00000000E+00  0.00000000E+00  0.00000000E+00
  0.00000000E+00  0.00000000E+00  0.00000000E+00
  0.00000000E+00  0.00000000E+00  0.00000000E+00
  0.00000000E+00  0.00000000E+00  0.00000000E+00
  0.00000000E+00  0.00000000E+00  0.00000000E+00
  0.00000000E+00  0.00000000E+00  0.00000000E+00
  0.00000000E+00  0.00000000E+00  0.00000000E+00
  0.00000000E+00  0.00000000E+00  0.00000000E+00
  0.00000000E+00  0.00000000E+00  0.00000000E+00
  0.00000000E+00  0.00000000E+00  0.00000000E+00
  0.00000000E+00  0.00000000E+00  0.00000000E+00
  0.00000000E+00  0.00000000E+00  0.00000000E+00
  0.00000000E+00  0.00000000E+00  0.00000000E+00
  0.00000000E+00  0.00000000E+00  0.00000000E+00
  0.00000000E+00  0.00000000E+00  0.00000000E+00
  0.00000000E+00  0.00000000E+00  0.00000000E+00
  0.00000000E+00  0.00000000E+00  0.00000000E+00
  0.00000000E+00  0.00000000E+00  0.00000000E+00
  0.00000000E+00  0.00000000E+00  0.00000000E+00
  0.00000000E+00  0.00000000E+00  0.00000000E+00
  0.00000000E+00  0.00000000E+00  0.00000000E+00
  0.00000000E+00  0.00000000E+00  0.00000000E+00
  0.00000000E+00  0.00000000E+00  0.00000000E+00
  0.00000000E+00  0.00000000E+00  0.00000000E+00
  0.00000000E+00  0.00000000E+00  0.00000000E+00
  0.00000000E+00  0.00000000E+00  0.00000000E+00
  0.00000000E+00  0.00000000E+00  0.00000000E+00
  0.00000000E+00  0.00000000E+00  0.00000000E+00
  0.00000000E+00  0.00000000E+00  0.00000000E+00
  0.00000000E+00  0.00000000E+00  0.00000000E+00
  0.00000000E+00  0.00000000E+00  0.00000000E+00
  0.00000000E+00  0.00000000E+00  0.00000000E+00
  0.00000000E+00  0.00000000E+00  0.00000000E+00
  0.00000000E+00  0.00000000E+00  0.00000000E+00
  0.00000000E+00  0.00000000E+00  0.00000000E+00
  0.00000000E+00  0.00000000E+00  0.00000000E+00
  0.00000000E+00  0.00000000E+00  0.00000000E+00
  0.00000000E+00  0.00000000E+00  0.00000000E+00
  0.00000000E+00  0.00000000E+00  0.00000000E+00
  0.00000000E+00  0.00000000E+00  0.00000000E+00
  0.00000000E+00  0.00000000E+00  0.00000000E+00
  0.00000000E+00  0.00000000E+00  0.00000000E+00
  0.00000000E+00  0.00000000E+00  0.00000000E+00
  0.00000000E+00  0.00000000E+00  0.00000000E+00
  0.00000000E+00  0.00000000E+00  0.00000000E+00
  0.00000000E+00  0.00000000E+00  0.00000000E+00
  0.00000000E+00  0.00000000E+00  0.00000000E+00
  0.00000000E+00  0.00000000E+00  0.00000000E+00
  0.00000000E+00  0.00000000E+00  0.00000000E+00
  0.00000000E+00  0.00000000E+00  0.00000000E+00
  0.00000000E+00  0.00000000E+00  0.00000000E+00
  0.00000000E+00  0.00000000E+00  0.00000000E+00
  0.00000000E+00  0.00000000E+00  0.00000000E+00
  0.00000000E+00  0.00000000E+00  0.00000000E+00
  0.00000000E+00  0.00000000E+00  0.00000000E+00
  0.00000000E+00  0.00000000E+00  0.00000000E+00
  0.00000000E+00  0.00000000E+00  0.00000000E+00
  0.00000000E+00  0.00000000E+00  0.00000000E+00
  0.00000000E+00  0.00000000E+00  0.00000000E+00
  0.00000000E+00  0.00000000E+00  0.00000000E+00
  0.00000000E+00  0.00000000E+00  0.00000000E+00
  0.00000000E+00  0.00000000E+00  0.00000000E+00
  0.00000000E+00  0.00000000E+00  0.00000000E+00
  0.00000000E+00  0.00000000E+00  0.00000000E+00
  0.00000000E+00  0.00000000E+00  0.00000000E+00
  0.00000000E+00  0.00000000E+00  0.00000000E+00
  0.00000000E+00  0.00000000E+00  0.00000000E+00
  0.00000000E+00  0.00000000E+00  0.00000000E+00
  0.00000000E+00  0.00000000E+00  0.00000000E+00
  0.00000000E+00  0.00000000E+00  0.00000000E+00
  0.00000000E+00  0.00000000E+00  0.00000000E+00
  0.00000000E+00  0.00000000E+00  0.00000000E+00
  0.00000000E+00  0.00000000E+00  0.00000000E+00
  0.00000000E+00  0.00000000E+00  0.00000000E+00
  0.00000000E+00  0.00000000E+00  0.00000000E+00
  0.00000000E+00  0.00000000E+00  0.00000000E+00
  0.00000000E+00  0.00000000E+00  0.00000000E+00
  0.00000000E+00  0.00000000E+00  0.00000000E+00
  0.00000000E+00  0.00000000E+00  0.00000000E+00
  0.00000000E+00  0.00000000E+00  0.00000000E+00
  0.00000000E+00  0.00000000E+00  0.00000000E+00
  0.00000000E+00  0.00000000E+00  0.00000000E+00
  0.00000000E+00  0.00000000E+00  0.00000000E+00
  0.00000000E+00  0.00000000E+00  0.00000000E+00
  0.00000000E+00  0.00000000E+00  0.00000000E+00
  0.00000000E+00  0.00000000E+00  0.00000000E+00
  0.00000000E+00  0.00000000E+00  0.00000000E+00
  0.00000000E+00  0.00000000E+00  0.00000000E+00
  0.00000000E+00  0.00000000E+00  0.00000000E+00
  0.00000000E+00  0.00000000E+00  0.00000000E+00
  0.00000000E+00  0.00000000E+00  0.00000000E+00
  0.00000000E+00  0.00000000E+00  0.00000000E+00
  0.00000000E+00  0.00000000E+00  0.00000000E+00
  0.00000000E+00  0.00000000E+00  0.00000000E+00
  0.00000000E+00  0.00000000E+00  0.00000000E+00
  0.00000000E+00  0.00000000E+00  0.00000000E+00
  0.00000000E+00  0.00000000E+00  0.00000000E+00
  0.00000000E+00  0.00000000E+00  0.00000000E+00
  0.00000000E+00  0.00000000E+00  0.00000000E+00
  0.00000000E+00  0.00000000E+00  0.00000000E+00
  0.00000000E+00  0.00000000E+00  0.00000000E+00
  0.00000000E+00  0.00000000E+00  0.00000000E+00
  0.00000000E+00  0.00000000E+00  0.00000000E+00
  0.00000000E+00  0.00000000E+00  0.00000000E+00
  0.00000000E+00  0.00000000E+00  0.00000000E+00
  0.00000000E+00  0.00000000E+00  0.00000000E+00
  0.00000000E+00  0.00000000E+00  0.00000000E+00
  0.00000000E+00  0.00000000E+00  0.00000000E+00
  0.00000000E+00  0.00000000E+00  0.00000000E+00
  0.00000000E+00  0.00000000E+00  0.00000000E+00
  0.00000000E+00  0.00000000E+00  0.00000000E+00
  0.00000000E+00  0.00000000E+00  0.00000000E+00
  0.00000000E+00  0.00000000E+00  0.00000000E+00
  0.00000000E+00  0.00000000E+00  0.00000000E+00
  0.00000000E+00  0.00000000E+00  0.00000000E+00
  0.00000000E+00  0.00000000E+00  0.00000000E+00
  0.00000000E+00  0.00000000E+00  0.00000000E+00
  0.00000000E+00  0.00000000E+00  0.00000000E+00
  0.00000000E+00  0.00000000E+00  0.00000000E+00
  0.00000000E+00  0.00000000E+00  0.00000000E+00
  0.00000000E+00  0.00000000E+00  0.00000000E+00
  0.00000000E+00  0.00000000E+00  0.00000000E+00
  0.00000000E+00  0.00000000E+00  0.00000000E+00
  0.00000000E+00  0.00000000E+00  0.00000000E+00
  0.00000000E+00  0.00000000E+00  0.00000000E+00
  0.00000000E+00  0.00000000E+00  0.00000000E+00
  0.00000000E+00  0.00000000E+00  0.00000000E+00
  0.00000000E+00  0.00000000E+00  0.00000000E+00
  0.00000000E+00  0.00000000E+00  0.00000000E+00
  0.00000000E+00  0.00000000E+00  0.00000000E+00
  0.00000000E+00  0.00000000E+00  0.00000000E+00
  0.00000000E+00  0.00000000E+00  0.00000000E+00
  0.00000000E+00  0.00000000E+00  0.00000000E+00
  0.00000000E+00  0.00000000E+00  0.00000000E+00
  0.00000000E+00  0.00000000E+00  0.00000000E+00
  0.00000000E+00  0.00000000E+00  0.00000000E+00
  0.00000000E+00  0.00000000E+00  0.00000000E+00
  0.00000000E+00  0.00000000E+00  0.00000000E+00
  0.00000000E+00  0.00000000E+00  0.00000000E+00
  0.00000000E+00  0.00000000E+00  0.00000000E+00
  0.00000000E+00  0.00000000E+00  0.00000000E+00
  0.00000000E+00  0.00000000E+00  0.00000000E+00
  0.00000000E+00  0.00000000E+00  0.00000000E+00
  0.00000000E+00  0.00000000E+00  0.00000000E+00
  0.00000000E+00  0.00000000E+00  0.00000000E+00
  0.00000000E+00  0.00000000E+00  0.00000000E+00
  0.00000000E+00  0.00000000E+00  0.00000000E+00
  0.00000000E+00  0.00000000E+00  0.00000000E+00
  0.00000000E+00  0.00000000E+00  0.00000000E+00
  0.00000000E+00  0.00000000E+00  0.00000000E+00
  0.00000000E+00  0.00000000E+00  0.00000000E+00
  0.00000000E+00  0.00000000E+00  0.00000000E+00
  0.00000000E+00  0.00000000E+00  0.00000000E+00
  0.00000000E+00  0.00000000E+00  0.00000000E+00
  0.00000000E+00  0.00000000E+00  0.00000000E+00
  0.00000000E+00  0.00000000E+00  0.00000000E+00
  0.00000000E+00  0.00000000E+00  0.00000000E+00
  0.00000000E+00  0.00000000E+00  0.00000000E+00
  0.00000000E+00  0.00000000E+00  0.00000000E+00
  0.00000000E+00  0.00000000E+00  0.00000000E+00
  0.00000000E+00  0.00000000E+00  0.00000000E+00
  0.00000000E+00  0.00000000E+00  0.00000000E+00
  0.00000000E+00  0.00000000E+00  0.00000000E+00
  0.00000000E+00  0.00000000E+00  0.00000000E+00
