Generated by VASPKIT code               
   1.00000000000000     
    19.3400144353511969    0.2131823973051671    0.0000000000000000
    -9.4853847675209089   16.8555928459591584    0.0000000000000000
     0.0000000000000014    0.0000000000000024   21.9578232684417145
  C             
   228
Direct
  0.4318101226405389  0.5883336191044695  0.3939627584326025
  0.5883417698879034  0.4318150674497672  0.3939595585621239
  0.4817104614031911  0.6729018484606766  0.3940505954386887
  0.6729101281231739  0.4817143345826869  0.3940480765508583
  0.4426101179666084  0.7089746502654269  0.3603664482969021
  0.7089840325216791  0.4426132249035693  0.3603675368142142
  0.3614321974086065  0.5717963503521564  0.3604894951577721
  0.5718065472814120  0.3614390871308129  0.3604881531204757
  0.3675667555999184  0.6461336838612969  0.3397032473336443
  0.6461421290425491  0.3675685485944486  0.3397032263611099
  0.2891665465861849  0.5114288292515846  0.3812132416103966
  0.5114340366495058  0.2891727948021230  0.3812147007769936
  0.2844216116961805  0.4637803886330694  0.4332063112505166
  0.4637863962361194  0.2844310208842594  0.4332068229247603
  0.4265706464536191  0.5438424959070429  0.4461380529564593
  0.5438530864709732  0.4265791244325660  0.4461370207537017
  0.3516878253836198  0.4807825751092402  0.4661162278898565
  0.4807905727677443  0.3516974980444050  0.4661151463547726
  0.4718522058963605  0.5825138138757545  0.4999939580228299
  0.5825211435236939  0.4718598653997774  0.4999941453686168
  0.5234933442494264  0.7094680367998766  0.4466251712195658
  0.7094754487834350  0.5234972986285669  0.4466245233478406
  0.5190051978536301  0.6638467811598838  0.4999941372178179
  0.6638535782240158  0.5190098989853447  0.4999928946428941
  0.5307596584655561  0.7835684087742237  0.4669630600080363
  0.7835768879057711  0.5307625274660308  0.4669616730975180
  0.4490552179250794  0.7807519821482366  0.3802292391210821
  0.7807618988912096  0.4490578605116610  0.3802312917861516
  0.4947851175933653  0.8192542333510741  0.4344767156698431
  0.8192647070721067  0.4947878393564265  0.4344767558931050
  0.3802804466415570  0.7918232601200182  0.3803589486398575
  0.7918294725638551  0.3802806819612109  0.3803616657530685
  0.3011155177126330  0.6571739013140924  0.3396833415805354
  0.6571802989031472  0.3011177301029243  0.3396838200014120
  0.3075597974083834  0.7311419139738967  0.3603693908678160
  0.7311477955074775  0.3075577262307819  0.3603725548458686
  0.2208207687987308  0.5236942246546058  0.3815823117957576
  0.5237008612553026  0.2208276851508602  0.3815840430390956
  0.2257175657816804  0.5942842639786040  0.3605279267645610
  0.5942882112592752  0.2257217398968948  0.3605304324436234
  0.2054471561966672  0.4343838696088939  0.4636928309396000
  0.4343897558923969  0.2054555408047648  0.4636943376197817
  0.1755180759495694  0.4857895293068931  0.4344456275257343
  0.4857960466032517  0.1755300969506660  0.4344490724894521
  0.2054507331774660  0.4343846362179864  0.5362987426330618
  0.4343880104301472  0.2054633218382612  0.5363002880010129
  0.3516864090345525  0.4807798708122187  0.5338755622582713
  0.4807869504907628  0.3517001536787002  0.5338748797668846
  0.4265686871244852  0.5438476497847885  0.5538470557982359
  0.5438539596193203  0.4265809779033458  0.5538468778319077
  0.2844274127977421  0.4637747928682011  0.5667864611137681
  0.4637794554392531  0.2844372590561048  0.5667876781328465
  0.4318066252118641  0.5883310583390989  0.6060258171805915
  0.5883358342860882  0.4318176749109329  0.6060269283526230
  0.5234945655639324  0.7094678856121857  0.5533650989009542
  0.7094768394322327  0.5234992639025811  0.5533642029615070
  0.5307589958412885  0.7835719299537640  0.5330328607575339
  0.7835788627056813  0.5307611453592405  0.5330319034622671
  0.4817141438539677  0.6728964652597783  0.6059412814423418
  0.6729050882438435  0.4817236385166779  0.6059406892259298
  0.4947866134220302  0.8192527562862413  0.5655193198995986
  0.8192597412537280  0.4947896057235819  0.5655192368434396
  0.4552234881438747  0.8546200445603406  0.4679146183326733
  0.8546268446412451  0.4552243620338061  0.4679170519096990
  0.3843573756645795  0.8368620096615907  0.4346126729360299
  0.8368659233219103  0.3843552538591986  0.4346170598821202
  0.4552218575085600  0.8546161005508348  0.5320837731607346
  0.8546230566784019  0.4552251684678307  0.5320856022460292
  0.3156918133014719  0.8178762787192689  0.4670398499870336
  0.8178788888607169  0.3156938345314274  0.4670428217135139
  0.2359558821491500  0.7131016120764453  0.3940097094818494
  0.7131037437499780  0.2359571548684557  0.3940122009369550
  0.1853592311023302  0.6286902265853687  0.3937084695935028
  0.6286929606351741  0.1853626751155583  0.3937130083177473
  0.2406837820064895  0.7555380555877661  0.4465551806741905
  0.7555398346714611  0.2406857683600920  0.4465580573735859
  0.1370376986844606  0.5184797593961068  0.4664331234935819
  0.5184867193997662  0.1370494825074801  0.4664384667833592
  0.1413794830938815  0.5909555296198469  0.4460673003889377
  0.5909594176678993  0.1413864392061203  0.4460707919938908
  0.1755121132729504  0.4857778911922414  0.5655506429201741
  0.4857846016279911  0.1755237580959862  0.5655520239643572
  0.1370392456795089  0.5184766202424473  0.5335697542467922
  0.5184798231628792  0.1370529588338236  0.5335746214519723
  0.2891631338608055  0.5114196487555285  0.6187806014162874
  0.5114254708352239  0.2891768933739682  0.6187821326433444
  0.3614349838180260  0.5717899726674192  0.6394988276638509
  0.5717940940783728  0.3614453417457302  0.6395005437501191
  0.2208237923663564  0.5236935624861044  0.6184129798422616
  0.5236944942463551  0.2208359941901406  0.6184161947784410
  0.4426139756841599  0.7089680267458863  0.6396280126318280
  0.7089747928539243  0.4426225291323069  0.6396287460413947
  0.4490584359115556  0.7807506293615882  0.6197646887039974
  0.7807582307294961  0.4490661811945206  0.6197657924329658
  0.3675708270016940  0.6461285283115012  0.6602901142419682
  0.6461319765511823  0.3675793104657566  0.6602933718953437
  0.3843588609329531  0.8368618621165043  0.5653890066051321
  0.8368666246296655  0.3843625422442180  0.5653931789762690
  0.3156907985905424  0.8178771321624656  0.5329659034117694
  0.8178796490411576  0.3156914099420335  0.5329680751919174
  0.3802831604498548  0.7918178457269347  0.6196413730191739
  0.7918235811022696  0.3802891045404715  0.6196448044874423
  0.1942647988190853  0.7170862029888143  0.5000030192244065
  0.7170904062377743  0.1942704139223875  0.5000081625003955
  0.1448936867763823  0.6359668668797880  0.5000030218414845
  0.6359709879978677  0.1449010241566165  0.5000080545670594
  0.1413793519837729  0.5909536166745161  0.5539385352358612
  0.5909587237848970  0.1413883843211903  0.5539435553143364
  0.2406809885310405  0.7555345757304616  0.5534543618423762
  0.7555357704999670  0.2406861508479786  0.5534597331060380
  0.2257242265983097  0.5942849773790159  0.6394712882542568
  0.5942872614404722  0.2257350985728402  0.6394776131775970
  0.3011259743547847  0.6571724264112104  0.6603150847544057
  0.6571761414764831  0.3011341638599047  0.6603202230990911
  0.3075658456380305  0.7311370208403066  0.6396335824314747
  0.7311421886807786  0.3075741026504734  0.6396381206230045
  0.1853618695462655  0.6286886044208969  0.6062989506118496
  0.6286909520728396  0.1853699261905284  0.6063046999219602
  0.2359596477480181  0.7130992774086728  0.6059955898749451
  0.7131005034835307  0.2359659743089821  0.6059996563990190
  0.2847960220493473  0.0419686886470600  0.6187107047232004
  0.9583697187042237  0.2419368443773228  0.6196970516815322
  0.7763109918377498  0.7337605860662872  0.6191492036356600
  0.2448226753640210  0.0865369564564489  0.6182941934067119
  0.9216349301999702  0.1590294697014268  0.6192866142337476
  0.8595788052746512  0.7755738146862401  0.6188901764262565
  0.2759693254256913  0.1417173201229104  0.5661491996801830
  0.8692077155979158  0.1341946117496139  0.5653440400935861
  0.8845670482316420  0.7471068647577706  0.5649216871447568
  0.3365877259734277  0.0652452086441403  0.5657658540482342
  0.9317302207904163  0.2676504203422377  0.5653264905013833
  0.7502460763868513  0.6819288680927819  0.5650007572083936
  0.3457397858793674  0.1394487116642751  0.5370526893858329
  0.8757388318545035  0.2018552772400650  0.5329617490307916
  0.8168443445024999  0.6892346937035715  0.5326507172631058
  0.3269987898960129  0.9994172059977323  0.5330999293960565
  0.9994109955822688  0.3269945186793214  0.5330872848231724
  0.6909074409174731  0.6909037945390223  0.5328182417549817
  0.2419364275966164  0.9583774594404083  0.6197066352396464
  0.0419581970119601  0.2847923813739428  0.6187023762255269
  0.7337642878473206  0.7763026957194349  0.6191519310438955
  0.2676525147795524  0.9317362813480433  0.5653374051742337
  0.0652345970292011  0.3365821477653250  0.5657561741229815
  0.6819311238198599  0.7502383909448683  0.5650037806651861
  0.1590295868331041  0.9216409155693540  0.6192935178420047
  0.0865287931680313  0.2448216672716503  0.6182897190570048
  0.7755768308087181  0.8595717410012569  0.6188939606012194
  0.1611555194129482  0.0497860465520376  0.6193328425404423
  0.9659941624063679  0.1178233043323142  0.6196013546012960
  0.9018999667796965  0.8591722202820241  0.6196909476070682
  0.1178224354277722  0.9660001912541699  0.6196067974370048
  0.0497780728040844  0.1611552428931456  0.6193291366904622
  0.8591762479068586  0.9018984142615442  0.6196943467780529
  0.2134954778999113  0.1354563535347781  0.5328899641499494
  0.8827378094352211  0.0816068654255702  0.5325561967157582
  0.9399583644427179  0.8108349494499353  0.5325083652515741
  0.1350306860418052  0.0859673911276258  0.5669381926678345
  0.9357247295931994  0.0572425860537810  0.5672237112194933
  0.9630784662851485  0.8874678246728079  0.5672721056728399
  0.2134933687697078  0.1354568721572146  0.4670993266851596
  0.8827434818916852  0.0816109561715064  0.4674228350346364
  0.9399528159234762  0.8108331710881920  0.4674765134944438
  0.3457297923970430  0.1394335881676746  0.4629472214024683
  0.8757344855520136  0.2018525375044116  0.4670288496985056
  0.8168425392057880  0.6892341396921863  0.4673313718840339
  0.2759695332339726  0.1417114978320620  0.4338441336668762
  0.8692103848954664  0.1341983130724037  0.4346346616814311
  0.8845608862615789  0.7471105422747601  0.4350604916687956
  0.3270058880776352  0.9994100628524549  0.4669015909701977
  0.9994058952189360  0.3270014251895147  0.4668898444551112
  0.6909041900264500  0.6909032465629316  0.4671714044808835
  0.3365718902908747  0.0652262955722639  0.4342331121175559
  0.9317288092235672  0.2676369010686636  0.4346547354077405
  0.7502412570977605  0.6819281788392232  0.4349846067381994
  0.2676433492281288  0.9317318719677468  0.4346684005914697
  0.0652229817117220  0.3365644113253913  0.4342258072072344
  0.6819258591068330  0.7502396375730880  0.4349879369391312
  0.2018564732487238  0.8757403725225114  0.5329731089628469
  0.1394416336180658  0.3457364162714808  0.5370463362063304
  0.6892342240387282  0.8168366082243627  0.5326571406815892
  0.1341970843395455  0.8692122991094596  0.5653520513745489
  0.1417128392148391  0.2759674315331714  0.5661463947291587
  0.7471085697988903  0.8845576518905367  0.5649262763465842
  0.2018555744473936  0.8757364238296400  0.4670397962028047
  0.1394296147891241  0.3457244433630595  0.4629443888175866
  0.6892333800801066  0.8168394780232991  0.4673385080495859
  0.0572435450201400  0.9357288589153412  0.5672277159021704
  0.0859648205923853  0.1350316898745109  0.5669366940285472
  0.8874698562853004  0.9630778122641914  0.5672744081065015
  0.0902998423903257  0.0111268690605448  0.5305935390760380
  0.0111246357474461  0.0902988527119989  0.5305910840896142
  0.9300243297466662  0.9300253897586561  0.5304506171222887
  0.0816093342120209  0.8827410457904620  0.5325617620317835
  0.1354524820035979  0.2134929063065159  0.5328877114345139
  0.8108320300691716  0.9399535204696269  0.5325128807003543
  0.1350277374892788  0.0859651437188012  0.4330566987095845
  0.9357264974164233  0.0572348185678487  0.4327591631928535
  0.9630785033769107  0.8874706642722874  0.4327150881370089
  0.0902972543633819  0.0111256561689733  0.4694000008806949
  0.0111273322197765  0.0902960611065972  0.4693974636599155
  0.9300259532663625  0.9300276600199672  0.4695382968724166
  0.2448215399142212  0.0865253555251163  0.3817081733603308
  0.9216432123532522  0.1590298643023832  0.3806901921012494
  0.8595746250560043  0.7755806875057564  0.3810955634935856
  0.2848176250476903  0.0419726196703507  0.3812660934172500
  0.9583815902707350  0.2419321586906218  0.3802941510347649
  0.7763080359483988  0.7337686799233755  0.3808382058694441
  0.2419389321203709  0.9583814260918538  0.3803040714656668
  0.0419718895660575  0.2848087423088329  0.3812569895079431
  0.7337645909910404  0.7763099428910801  0.3808397810928012
  0.1611610453435107  0.0497824777914522  0.3806591871462073
  0.9659968596351964  0.1178246526206981  0.3803806547394006
  0.9019003559778564  0.8591792384121335  0.3802934579502197
  0.1342038159243799  0.8692118282404860  0.4346434658407501
  0.1417131245693804  0.2759667717392990  0.4338416211568219
  0.7471072394824396  0.8845608078667803  0.4350672976355893
  0.0816130921219583  0.8827426899353833  0.4674298607361934
  0.1354570229742337  0.2134902534589765  0.4670982556693782
  0.8108313276949493  0.9399535287934904  0.4674816684785387
  0.0572368711544639  0.9357262496612959  0.4327627241733814
  0.0859684818358138  0.1350262672909612  0.4330552203029191
  0.8874668803722396  0.9630787702084175  0.4327184030189204
  0.1590348562994570  0.9216400398682141  0.3806998545085326
  0.0865292940377174  0.2448173233658779  0.3817031145701594
  0.7755750733419459  0.8595769516492444  0.3810998788335305
  0.1178293458191796  0.9659948064145268  0.3803851020828703
  0.0497859567955157  0.1611560795080905  0.3806563805078227
  0.8591742838373464  0.9019026411873705  0.3802970349248828
 
  0.00000000E+00  0.00000000E+00  0.00000000E+00
  0.00000000E+00  0.00000000E+00  0.00000000E+00
  0.00000000E+00  0.00000000E+00  0.00000000E+00
  0.00000000E+00  0.00000000E+00  0.00000000E+00
  0.00000000E+00  0.00000000E+00  0.00000000E+00
  0.00000000E+00  0.00000000E+00  0.00000000E+00
  0.00000000E+00  0.00000000E+00  0.00000000E+00
  0.00000000E+00  0.00000000E+00  0.00000000E+00
  0.00000000E+00  0.00000000E+00  0.00000000E+00
  0.00000000E+00  0.00000000E+00  0.00000000E+00
  0.00000000E+00  0.00000000E+00  0.00000000E+00
  0.00000000E+00  0.00000000E+00  0.00000000E+00
  0.00000000E+00  0.00000000E+00  0.00000000E+00
  0.00000000E+00  0.00000000E+00  0.00000000E+00
  0.00000000E+00  0.00000000E+00  0.00000000E+00
  0.00000000E+00  0.00000000E+00  0.00000000E+00
  0.00000000E+00  0.00000000E+00  0.00000000E+00
  0.00000000E+00  0.00000000E+00  0.00000000E+00
  0.00000000E+00  0.00000000E+00  0.00000000E+00
  0.00000000E+00  0.00000000E+00  0.00000000E+00
  0.00000000E+00  0.00000000E+00  0.00000000E+00
  0.00000000E+00  0.00000000E+00  0.00000000E+00
  0.00000000E+00  0.00000000E+00  0.00000000E+00
  0.00000000E+00  0.00000000E+00  0.00000000E+00
  0.00000000E+00  0.00000000E+00  0.00000000E+00
  0.00000000E+00  0.00000000E+00  0.00000000E+00
  0.00000000E+00  0.00000000E+00  0.00000000E+00
  0.00000000E+00  0.00000000E+00  0.00000000E+00
  0.00000000E+00  0.00000000E+00  0.00000000E+00
  0.00000000E+00  0.00000000E+00  0.00000000E+00
  0.00000000E+00  0.00000000E+00  0.00000000E+00
  0.00000000E+00  0.00000000E+00  0.00000000E+00
  0.00000000E+00  0.00000000E+00  0.00000000E+00
  0.00000000E+00  0.00000000E+00  0.00000000E+00
  0.00000000E+00  0.00000000E+00  0.00000000E+00
  0.00000000E+00  0.00000000E+00  0.00000000E+00
  0.00000000E+00  0.00000000E+00  0.00000000E+00
  0.00000000E+00  0.00000000E+00  0.00000000E+00
  0.00000000E+00  0.00000000E+00  0.00000000E+00
  0.00000000E+00  0.00000000E+00  0.00000000E+00
  0.00000000E+00  0.00000000E+00  0.00000000E+00
  0.00000000E+00  0.00000000E+00  0.00000000E+00
  0.00000000E+00  0.00000000E+00  0.00000000E+00
  0.00000000E+00  0.00000000E+00  0.00000000E+00
  0.00000000E+00  0.00000000E+00  0.00000000E+00
  0.00000000E+00  0.00000000E+00  0.00000000E+00
  0.00000000E+00  0.00000000E+00  0.00000000E+00
  0.00000000E+00  0.00000000E+00  0.00000000E+00
  0.00000000E+00  0.00000000E+00  0.00000000E+00
  0.00000000E+00  0.00000000E+00  0.00000000E+00
  0.00000000E+00  0.00000000E+00  0.00000000E+00
  0.00000000E+00  0.00000000E+00  0.00000000E+00
  0.00000000E+00  0.00000000E+00  0.00000000E+00
  0.00000000E+00  0.00000000E+00  0.00000000E+00
  0.00000000E+00  0.00000000E+00  0.00000000E+00
  0.00000000E+00  0.00000000E+00  0.00000000E+00
  0.00000000E+00  0.00000000E+00  0.00000000E+00
  0.00000000E+00  0.00000000E+00  0.00000000E+00
  0.00000000E+00  0.00000000E+00  0.00000000E+00
  0.00000000E+00  0.00000000E+00  0.00000000E+00
  0.00000000E+00  0.00000000E+00  0.00000000E+00
  0.00000000E+00  0.00000000E+00  0.00000000E+00
  0.00000000E+00  0.00000000E+00  0.00000000E+00
  0.00000000E+00  0.00000000E+00  0.00000000E+00
  0.00000000E+00  0.00000000E+00  0.00000000E+00
  0.00000000E+00  0.00000000E+00  0.00000000E+00
  0.00000000E+00  0.00000000E+00  0.00000000E+00
  0.00000000E+00  0.00000000E+00  0.00000000E+00
  0.00000000E+00  0.00000000E+00  0.00000000E+00
  0.00000000E+00  0.00000000E+00  0.00000000E+00
  0.00000000E+00  0.00000000E+00  0.00000000E+00
  0.00000000E+00  0.00000000E+00  0.00000000E+00
  0.00000000E+00  0.00000000E+00  0.00000000E+00
  0.00000000E+00  0.00000000E+00  0.00000000E+00
  0.00000000E+00  0.00000000E+00  0.00000000E+00
  0.00000000E+00  0.00000000E+00  0.00000000E+00
  0.00000000E+00  0.00000000E+00  0.00000000E+00
  0.00000000E+00  0.00000000E+00  0.00000000E+00
  0.00000000E+00  0.00000000E+00  0.00000000E+00
  0.00000000E+00  0.00000000E+00  0.00000000E+00
  0.00000000E+00  0.00000000E+00  0.00000000E+00
  0.00000000E+00  0.00000000E+00  0.00000000E+00
  0.00000000E+00  0.00000000E+00  0.00000000E+00
  0.00000000E+00  0.00000000E+00  0.00000000E+00
  0.00000000E+00  0.00000000E+00  0.00000000E+00
  0.00000000E+00  0.00000000E+00  0.00000000E+00
  0.00000000E+00  0.00000000E+00  0.00000000E+00
  0.00000000E+00  0.00000000E+00  0.00000000E+00
  0.00000000E+00  0.00000000E+00  0.00000000E+00
  0.00000000E+00  0.00000000E+00  0.00000000E+00
  0.00000000E+00  0.00000000E+00  0.00000000E+00
  0.00000000E+00  0.00000000E+00  0.00000000E+00
  0.00000000E+00  0.00000000E+00  0.00000000E+00
  0.00000000E+00  0.00000000E+00  0.00000000E+00
  0.00000000E+00  0.00000000E+00  0.00000000E+00
  0.00000000E+00  0.00000000E+00  0.00000000E+00
  0.00000000E+00  0.00000000E+00  0.00000000E+00
  0.00000000E+00  0.00000000E+00  0.00000000E+00
  0.00000000E+00  0.00000000E+00  0.00000000E+00
  0.00000000E+00  0.00000000E+00  0.00000000E+00
  0.00000000E+00  0.00000000E+00  0.00000000E+00
  0.00000000E+00  0.00000000E+00  0.00000000E+00
  0.00000000E+00  0.00000000E+00  0.00000000E+00
  0.00000000E+00  0.00000000E+00  0.00000000E+00
  0.00000000E+00  0.00000000E+00  0.00000000E+00
  0.00000000E+00  0.00000000E+00  0.00000000E+00
  0.00000000E+00  0.00000000E+00  0.00000000E+00
  0.00000000E+00  0.00000000E+00  0.00000000E+00
  0.00000000E+00  0.00000000E+00  0.00000000E+00
  0.00000000E+00  0.00000000E+00  0.00000000E+00
  0.00000000E+00  0.00000000E+00  0.00000000E+00
  0.00000000E+00  0.00000000E+00  0.00000000E+00
  0.00000000E+00  0.00000000E+00  0.00000000E+00
  0.00000000E+00  0.00000000E+00  0.00000000E+00
  0.00000000E+00  0.00000000E+00  0.00000000E+00
  0.00000000E+00  0.00000000E+00  0.00000000E+00
  0.00000000E+00  0.00000000E+00  0.00000000E+00
  0.00000000E+00  0.00000000E+00  0.00000000E+00
  0.00000000E+00  0.00000000E+00  0.00000000E+00
  0.00000000E+00  0.00000000E+00  0.00000000E+00
  0.00000000E+00  0.00000000E+00  0.00000000E+00
  0.00000000E+00  0.00000000E+00  0.00000000E+00
  0.00000000E+00  0.00000000E+00  0.00000000E+00
  0.00000000E+00  0.00000000E+00  0.00000000E+00
  0.00000000E+00  0.00000000E+00  0.00000000E+00
  0.00000000E+00  0.00000000E+00  0.00000000E+00
  0.00000000E+00  0.00000000E+00  0.00000000E+00
  0.00000000E+00  0.00000000E+00  0.00000000E+00
  0.00000000E+00  0.00000000E+00  0.00000000E+00
  0.00000000E+00  0.00000000E+00  0.00000000E+00
  0.00000000E+00  0.00000000E+00  0.00000000E+00
  0.00000000E+00  0.00000000E+00  0.00000000E+00
  0.00000000E+00  0.00000000E+00  0.00000000E+00
  0.00000000E+00  0.00000000E+00  0.00000000E+00
  0.00000000E+00  0.00000000E+00  0.00000000E+00
  0.00000000E+00  0.00000000E+00  0.00000000E+00
  0.00000000E+00  0.00000000E+00  0.00000000E+00
  0.00000000E+00  0.00000000E+00  0.00000000E+00
  0.00000000E+00  0.00000000E+00  0.00000000E+00
  0.00000000E+00  0.00000000E+00  0.00000000E+00
  0.00000000E+00  0.00000000E+00  0.00000000E+00
  0.00000000E+00  0.00000000E+00  0.00000000E+00
  0.00000000E+00  0.00000000E+00  0.00000000E+00
  0.00000000E+00  0.00000000E+00  0.00000000E+00
  0.00000000E+00  0.00000000E+00  0.00000000E+00
  0.00000000E+00  0.00000000E+00  0.00000000E+00
  0.00000000E+00  0.00000000E+00  0.00000000E+00
  0.00000000E+00  0.00000000E+00  0.00000000E+00
  0.00000000E+00  0.00000000E+00  0.00000000E+00
  0.00000000E+00  0.00000000E+00  0.00000000E+00
  0.00000000E+00  0.00000000E+00  0.00000000E+00
  0.00000000E+00  0.00000000E+00  0.00000000E+00
  0.00000000E+00  0.00000000E+00  0.00000000E+00
  0.00000000E+00  0.00000000E+00  0.00000000E+00
  0.00000000E+00  0.00000000E+00  0.00000000E+00
  0.00000000E+00  0.00000000E+00  0.00000000E+00
  0.00000000E+00  0.00000000E+00  0.00000000E+00
  0.00000000E+00  0.00000000E+00  0.00000000E+00
  0.00000000E+00  0.00000000E+00  0.00000000E+00
  0.00000000E+00  0.00000000E+00  0.00000000E+00
  0.00000000E+00  0.00000000E+00  0.00000000E+00
  0.00000000E+00  0.00000000E+00  0.00000000E+00
  0.00000000E+00  0.00000000E+00  0.00000000E+00
  0.00000000E+00  0.00000000E+00  0.00000000E+00
  0.00000000E+00  0.00000000E+00  0.00000000E+00
  0.00000000E+00  0.00000000E+00  0.00000000E+00
  0.00000000E+00  0.00000000E+00  0.00000000E+00
  0.00000000E+00  0.00000000E+00  0.00000000E+00
  0.00000000E+00  0.00000000E+00  0.00000000E+00
  0.00000000E+00  0.00000000E+00  0.00000000E+00
  0.00000000E+00  0.00000000E+00  0.00000000E+00
  0.00000000E+00  0.00000000E+00  0.00000000E+00
  0.00000000E+00  0.00000000E+00  0.00000000E+00
  0.00000000E+00  0.00000000E+00  0.00000000E+00
  0.00000000E+00  0.00000000E+00  0.00000000E+00
  0.00000000E+00  0.00000000E+00  0.00000000E+00
  0.00000000E+00  0.00000000E+00  0.00000000E+00
  0.00000000E+00  0.00000000E+00  0.00000000E+00
  0.00000000E+00  0.00000000E+00  0.00000000E+00
  0.00000000E+00  0.00000000E+00  0.00000000E+00
  0.00000000E+00  0.00000000E+00  0.00000000E+00
  0.00000000E+00  0.00000000E+00  0.00000000E+00
  0.00000000E+00  0.00000000E+00  0.00000000E+00
  0.00000000E+00  0.00000000E+00  0.00000000E+00
  0.00000000E+00  0.00000000E+00  0.00000000E+00
  0.00000000E+00  0.00000000E+00  0.00000000E+00
  0.00000000E+00  0.00000000E+00  0.00000000E+00
  0.00000000E+00  0.00000000E+00  0.00000000E+00
  0.00000000E+00  0.00000000E+00  0.00000000E+00
  0.00000000E+00  0.00000000E+00  0.00000000E+00
  0.00000000E+00  0.00000000E+00  0.00000000E+00
  0.00000000E+00  0.00000000E+00  0.00000000E+00
  0.00000000E+00  0.00000000E+00  0.00000000E+00
  0.00000000E+00  0.00000000E+00  0.00000000E+00
  0.00000000E+00  0.00000000E+00  0.00000000E+00
  0.00000000E+00  0.00000000E+00  0.00000000E+00
  0.00000000E+00  0.00000000E+00  0.00000000E+00
  0.00000000E+00  0.00000000E+00  0.00000000E+00
  0.00000000E+00  0.00000000E+00  0.00000000E+00
  0.00000000E+00  0.00000000E+00  0.00000000E+00
  0.00000000E+00  0.00000000E+00  0.00000000E+00
  0.00000000E+00  0.00000000E+00  0.00000000E+00
  0.00000000E+00  0.00000000E+00  0.00000000E+00
  0.00000000E+00  0.00000000E+00  0.00000000E+00
  0.00000000E+00  0.00000000E+00  0.00000000E+00
  0.00000000E+00  0.00000000E+00  0.00000000E+00
  0.00000000E+00  0.00000000E+00  0.00000000E+00
  0.00000000E+00  0.00000000E+00  0.00000000E+00
  0.00000000E+00  0.00000000E+00  0.00000000E+00
  0.00000000E+00  0.00000000E+00  0.00000000E+00
  0.00000000E+00  0.00000000E+00  0.00000000E+00
  0.00000000E+00  0.00000000E+00  0.00000000E+00
  0.00000000E+00  0.00000000E+00  0.00000000E+00
  0.00000000E+00  0.00000000E+00  0.00000000E+00
  0.00000000E+00  0.00000000E+00  0.00000000E+00
  0.00000000E+00  0.00000000E+00  0.00000000E+00
  0.00000000E+00  0.00000000E+00  0.00000000E+00
  0.00000000E+00  0.00000000E+00  0.00000000E+00
  0.00000000E+00  0.00000000E+00  0.00000000E+00
  0.00000000E+00  0.00000000E+00  0.00000000E+00
  0.00000000E+00  0.00000000E+00  0.00000000E+00
  0.00000000E+00  0.00000000E+00  0.00000000E+00
  0.00000000E+00  0.00000000E+00  0.00000000E+00
  0.00000000E+00  0.00000000E+00  0.00000000E+00
  0.00000000E+00  0.00000000E+00  0.00000000E+00
  0.00000000E+00  0.00000000E+00  0.00000000E+00
  0.00000000E+00  0.00000000E+00  0.00000000E+00
  0.00000000E+00  0.00000000E+00  0.00000000E+00
