Generated by VASPKIT code               
   1.00000000000000     
    13.8130131985626470    0.1470532298308138    0.0000000000000000
    -6.7822790108505702   11.7998951103576850    0.0000000000000000
     0.0000000000000014    0.0000000000000024   21.9804234237634546
   C 
   132
Direct
  0.4096067980309082  0.7576366034303558  0.3416147838098227
  0.2926650963199334  0.7252105796155046  0.3410862563029908
  0.2295569411590169  0.6034017757968070  0.3421639686384668
  0.4182881324094649  0.6554776107739742  0.3431170241673610
  0.3066885152020079  0.5601883025291867  0.3434599824406114
  0.5009994042097254  0.6522832910914167  0.3787682124699832
  0.5776876569603472  0.7497042709042572  0.4136842995668310
  0.4844977596749229  0.8514118584390743  0.3756502611022296
  0.5699686373550379  0.8473806202466273  0.4119238070661664
  0.4442819566590688  0.9137805366217907  0.4105556324754110
  0.2548400443691041  0.7876284300622083  0.3752160789429491
  0.3322957795740615  0.8833886460231359  0.4106491670744555
  0.1537010549898233  0.7326804008068192  0.4095048114491935
  0.1327752660798991  0.5505450503420140  0.3774775992143197
  0.0966505845098878  0.6170104503843518  0.4117416306618247
  0.1102343588592670  0.4538187695981439  0.4143538301975112
  0.2826039516985047  0.4662285267833913  0.3803254007330767
  0.1824518602370689  0.4116688200483302  0.4149131027742922
  0.4748710662294864  0.5554159169747603  0.4160459798696374
  0.3679446391601606  0.4641787464462079  0.4172824116299382
  0.5982098495478994  0.7121631682747636  0.4714103817069082
  0.5334391006381163  0.5934574343505412  0.4730391176576475
  0.6101167988069585  0.7703908524320335  0.5257117606361812
  0.5811982776118939  0.9063680918307313  0.4685156705782407
  0.5029139134334758  0.9452306987153667  0.4674634669369764
  0.6014843794737909  0.8704792387548830  0.5241084445524549
  0.4514925150961083  0.9470892261831890  0.5214350966378664
  0.2810523415007513  0.8871849104294850  0.4666705215474518
  0.1597606782671775  0.8016886943526340  0.4649268742302541
  0.3384071104926189  0.9188287015202758  0.5209429275144909
  0.1280508848079441  0.7368247996995280  0.5233098726972819
  0.0538479854809875  0.5610065591873260  0.4698293148044839
  0.0621296911022145  0.4625373354119947  0.4715621767680886
  0.0679752468870830  0.6209095633583989  0.5243532908226411
  0.0835707210226872  0.4267399633498871  0.5274128511347231
  0.1992919097964868  0.3595270311930233  0.4720246644348504
  0.3218877913927571  0.4094468095582681  0.4739846364759027
  0.1588996024618819  0.3878971933695275  0.5287606847990350
  0.4866531199850120  0.5407192330173755  0.5279401151669849
  0.3784679803202544  0.4460732783246215  0.5282200953016548
  0.5673311810971928  0.7161307472235645  0.5837514281141667
  0.5047933717302024  0.5998367223801235  0.5844465164926214
  0.5536971893386518  0.8783228328150375  0.5812163574313479
  0.4776180470731539  0.9166255707104061  0.5793441737034100
  0.5316556997982922  0.7824292624409735  0.6185016177541256
  0.2925717435301982  0.8672861338813518  0.5799077428413276
  0.1879353617992849  0.7745204657000851  0.5797363930791202
  0.3782297763576610  0.8651435083905802  0.6159926315822741
  0.0867842566544772  0.5823813584891475  0.5829553008404670
  0.0942338094344311  0.4856125443358879  0.5846918791407356
  0.1618597182280919  0.6788911688412608  0.6179789665281730
  0.2178131656387030  0.4191577018583550  0.5853790494065158
  0.3281559888445686  0.4468549478568014  0.5865087578781104
  0.4057719646544898  0.5428267801001990  0.6211889426707501
  0.1780446012164597  0.4808853769121379  0.6212912889237581
  0.4336989860916761  0.7287576694454180  0.6536540067549962
  0.3560582157470857  0.7716697268768354  0.6527627546368763
  0.2445239922577248  0.6763553889809617  0.6540372013213667
  0.3700195533932911  0.6068103911604694  0.6553661970659969
  0.2530156028190676  0.5743184898560556  0.6556187209090647
  0.7305253147348407  0.2647346546898470  0.6204732998463377
  0.0862615508905364  0.9764026173211157  0.6209188896056245
  0.7907104109826449  0.3838687980173451  0.6217209793741870
  0.1000526185573879  0.0863181559834431  0.6237702373067572
  0.8600084683684298  0.4203076438316662  0.5660849100653181
  0.1708303549727098  0.1497483976898218  0.5714047717221760
  0.7647776214482678  0.2278853583931373  0.5645195085464713
  0.1468454589746633  0.9718562271473080  0.5667634732631696
  0.8452259585469244  0.3249551201090716  0.5323746099526414
  0.1997460150111220  0.0776279137958792  0.5370737682855296
  0.6681893872202631  0.1522819886535426  0.5316680966927045
  0.0743677576097463  0.8742132989864625  0.5321871215817509
  0.6128464139894539  0.2097590733895915  0.6208715221345424
  0.9781503242829307  0.8812365392995652  0.6172805664859885
  0.5742343944448780  0.1400809142737479  0.5651193759055795
  0.9729782281810494  0.8170307297674172  0.5618193796385813
  0.5563433034594721  0.2727051695514575  0.6236849219314262
  0.8839497937839432  0.8960015765237821  0.6156738813238045
  0.7355341358991891  0.4481197924836075  0.6248444766707519
  0.0044997138773789  0.0999624617733014  0.6217654714100871
  0.6179353291129009  0.3918589341918567  0.6253153494023912
  0.8969130254200154  0.0058814715192600  0.6180928274609013
  0.8491569649572779  0.5077691539689878  0.5367898341219040
  0.1163311689799821  0.1970122468751964  0.5388661449449509
  0.7728344284238517  0.5260917264427452  0.5717352818742559
  0.0161870527431458  0.1713845438441138  0.5684174823888182
  0.8457388839985064  0.5098144189938052  0.4716450207590542
  0.1337285423237499  0.2263220702756842  0.4721653745042332
  0.8423421445697823  0.3273780706118581  0.4671684965108167
  0.2023883116920775  0.0836264304513246  0.4714980452252209
  0.8569303228307484  0.4271627457569493  0.4371543456326026
  0.1793049612263098  0.1601051864957765  0.4402155939450548
  0.6667919610696729  0.1559016624152262  0.4665699114061139
  0.0891890825108508  0.8658880439778138  0.4647153869334391
  0.7615238302894463  0.2351710277300478  0.4338122123911063
  0.1526262449150300  0.9815701155471958  0.4368079100436146
  0.5717267643019982  0.1472091474113569  0.4359741979991829
  0.9798235297956669  0.8208953763283826  0.4313366318948161
  0.4937990258577183  0.1601187321669852  0.5350167873088807
  0.8737351262057195  0.7891952099713667  0.5272657960668179
  0.4801656083599873  0.2401319209144077  0.5701862718845517
  0.8232752960536992  0.8423931356311193  0.5591140055655844
  0.4917550780654054  0.1624466398316529  0.4698281844668454
  0.8809097863468806  0.7949484696780927  0.4619926784916747
  0.5825564902293960  0.4335189042536801  0.5723465699558172
  0.8435955103975831  0.0211959665891610  0.5630600622215850
  0.6780700372818027  0.5152763187348883  0.5405351047549499
  0.9157744329606688  0.1259046025794389  0.5341352118815116
  0.4989040961549676  0.3397693007109313  0.5395616009141297
  0.8002291235189353  0.9213353631960860  0.5275682095132139
  0.7688810706212295  0.5316112905117413  0.4408380890585188
  0.0242628425025996  0.1829071633435405  0.4396675996519085
  0.6766195306152709  0.5186215608685671  0.4753080844923618
  0.9226061004384055  0.1310253041280409  0.4685325357610700
  0.7859242210370070  0.3969001637777655  0.3822610650331927
  0.1143978302936949  0.1045029721756487  0.3857535856883565
  0.7245548827341688  0.2778552290583065  0.3809318763776510
  0.1005770479259254  0.9930301026680241  0.3834119683558182
  0.6074408387839428  0.2221797613727540  0.3818174235502954
  0.9916503615911042  0.8973301527613742  0.3807156143605615
  0.7294867592331004  0.4601960614354029  0.3850360803640661
  0.0197133556623075  0.1177202435489677  0.3847280944549378
  0.4804434659699557  0.2484419192562229  0.4395211284595110
  0.8301478859257808  0.8512715862029401  0.4292102964682766
  0.4970448843530814  0.3436014714042711  0.4743095999850664
  0.8060239517493276  0.9257960785901556  0.4624077136200697
  0.5800698493761755  0.4398638093569486  0.4431134772415901
  0.8529517899760815  0.0307217744270478  0.4317904949790838
  0.5505528091462336  0.2850571867986600  0.3840577313691189
  0.8973409825538575  0.9117008472193747  0.3768609777857458
  0.6126063146236550  0.4042072603265940  0.3861560785763181
  0.9111042115390172  0.0246739135032819  0.3784975237395894
 
  0.00000000E+00  0.00000000E+00  0.00000000E+00
  0.00000000E+00  0.00000000E+00  0.00000000E+00
  0.00000000E+00  0.00000000E+00  0.00000000E+00
  0.00000000E+00  0.00000000E+00  0.00000000E+00
  0.00000000E+00  0.00000000E+00  0.00000000E+00
  0.00000000E+00  0.00000000E+00  0.00000000E+00
  0.00000000E+00  0.00000000E+00  0.00000000E+00
  0.00000000E+00  0.00000000E+00  0.00000000E+00
  0.00000000E+00  0.00000000E+00  0.00000000E+00
  0.00000000E+00  0.00000000E+00  0.00000000E+00
  0.00000000E+00  0.00000000E+00  0.00000000E+00
  0.00000000E+00  0.00000000E+00  0.00000000E+00
  0.00000000E+00  0.00000000E+00  0.00000000E+00
  0.00000000E+00  0.00000000E+00  0.00000000E+00
  0.00000000E+00  0.00000000E+00  0.00000000E+00
  0.00000000E+00  0.00000000E+00  0.00000000E+00
  0.00000000E+00  0.00000000E+00  0.00000000E+00
  0.00000000E+00  0.00000000E+00  0.00000000E+00
  0.00000000E+00  0.00000000E+00  0.00000000E+00
  0.00000000E+00  0.00000000E+00  0.00000000E+00
  0.00000000E+00  0.00000000E+00  0.00000000E+00
  0.00000000E+00  0.00000000E+00  0.00000000E+00
  0.00000000E+00  0.00000000E+00  0.00000000E+00
  0.00000000E+00  0.00000000E+00  0.00000000E+00
  0.00000000E+00  0.00000000E+00  0.00000000E+00
  0.00000000E+00  0.00000000E+00  0.00000000E+00
  0.00000000E+00  0.00000000E+00  0.00000000E+00
  0.00000000E+00  0.00000000E+00  0.00000000E+00
  0.00000000E+00  0.00000000E+00  0.00000000E+00
  0.00000000E+00  0.00000000E+00  0.00000000E+00
  0.00000000E+00  0.00000000E+00  0.00000000E+00
  0.00000000E+00  0.00000000E+00  0.00000000E+00
  0.00000000E+00  0.00000000E+00  0.00000000E+00
  0.00000000E+00  0.00000000E+00  0.00000000E+00
  0.00000000E+00  0.00000000E+00  0.00000000E+00
  0.00000000E+00  0.00000000E+00  0.00000000E+00
  0.00000000E+00  0.00000000E+00  0.00000000E+00
  0.00000000E+00  0.00000000E+00  0.00000000E+00
  0.00000000E+00  0.00000000E+00  0.00000000E+00
  0.00000000E+00  0.00000000E+00  0.00000000E+00
  0.00000000E+00  0.00000000E+00  0.00000000E+00
  0.00000000E+00  0.00000000E+00  0.00000000E+00
  0.00000000E+00  0.00000000E+00  0.00000000E+00
  0.00000000E+00  0.00000000E+00  0.00000000E+00
  0.00000000E+00  0.00000000E+00  0.00000000E+00
  0.00000000E+00  0.00000000E+00  0.00000000E+00
  0.00000000E+00  0.00000000E+00  0.00000000E+00
  0.00000000E+00  0.00000000E+00  0.00000000E+00
  0.00000000E+00  0.00000000E+00  0.00000000E+00
  0.00000000E+00  0.00000000E+00  0.00000000E+00
  0.00000000E+00  0.00000000E+00  0.00000000E+00
  0.00000000E+00  0.00000000E+00  0.00000000E+00
  0.00000000E+00  0.00000000E+00  0.00000000E+00
  0.00000000E+00  0.00000000E+00  0.00000000E+00
  0.00000000E+00  0.00000000E+00  0.00000000E+00
  0.00000000E+00  0.00000000E+00  0.00000000E+00
  0.00000000E+00  0.00000000E+00  0.00000000E+00
  0.00000000E+00  0.00000000E+00  0.00000000E+00
  0.00000000E+00  0.00000000E+00  0.00000000E+00
  0.00000000E+00  0.00000000E+00  0.00000000E+00
  0.00000000E+00  0.00000000E+00  0.00000000E+00
  0.00000000E+00  0.00000000E+00  0.00000000E+00
  0.00000000E+00  0.00000000E+00  0.00000000E+00
  0.00000000E+00  0.00000000E+00  0.00000000E+00
  0.00000000E+00  0.00000000E+00  0.00000000E+00
  0.00000000E+00  0.00000000E+00  0.00000000E+00
  0.00000000E+00  0.00000000E+00  0.00000000E+00
  0.00000000E+00  0.00000000E+00  0.00000000E+00
  0.00000000E+00  0.00000000E+00  0.00000000E+00
  0.00000000E+00  0.00000000E+00  0.00000000E+00
  0.00000000E+00  0.00000000E+00  0.00000000E+00
  0.00000000E+00  0.00000000E+00  0.00000000E+00
  0.00000000E+00  0.00000000E+00  0.00000000E+00
  0.00000000E+00  0.00000000E+00  0.00000000E+00
  0.00000000E+00  0.00000000E+00  0.00000000E+00
  0.00000000E+00  0.00000000E+00  0.00000000E+00
  0.00000000E+00  0.00000000E+00  0.00000000E+00
  0.00000000E+00  0.00000000E+00  0.00000000E+00
  0.00000000E+00  0.00000000E+00  0.00000000E+00
  0.00000000E+00  0.00000000E+00  0.00000000E+00
  0.00000000E+00  0.00000000E+00  0.00000000E+00
  0.00000000E+00  0.00000000E+00  0.00000000E+00
  0.00000000E+00  0.00000000E+00  0.00000000E+00
  0.00000000E+00  0.00000000E+00  0.00000000E+00
  0.00000000E+00  0.00000000E+00  0.00000000E+00
  0.00000000E+00  0.00000000E+00  0.00000000E+00
  0.00000000E+00  0.00000000E+00  0.00000000E+00
  0.00000000E+00  0.00000000E+00  0.00000000E+00
  0.00000000E+00  0.00000000E+00  0.00000000E+00
  0.00000000E+00  0.00000000E+00  0.00000000E+00
  0.00000000E+00  0.00000000E+00  0.00000000E+00
  0.00000000E+00  0.00000000E+00  0.00000000E+00
  0.00000000E+00  0.00000000E+00  0.00000000E+00
  0.00000000E+00  0.00000000E+00  0.00000000E+00
  0.00000000E+00  0.00000000E+00  0.00000000E+00
  0.00000000E+00  0.00000000E+00  0.00000000E+00
  0.00000000E+00  0.00000000E+00  0.00000000E+00
  0.00000000E+00  0.00000000E+00  0.00000000E+00
  0.00000000E+00  0.00000000E+00  0.00000000E+00
  0.00000000E+00  0.00000000E+00  0.00000000E+00
  0.00000000E+00  0.00000000E+00  0.00000000E+00
  0.00000000E+00  0.00000000E+00  0.00000000E+00
  0.00000000E+00  0.00000000E+00  0.00000000E+00
  0.00000000E+00  0.00000000E+00  0.00000000E+00
  0.00000000E+00  0.00000000E+00  0.00000000E+00
  0.00000000E+00  0.00000000E+00  0.00000000E+00
  0.00000000E+00  0.00000000E+00  0.00000000E+00
  0.00000000E+00  0.00000000E+00  0.00000000E+00
  0.00000000E+00  0.00000000E+00  0.00000000E+00
  0.00000000E+00  0.00000000E+00  0.00000000E+00
  0.00000000E+00  0.00000000E+00  0.00000000E+00
  0.00000000E+00  0.00000000E+00  0.00000000E+00
  0.00000000E+00  0.00000000E+00  0.00000000E+00
  0.00000000E+00  0.00000000E+00  0.00000000E+00
  0.00000000E+00  0.00000000E+00  0.00000000E+00
  0.00000000E+00  0.00000000E+00  0.00000000E+00
  0.00000000E+00  0.00000000E+00  0.00000000E+00
  0.00000000E+00  0.00000000E+00  0.00000000E+00
  0.00000000E+00  0.00000000E+00  0.00000000E+00
  0.00000000E+00  0.00000000E+00  0.00000000E+00
  0.00000000E+00  0.00000000E+00  0.00000000E+00
  0.00000000E+00  0.00000000E+00  0.00000000E+00
  0.00000000E+00  0.00000000E+00  0.00000000E+00
  0.00000000E+00  0.00000000E+00  0.00000000E+00
  0.00000000E+00  0.00000000E+00  0.00000000E+00
  0.00000000E+00  0.00000000E+00  0.00000000E+00
  0.00000000E+00  0.00000000E+00  0.00000000E+00
  0.00000000E+00  0.00000000E+00  0.00000000E+00
  0.00000000E+00  0.00000000E+00  0.00000000E+00
  0.00000000E+00  0.00000000E+00  0.00000000E+00
  0.00000000E+00  0.00000000E+00  0.00000000E+00
  0.00000000E+00  0.00000000E+00  0.00000000E+00
