Generated by VASPKIT code               
   1.00000000000000     
    15.8850635096723742    2.2352895610704162    0.0000000000000000
     2.2022061538157884   15.8453806282271312    0.0000000000000000
     0.0000000000000015    0.0000000000000015   21.9350045012338519
   C 
   192
Direct
  0.9810984724937907  0.1650479699579921  0.3867216492969354
  0.5410195011708366  0.6370165000445144  0.3817159890848995
  0.8924627480144691  0.1835616543378206  0.4101535082144013
  0.6255672159256206  0.6006400157154340  0.4076234707677319
  0.8552433933428533  0.1183544861216011  0.3860087881142744
  0.6266450977508466  0.6383255556801538  0.4672979043229087
  0.9972559651230057  0.0885428385232057  0.3483070287558795
  0.4915632760145509  0.6962680472741157  0.4257400299972267
  0.9198000584428753  0.0596153661635118  0.3482385538586644
  0.5483370190007506  0.7104565016805665  0.4763592028438233
  0.0794823560932614  0.0269811013024032  0.3500468084123475
  0.4054438122380516  0.7047083640632221  0.4354937911683061
  0.1465480926684100  0.0412624542736139  0.3884746930250187
  0.3635859608797335  0.6526234486697036  0.4001065868832901
  0.0459873410631897  0.1775657935310997  0.4241135272680818
  0.5012423176490265  0.5857267511305893  0.3461060011675992
  0.1279298101492239  0.1142522269838359  0.4266126939134925
  0.4105285110711969  0.5936850790596718  0.3560383460559721
  0.0281811830485098  0.2216578512623566  0.4857653347269668
  0.5460407011803724  0.4942623419654469  0.3363457734226611
  0.8747043765432040  0.2125315133361935  0.4702614692649446
  0.6677508990674473  0.5126118257617600  0.3982022732778127
  0.9406702350917295  0.2247295730425952  0.5091128649347174
  0.6284418242064416  0.4584908887291751  0.3613533544912869
  0.8158717962600707  0.1818902633318973  0.5087285749608722
  0.7082567347770973  0.4627171402960763  0.4486329877050093
  0.8015000566203453  0.0845415570084812  0.4238562904750128
  0.6625297550086503  0.5905409080967303  0.5160405334719258
  0.7834506456364257  0.1162363037163652  0.4857909135391373
  0.7184312289920909  0.5021880546680225  0.5071682853086520
  0.8065007833824184  0.9943422238765399  0.4233076732337441
  0.6341126386499301  0.6002890500611494  0.5786493992109261
  0.9258012310923004  0.9701647553589829  0.3491375270669488
  0.5108121894445559  0.7209050820577306  0.5440026018272279
  0.8686777483609607  0.9383077130216558  0.3875858747312162
  0.5570670872919408  0.6598208449846976  0.5923613068452952
  0.0852713461273553  0.9346234183358160  0.3515366933133094
  0.3712790379739715  0.7122554003053082  0.4983660382168278
  0.0101334428207765  0.9069899776043157  0.3511374662589178
  0.4206072459078265  0.7149516925474557  0.5496022603728443
  0.1926754516553913  0.9582188509606503  0.4157752832866886
  0.3045641504300686  0.6275266016652782  0.4410640580268944
  0.1570145182625974  0.8920911656008840  0.3919637804448791
  0.3076930754372976  0.6661478765589600  0.5011448562772818
  0.2210708273422008  0.9531590537104656  0.4756697729764073
  0.2958269094086172  0.5451168309098930  0.4370326258439309
  0.1563277513089079  0.1084567699768148  0.4893029131386151
  0.3986537754391426  0.5074173642560522  0.3516284346833241
  0.0967325419012037  0.1641066395849420  0.5259182148172281
  0.4817950855233695  0.4460286857158148  0.3393833691654689
  0.2210830360654338  0.0320324340502173  0.5143265708240432
  0.3418844709074845  0.4840977434329701  0.3928384412514989
  0.0821320232012603  0.1455377562654834  0.5871394461899656
  0.5032463179881151  0.3643507108419409  0.3683753289895136
  0.9260477970072577  0.2042527507472787  0.5696368698170510
  0.6507705747468773  0.3736167774335434  0.3903231039786150
  0.8472773776296771  0.1768186999780446  0.5704755022520284
  0.7008164762519153  0.3776535330315320  0.4446257805826520
  0.9963176237509038  0.1644664394103087  0.6093999003178502
  0.5886484297282273  0.3283857153722697  0.3946836502277445
  0.8429733226233909  0.1078800102075498  0.6080359542141125
  0.6923143910809728  0.3338445852474478  0.4988577036546067
  0.7789380360803282  0.0468171305852925  0.5243318646851143
  0.7041533486690474  0.4548938058315377  0.5629645090421265
  0.7789180793453917  0.9679529245480023  0.4856764154199713
  0.6580918535009030  0.5159343649054526  0.6071458043984010
  0.8073084382538057  0.0417561271692622  0.5842296849910107
  0.6954388599622610  0.3724923508190783  0.5589368105555984
  0.8436662086267311  0.8915211589569783  0.5107003820072328
  0.6013249742397210  0.4926203591964947  0.6483593577309255
  0.9178569063202126  0.8544463909725930  0.4128633622163262
  0.4967557178889632  0.6356774718967084  0.6316284226135155
  0.0036670575047206  0.8355210461035103  0.3906017485534194
  0.4113531806506629  0.6716146902632220  0.6053183848134952
  0.9032657419356065  0.8358774619391912  0.4740856379166527
  0.5181924667900494  0.5540003157822264  0.6606154999184294
  0.1527203225391721  0.8231494477388961  0.4295254630030600
  0.2991872083364246  0.6223380049839197  0.5553723099703012
  0.0739423720902225  0.7957249071980715  0.4303631908940431
  0.3492239056517036  0.6263838855230897  0.6096800160711559
  0.2165654108750928  0.8837326566036173  0.5142106037985557
  0.2815686084950046  0.4978139114493640  0.4928347456852211
  0.1841443874161350  0.8180713289861032  0.4912732073628020
  0.2916958503714844  0.5372853104459062  0.5513812102000154
  0.1934893283169042  0.0056365567158586  0.5766899174920149
  0.3658991775063802  0.3997526053379503  0.4213481442838337
  0.1313018845725044  0.0616673116821659  0.6124083600820045
  0.4429473751197071  0.3402102541709234  0.4076413765557192
  0.1985080076865544  0.9154325721864401  0.5761475127828931
  0.3374859467733209  0.4094667552069682  0.4839595790638843
  0.9898410557292222  0.0929942474889853  0.6488571341178346
  0.5794008814804874  0.2850496955419541  0.4504072905397983
  0.9147078453790463  0.0653528679063968  0.6484643732548506
  0.6287552632260899  0.2877078514332809  0.5016401287606015
  0.0741681380797145  0.0298196458363972  0.6508532341190235
  0.4891900719991008  0.2791271913266575  0.4560019728787050
  0.8534315640948432  0.9587116953180421  0.6115349545586825
  0.6364153338809395  0.3473977861015072  0.5998911734999595
  0.8720624290787130  0.8857259088199868  0.5733925882752753
  0.5894727243748060  0.4063546642440412  0.6439570970493448
  0.9204947784721275  0.9729953726898649  0.6499631471030737
  0.5945797021837443  0.2952727599417918  0.5645208974985980
  0.9718130603166801  0.7783177563057948  0.5142334652694670
  0.4539474183276943  0.5057607947302484  0.6636646251469113
  0.0593244997408551  0.7752521953634681  0.4908887234462659
  0.3715357792489508  0.5415206820061993  0.6386588755649221
  0.1252886082657087  0.7874586154479197  0.5297415246637479
  0.3322159649347740  0.4873973238860146  0.6018133558936766
  0.9540080820991328  0.8224159031327601  0.5758871701609470
  0.4987640829961260  0.4143009373127204  0.6539087843388416
  0.1447418449116949  0.8816399504353254  0.6139915695323869
  0.3733724453836922  0.3617017867937703  0.5327034396508732
  0.0801756945375950  0.9403729868589447  0.6517605724819868
  0.4516776940222751  0.2895771241665220  0.5236459170630221
  0.0027239869833215  0.9114378713137908  0.6517010823745578
  0.5084572690993107  0.3037690299160783  0.5742581229526180
  0.1075225851090865  0.8164356977129645  0.5898479227903342
  0.3744337610547022  0.3993788182932730  0.5923856084507230
  0.0188896242064943  0.8349354224649977  0.6132850153167938
  0.4589941999702281  0.3630267363282826  0.6182779272180757
  0.6350395946456203  0.8792425758973513  0.5719671017446896
  0.1747688702007874  0.4330944104782821  0.5455025077359442
  0.5625838826621410  0.8546660601164763  0.5898566890742789
  0.1480317871615062  0.3586415408020982  0.5410990211428868
  0.4996515856576328  0.9318314790275798  0.6151608518379013
  0.0722154743057323  0.3730687744335339  0.5824015499557910
  0.6190972648956837  0.9711711167893685  0.5885412659979026
  0.1192688908449559  0.4937468881532646  0.5870864885420165
  0.5363001854504957  0.0026942244966207  0.6190252447637001
  0.0569727709063267  0.4564004524815209  0.6138903097877964
  0.6390326132656394  0.0145663693244864  0.5385879137145346
  0.0924261389799953  0.5775890657603334  0.5580662367013161
  0.6708763139183682  0.8685284297873068  0.5101357730989241
  0.1891020656487942  0.4805915651782411  0.4908429233569401
  0.6863648962808048  0.9546494289089615  0.4885264473485156
  0.1270031535309210  0.5683465179192752  0.4984417305109788
  0.6297743391561650  0.8364434660992277  0.4649341923501301
  0.1641427942077694  0.4490479591610191  0.4321758556795245
  0.5173056322258679  0.8142645980370208  0.5450425250971580
  0.1301547957668766  0.3260273174592097  0.4836896835001578
  0.5544850852716697  0.8039059801965154  0.4775899092761210
  0.1355974132510828  0.3746122778708551  0.4306668976116564
  0.4172069831282497  0.9438722462781882  0.5852251138450125
  0.0071109556517514  0.3545098698610060  0.5491842953637172
  0.4304922039943089  0.8795119091292127  0.5391884502101613
  0.0392911848490659  0.3139185891007478  0.4869837959959917
  0.3635827762292463  0.0280218009098457  0.5717547285045493
  0.9211704444055558  0.4071157801141448  0.5552857903328003
  0.4833784069892848  0.0871507192604898  0.6026415499113558
  0.9704531562576956  0.5103665844569462  0.6207359845189390
  0.3941108544081041  0.0988785566395586  0.5846006077077210
  0.9016538900656307  0.4804957876531587  0.5958095713208843
  0.5875281046207796  0.0979429478665004  0.5228001172717338
  0.0070075441054997  0.6307144047512709  0.5663021831422151
  0.5151125483039277  0.1360779118959720  0.5598956150185724
  0.9495525928554801  0.6007488779527205  0.6010894950715314
  0.5694956776210505  0.1205211797838095  0.4608070888229206
  0.9607072866787514  0.6860511260420150  0.5130060717710939
  0.6364194327700436  0.9720143956654738  0.4282511220250332
  0.0788686795457205  0.5928738869174297  0.4447054408695218
  0.6058991165708385  0.9011553947552844  0.4154033029327658
  0.0983815860095207  0.5194759264968737  0.4041859625320293
  0.5827942509274787  0.0561631210126200  0.4147726863697811
  0.9929068626841216  0.6454503805172125  0.4508206479501521
  0.4848930247935231  0.8639544127329919  0.4400990911844049
  0.0504740962922824  0.3992252936568568  0.3988821184858899
  0.4124753549526150  0.9020949582749231  0.4771934053135968
  0.9930217977617765  0.3692879301050829  0.4336920193921512
  0.5166314700851870  0.9128856328849800  0.3973593687819140
  0.0295798391540910  0.4896224396033413  0.3792509996049040
  0.3136314828686207  0.0453742218771838  0.5114840332002137
  0.8730292332710995  0.4316403943621949  0.5015523773785542
  0.3609561321389324  0.9854648926071816  0.4614113892896144
  0.9076134872743679  0.4224089669467806  0.4419355946863562
  0.3702235256052104  0.1635964246267369  0.5350731888557547
  0.8358852794585849  0.5509005102920954  0.5678121806750247
  0.4455143332052625  0.1961320902064885  0.5224161053241525
  0.8644193887240842  0.6253382916024264  0.5693154315836125
  0.4826828100453618  0.1857734015674700  0.4549600219985508
  0.8698381890881555  0.6739160065655184  0.5162945424119207
  0.3291142246628958  0.1315074418002192  0.4898738618750371
  0.8109117634389735  0.5193720961618631  0.5091448681887550
  0.5003436444459557  0.0682027626716058  0.3848412960466556
  0.9277991250987391  0.6268921401563640  0.4176069773571770
  0.4637005288434106  0.9973382217297753  0.3809816770643181
  0.9430537693500408  0.5435758752402087  0.3861150630609573
  0.3808936882124833  0.0288662538620235  0.4114577244717574
  0.8807496545229564  0.5062255963769695  0.4128971949159300
  0.4374046753954081  0.1453729037864106  0.4101429055873451
  0.8519519872707358  0.6413177695087646  0.4588814366526391
  0.3649540251071389  0.1207950978778149  0.4280369561388632
  0.8252172730525770  0.5668661223197597  0.4544705833094998
 
  0.00000000E+00  0.00000000E+00  0.00000000E+00
  0.00000000E+00  0.00000000E+00  0.00000000E+00
  0.00000000E+00  0.00000000E+00  0.00000000E+00
  0.00000000E+00  0.00000000E+00  0.00000000E+00
  0.00000000E+00  0.00000000E+00  0.00000000E+00
  0.00000000E+00  0.00000000E+00  0.00000000E+00
  0.00000000E+00  0.00000000E+00  0.00000000E+00
  0.00000000E+00  0.00000000E+00  0.00000000E+00
  0.00000000E+00  0.00000000E+00  0.00000000E+00
  0.00000000E+00  0.00000000E+00  0.00000000E+00
  0.00000000E+00  0.00000000E+00  0.00000000E+00
  0.00000000E+00  0.00000000E+00  0.00000000E+00
  0.00000000E+00  0.00000000E+00  0.00000000E+00
  0.00000000E+00  0.00000000E+00  0.00000000E+00
  0.00000000E+00  0.00000000E+00  0.00000000E+00
  0.00000000E+00  0.00000000E+00  0.00000000E+00
  0.00000000E+00  0.00000000E+00  0.00000000E+00
  0.00000000E+00  0.00000000E+00  0.00000000E+00
  0.00000000E+00  0.00000000E+00  0.00000000E+00
  0.00000000E+00  0.00000000E+00  0.00000000E+00
  0.00000000E+00  0.00000000E+00  0.00000000E+00
  0.00000000E+00  0.00000000E+00  0.00000000E+00
  0.00000000E+00  0.00000000E+00  0.00000000E+00
  0.00000000E+00  0.00000000E+00  0.00000000E+00
  0.00000000E+00  0.00000000E+00  0.00000000E+00
  0.00000000E+00  0.00000000E+00  0.00000000E+00
  0.00000000E+00  0.00000000E+00  0.00000000E+00
  0.00000000E+00  0.00000000E+00  0.00000000E+00
  0.00000000E+00  0.00000000E+00  0.00000000E+00
  0.00000000E+00  0.00000000E+00  0.00000000E+00
  0.00000000E+00  0.00000000E+00  0.00000000E+00
  0.00000000E+00  0.00000000E+00  0.00000000E+00
  0.00000000E+00  0.00000000E+00  0.00000000E+00
  0.00000000E+00  0.00000000E+00  0.00000000E+00
  0.00000000E+00  0.00000000E+00  0.00000000E+00
  0.00000000E+00  0.00000000E+00  0.00000000E+00
  0.00000000E+00  0.00000000E+00  0.00000000E+00
  0.00000000E+00  0.00000000E+00  0.00000000E+00
  0.00000000E+00  0.00000000E+00  0.00000000E+00
  0.00000000E+00  0.00000000E+00  0.00000000E+00
  0.00000000E+00  0.00000000E+00  0.00000000E+00
  0.00000000E+00  0.00000000E+00  0.00000000E+00
  0.00000000E+00  0.00000000E+00  0.00000000E+00
  0.00000000E+00  0.00000000E+00  0.00000000E+00
  0.00000000E+00  0.00000000E+00  0.00000000E+00
  0.00000000E+00  0.00000000E+00  0.00000000E+00
  0.00000000E+00  0.00000000E+00  0.00000000E+00
  0.00000000E+00  0.00000000E+00  0.00000000E+00
  0.00000000E+00  0.00000000E+00  0.00000000E+00
  0.00000000E+00  0.00000000E+00  0.00000000E+00
  0.00000000E+00  0.00000000E+00  0.00000000E+00
  0.00000000E+00  0.00000000E+00  0.00000000E+00
  0.00000000E+00  0.00000000E+00  0.00000000E+00
  0.00000000E+00  0.00000000E+00  0.00000000E+00
  0.00000000E+00  0.00000000E+00  0.00000000E+00
  0.00000000E+00  0.00000000E+00  0.00000000E+00
  0.00000000E+00  0.00000000E+00  0.00000000E+00
  0.00000000E+00  0.00000000E+00  0.00000000E+00
  0.00000000E+00  0.00000000E+00  0.00000000E+00
  0.00000000E+00  0.00000000E+00  0.00000000E+00
  0.00000000E+00  0.00000000E+00  0.00000000E+00
  0.00000000E+00  0.00000000E+00  0.00000000E+00
  0.00000000E+00  0.00000000E+00  0.00000000E+00
  0.00000000E+00  0.00000000E+00  0.00000000E+00
  0.00000000E+00  0.00000000E+00  0.00000000E+00
  0.00000000E+00  0.00000000E+00  0.00000000E+00
  0.00000000E+00  0.00000000E+00  0.00000000E+00
  0.00000000E+00  0.00000000E+00  0.00000000E+00
  0.00000000E+00  0.00000000E+00  0.00000000E+00
  0.00000000E+00  0.00000000E+00  0.00000000E+00
  0.00000000E+00  0.00000000E+00  0.00000000E+00
  0.00000000E+00  0.00000000E+00  0.00000000E+00
  0.00000000E+00  0.00000000E+00  0.00000000E+00
  0.00000000E+00  0.00000000E+00  0.00000000E+00
  0.00000000E+00  0.00000000E+00  0.00000000E+00
  0.00000000E+00  0.00000000E+00  0.00000000E+00
  0.00000000E+00  0.00000000E+00  0.00000000E+00
  0.00000000E+00  0.00000000E+00  0.00000000E+00
  0.00000000E+00  0.00000000E+00  0.00000000E+00
  0.00000000E+00  0.00000000E+00  0.00000000E+00
  0.00000000E+00  0.00000000E+00  0.00000000E+00
  0.00000000E+00  0.00000000E+00  0.00000000E+00
  0.00000000E+00  0.00000000E+00  0.00000000E+00
  0.00000000E+00  0.00000000E+00  0.00000000E+00
  0.00000000E+00  0.00000000E+00  0.00000000E+00
  0.00000000E+00  0.00000000E+00  0.00000000E+00
  0.00000000E+00  0.00000000E+00  0.00000000E+00
  0.00000000E+00  0.00000000E+00  0.00000000E+00
  0.00000000E+00  0.00000000E+00  0.00000000E+00
  0.00000000E+00  0.00000000E+00  0.00000000E+00
  0.00000000E+00  0.00000000E+00  0.00000000E+00
  0.00000000E+00  0.00000000E+00  0.00000000E+00
  0.00000000E+00  0.00000000E+00  0.00000000E+00
  0.00000000E+00  0.00000000E+00  0.00000000E+00
  0.00000000E+00  0.00000000E+00  0.00000000E+00
  0.00000000E+00  0.00000000E+00  0.00000000E+00
  0.00000000E+00  0.00000000E+00  0.00000000E+00
  0.00000000E+00  0.00000000E+00  0.00000000E+00
  0.00000000E+00  0.00000000E+00  0.00000000E+00
  0.00000000E+00  0.00000000E+00  0.00000000E+00
  0.00000000E+00  0.00000000E+00  0.00000000E+00
  0.00000000E+00  0.00000000E+00  0.00000000E+00
  0.00000000E+00  0.00000000E+00  0.00000000E+00
  0.00000000E+00  0.00000000E+00  0.00000000E+00
  0.00000000E+00  0.00000000E+00  0.00000000E+00
  0.00000000E+00  0.00000000E+00  0.00000000E+00
  0.00000000E+00  0.00000000E+00  0.00000000E+00
  0.00000000E+00  0.00000000E+00  0.00000000E+00
  0.00000000E+00  0.00000000E+00  0.00000000E+00
  0.00000000E+00  0.00000000E+00  0.00000000E+00
  0.00000000E+00  0.00000000E+00  0.00000000E+00
  0.00000000E+00  0.00000000E+00  0.00000000E+00
  0.00000000E+00  0.00000000E+00  0.00000000E+00
  0.00000000E+00  0.00000000E+00  0.00000000E+00
  0.00000000E+00  0.00000000E+00  0.00000000E+00
  0.00000000E+00  0.00000000E+00  0.00000000E+00
  0.00000000E+00  0.00000000E+00  0.00000000E+00
  0.00000000E+00  0.00000000E+00  0.00000000E+00
  0.00000000E+00  0.00000000E+00  0.00000000E+00
  0.00000000E+00  0.00000000E+00  0.00000000E+00
  0.00000000E+00  0.00000000E+00  0.00000000E+00
  0.00000000E+00  0.00000000E+00  0.00000000E+00
  0.00000000E+00  0.00000000E+00  0.00000000E+00
  0.00000000E+00  0.00000000E+00  0.00000000E+00
  0.00000000E+00  0.00000000E+00  0.00000000E+00
  0.00000000E+00  0.00000000E+00  0.00000000E+00
  0.00000000E+00  0.00000000E+00  0.00000000E+00
  0.00000000E+00  0.00000000E+00  0.00000000E+00
  0.00000000E+00  0.00000000E+00  0.00000000E+00
  0.00000000E+00  0.00000000E+00  0.00000000E+00
  0.00000000E+00  0.00000000E+00  0.00000000E+00
  0.00000000E+00  0.00000000E+00  0.00000000E+00
  0.00000000E+00  0.00000000E+00  0.00000000E+00
  0.00000000E+00  0.00000000E+00  0.00000000E+00
  0.00000000E+00  0.00000000E+00  0.00000000E+00
  0.00000000E+00  0.00000000E+00  0.00000000E+00
  0.00000000E+00  0.00000000E+00  0.00000000E+00
  0.00000000E+00  0.00000000E+00  0.00000000E+00
  0.00000000E+00  0.00000000E+00  0.00000000E+00
  0.00000000E+00  0.00000000E+00  0.00000000E+00
  0.00000000E+00  0.00000000E+00  0.00000000E+00
  0.00000000E+00  0.00000000E+00  0.00000000E+00
  0.00000000E+00  0.00000000E+00  0.00000000E+00
  0.00000000E+00  0.00000000E+00  0.00000000E+00
  0.00000000E+00  0.00000000E+00  0.00000000E+00
  0.00000000E+00  0.00000000E+00  0.00000000E+00
  0.00000000E+00  0.00000000E+00  0.00000000E+00
  0.00000000E+00  0.00000000E+00  0.00000000E+00
  0.00000000E+00  0.00000000E+00  0.00000000E+00
  0.00000000E+00  0.00000000E+00  0.00000000E+00
  0.00000000E+00  0.00000000E+00  0.00000000E+00
  0.00000000E+00  0.00000000E+00  0.00000000E+00
  0.00000000E+00  0.00000000E+00  0.00000000E+00
  0.00000000E+00  0.00000000E+00  0.00000000E+00
  0.00000000E+00  0.00000000E+00  0.00000000E+00
  0.00000000E+00  0.00000000E+00  0.00000000E+00
  0.00000000E+00  0.00000000E+00  0.00000000E+00
  0.00000000E+00  0.00000000E+00  0.00000000E+00
  0.00000000E+00  0.00000000E+00  0.00000000E+00
  0.00000000E+00  0.00000000E+00  0.00000000E+00
  0.00000000E+00  0.00000000E+00  0.00000000E+00
  0.00000000E+00  0.00000000E+00  0.00000000E+00
  0.00000000E+00  0.00000000E+00  0.00000000E+00
  0.00000000E+00  0.00000000E+00  0.00000000E+00
  0.00000000E+00  0.00000000E+00  0.00000000E+00
  0.00000000E+00  0.00000000E+00  0.00000000E+00
  0.00000000E+00  0.00000000E+00  0.00000000E+00
  0.00000000E+00  0.00000000E+00  0.00000000E+00
  0.00000000E+00  0.00000000E+00  0.00000000E+00
  0.00000000E+00  0.00000000E+00  0.00000000E+00
  0.00000000E+00  0.00000000E+00  0.00000000E+00
  0.00000000E+00  0.00000000E+00  0.00000000E+00
  0.00000000E+00  0.00000000E+00  0.00000000E+00
  0.00000000E+00  0.00000000E+00  0.00000000E+00
  0.00000000E+00  0.00000000E+00  0.00000000E+00
  0.00000000E+00  0.00000000E+00  0.00000000E+00
  0.00000000E+00  0.00000000E+00  0.00000000E+00
  0.00000000E+00  0.00000000E+00  0.00000000E+00
  0.00000000E+00  0.00000000E+00  0.00000000E+00
  0.00000000E+00  0.00000000E+00  0.00000000E+00
  0.00000000E+00  0.00000000E+00  0.00000000E+00
  0.00000000E+00  0.00000000E+00  0.00000000E+00
  0.00000000E+00  0.00000000E+00  0.00000000E+00
  0.00000000E+00  0.00000000E+00  0.00000000E+00
  0.00000000E+00  0.00000000E+00  0.00000000E+00
  0.00000000E+00  0.00000000E+00  0.00000000E+00
  0.00000000E+00  0.00000000E+00  0.00000000E+00
  0.00000000E+00  0.00000000E+00  0.00000000E+00
  0.00000000E+00  0.00000000E+00  0.00000000E+00
  0.00000000E+00  0.00000000E+00  0.00000000E+00
  0.00000000E+00  0.00000000E+00  0.00000000E+00
  0.00000000E+00  0.00000000E+00  0.00000000E+00
