Generated by VASPKIT code               
   1.00000000000000     
    16.7635486382822450   -0.0995955553509252    0.0000000000000000
    -8.4589766232123456   14.5823055345964789    0.0000000000000000
     0.0000000000000014    0.0000000000000025   21.9633631709075061
  C             
   168
Direct
  0.1711003724742031  0.1251531820009980  0.3887151701385082
  0.1360012581313653  0.1876136443292174  0.3993204478627770
  0.0469799840327476  0.1469918252521363  0.3694501370041511
  0.1042884576346443  0.0480242445721303  0.3529489738582494
  0.0269603516343680  0.0614676561428840  0.3409186263154640
  0.0881736414459857  0.9590332445224283  0.3653679047578755
  0.1383243049692742  0.9449327893492883  0.4136641675085175
  0.2146178289018646  0.1091702393772413  0.4372110957881277
  0.1988870380958165  0.0188716403699117  0.4491349213077087
  0.2267099165340550  0.1527434519357548  0.4948134083258717
  0.1504334860714380  0.2320436240699134  0.4553059037136961
  0.2128227702144767  0.2313849547903601  0.5051444560597651
  0.0765841519615062  0.2346226390742545  0.4847259241714030
  0.9754195069425472  0.1523505516868702  0.3982223313081669
  0.9915168835213886  0.1949948640673492  0.4563497653577302
  0.8826690446717718  0.0737863526881520  0.3995750251347155
  0.9357402886231424  0.9852124187941546  0.3419085339409227
  0.8621319408562811  0.9921134577532829  0.3707486720855697
  0.9950042886694970  0.8809868057669034  0.3660607550199410
  0.9201524413203716  0.8939510967458590  0.3547452525233887
  0.0782338726829387  0.8595001515985817  0.4444366440286721
  0.9898514938508223  0.8203770603329014  0.4150275051231127
  0.0844999047429434  0.8520484674839052  0.5079854010774718
  0.2024501833463496  0.0100547927527483  0.5143446347625945
  0.2224062541451171  0.0955741022167585  0.5419994928427853
  0.1506889480913807  0.9282939511101493  0.5442258551517343
  0.1887560918167336  0.0975951289254193  0.6006550836396053
  0.1585215645276801  0.2173843694301581  0.5636461033594010
  0.0822348012153070  0.2268439286840992  0.5506607077084851
  0.1540499074174453  0.1586866022362614  0.6107497904204587
  0.0013572331984595  0.1813656351917712  0.5867430460942855
  0.9086225233764486  0.1445566195696243  0.4931103578741063
  0.8440588549631219  0.0717487034961250  0.4582129095794314
  0.9144374074562948  0.1396299469734086  0.5572451305855480
  0.7681901100143419  0.9878649605702967  0.4866489661314789
  0.8000737077337901  0.9051368351195195  0.4021526068232472
  0.8371043398037410  0.8457805954873997  0.3917538812969956
  0.7606613145702064  0.9036146844598163  0.4580711178761787
  0.9110429325151821  0.7768302778193139  0.4513164296936005
  0.8349420801953114  0.7904471191230777  0.4394309021302462
  0.0025652891291897  0.8060311943617394  0.5450235286523848
  0.9178865674965748  0.7706473344236162  0.5163431841782224
  0.1105712621770049  0.9281406243152310  0.6034257219277789
  0.1290955824995078  0.0108798224141700  0.6311415198308304
  0.0183311097979290  0.8505787217900838  0.6039964401739610
  0.0708477667293731  0.1095008272195055  0.6475728952209012
  0.9957721630908902  0.1212695318886751  0.6360360385506653
  0.0555221674215140  0.0179704039590592  0.6603155502535595
  0.8523359705783508  0.0543046893512715  0.5880158274896696
  0.7887623639939674  0.9802038980703697  0.5537399955445281
  0.9023478359619688  0.0423874255904677  0.6369506411316969
  0.7581480123039592  0.8464841539185392  0.5069565257082452
  0.7978697712230987  0.7938850537612347  0.4973129679706566
  0.8468202211488070  0.7791418208650390  0.5451727436202097
  0.7725349443407481  0.8912948301248693  0.5658466276926152
  0.9466821836942855  0.8568610412355284  0.6325395609550798
  0.9652840502342790  0.9417743422154377  0.6615843872331939
  0.8869784755025375  0.9542305896616410  0.6497066241160616
  0.8581714008959404  0.8184430100050332  0.6025635508324719
  0.8207394450450533  0.8776548392392830  0.6133459064578484
  0.6894358095661609  0.0534504836995708  0.5389843564493622
  0.9661944750996883  0.6307763003906216  0.5622099878646661
  0.3620146436620612  0.3120923397578034  0.5629376871189287
  0.6825810612688600  0.9983159784876732  0.4842359815797700
  0.0116511985378813  0.6714762791106047  0.5063811449620482
  0.3112017324753400  0.3150181547721203  0.5074568225186457
  0.5842719574453736  0.9170115965919995  0.4915214969464325
  0.0971061392209284  0.6675336539683943  0.5004018999511830
  0.3319659737662899  0.4146228317420444  0.5096142349008771
  0.6149848985564254  0.9999568225886364  0.5813750997835406
  0.0217970051331064  0.5968897584073286  0.5912651288264833
  0.3914865018902158  0.3938206870726151  0.5998933757367744
  0.5490324124575889  0.9173441503242886  0.5509559020313655
  0.1007192514314047  0.6189261212772605  0.5523890506466619
  0.3744477398973116  0.4566676851988103  0.5663105581353897
  0.5905107384425573  0.0610998664173382  0.6096531368166445
  0.9599531952600984  0.5050760467817771  0.6096100384261934
  0.4809464232622508  0.4211595833383724  0.6243492157452227
  0.7150456663913117  0.1433624060872624  0.5397277902818094
  0.8722151616381566  0.5637716105760151  0.5630137565961311
  0.4282984806533764  0.2878318999909493  0.5628512317609946
  0.6496208268383995  0.1492339305519046  0.5811710801494030
  0.8681195495381500  0.4839637468171774  0.5895133757472244
  0.5055553454523080  0.3577372801879729  0.5986233237137391
  0.7320881992784483  0.1997623367359130  0.4822877124775951
  0.8097595578152670  0.5366762920959004  0.5063110158786742
  0.4624247350100646  0.2636152603127273  0.5056624901246567
  0.6744229435669573  0.0451717367411649  0.4285721032035845
  0.9634329935993611  0.6473341280081348  0.4507688808360482
  0.3635830609952312  0.3171546914853781  0.4515283522235475
  0.6972028264922498  0.1355083739964755  0.4271308815636665
  0.8695520345957134  0.5788677671038918  0.4494542701746325
  0.4292722241710954  0.2922579294364752  0.4497810846707465
  0.5301055657618229  0.9097456172899192  0.4392357592218383
  0.0976620391799601  0.6359766174120173  0.4400627097982443
  0.3752696926715186  0.4611699098578748  0.4541215388069120
  0.5844903673045700  0.9869076966827769  0.4000924814576378
  0.0165661944450335  0.6245912038475624  0.4082920619064919
  0.3933707229872084  0.4013867062075567  0.4176430031994822
  0.4332439429728220  0.8772808998137802  0.4465735655774781
  0.1247950287013947  0.5689768484240217  0.4310617797561904
  0.4428632036751114  0.5575615622305917  0.4550810010467969
  0.4525726738181712  0.8849908053046550  0.5592655485622330
  0.1284077630846619  0.5520933009160223  0.5444691118392662
  0.4422615306233973  0.5531131846069537  0.5684086979706557
  0.3937170464363993  0.8562994526045550  0.5066359033360398
  0.1485441895544520  0.5341237656118327  0.4836729013010275
  0.4686232486121082  0.6045900748356109  0.5126180487949000
  0.4942680740044272  0.0288980087764643  0.6163202531226567
  0.9875451926167275  0.4385046121966799  0.6007066979513164
  0.5484598193043076  0.5166807455453533  0.6250074762112067
  0.4266810756194612  0.9381695778938478  0.5971297021250207
  0.0754896914984025  0.4649215338505351  0.5743431621599440
  0.5253811258194974  0.5825569427415361  0.6032978998891507
  0.4617671679105735  0.0884231637969451  0.5944397178434998
  0.9218460015404458  0.3530843431585133  0.5715452157864196
  0.6389182338628551  0.5442367421706146  0.6003003324118575
  0.6110137543547021  0.1950910994540901  0.5491819361090911
  0.8152876790628935  0.4068270586738928  0.5499131858746258
  0.5882547381737158  0.3905104520402808  0.5636694587960729
  0.6507950957640638  0.2177607552334002  0.4891936036344690
  0.7873145755851201  0.4367566941150571  0.4980702054861652
  0.5638336366581994  0.3436554672203663  0.5064149312412639
  0.5157601757468526  0.1642372118635005  0.5576012910462410
  0.8429556168502143  0.3409004012532860  0.5421258323631588
  0.6570837193360004  0.4852917665238613  0.5661523209066112
  0.6182745382118900  0.1358720600989957  0.3987261065660319
  0.8624548513563117  0.5102452222297457  0.4087429498645548
  0.5070727102933483  0.3648783463547682  0.4155858041076990
  0.5502876723984325  0.0443971978708097  0.3789343172370348
  0.9529779326633770  0.5390196450563799  0.3817392008793692
  0.4829854601987581  0.4303023854786570  0.3927924085036115
  0.5916126126460273  0.1868818083019944  0.4370638137222225
  0.8109956336321356  0.4221738178414913  0.4383865489345852
  0.5887961636969938  0.3949973765507079  0.4509047329705993
  0.3949726930771670  0.9253915287308316  0.4152044390947090
  0.0690217456256784  0.4912095135540471  0.3923120865738682
  0.5264444486611927  0.5894082764677646  0.4202993493317145
  0.4544602853790125  0.0127783744701108  0.3876547017447370
  0.9795723254893746  0.4715774103494045  0.3731132153512592
  0.5501760977227496  0.5258116210174603  0.3952945829839730
  0.3284262100642758  0.8891864475360070  0.5124294762287985
  0.1118486166303920  0.4356451447683519  0.4761153218924319
  0.5683735123808793  0.6686110951728150  0.5131613415273749
  0.3478850987031322  0.9393025473200901  0.5679211062398435
  0.0659345328097697  0.3931422088202433  0.5312841682036699
  0.6037659672720147  0.6556830319997775  0.5687900540154622
  0.3708836386120811  0.0321258112619514  0.5659448154315293
  0.9717371896334088  0.3268650976317715  0.5295179946907310
  0.6717684159985245  0.6302073195542712  0.5665087417788754
  0.3293242934119235  0.9317192062712419  0.4566531128876078
  0.0625688344946179  0.4082012343783456  0.4201295664382879
  0.6039908569263086  0.6593341072566221  0.4567222023310953
  0.4593579698351540  0.1702312083234581  0.5047485571653768
  0.8273082462778902  0.2908362449715940  0.4806489979019585
  0.7153157550483231  0.5347342148257495  0.5093295508897140
  0.4960814280472182  0.1562289187746789  0.4440541913862578
  0.8377002729850033  0.3559988945829196  0.4286119228538239
  0.6571590677589048  0.4899140901675922  0.4515407612593843
  0.4305752299451254  0.0757654406860995  0.4154148372218204
  0.9154183735492037  0.3785189857157698  0.3926047682174628
  0.6401243677198000  0.5514389303713680  0.4200045534420918
  0.3711870298833944  0.0757206113744009  0.5113286515407482
  0.9212022912550847  0.2955374388022043  0.4748102102348255
  0.7087914046791927  0.6216542403795328  0.5113539646325426
  0.3525385569643764  0.0246639233959046  0.4570138049988791
  0.9679176013284169  0.3399608768716597  0.4203867810316932
  0.6726986541510749  0.6345594219226324  0.4569591264785181
 
  0.00000000E+00  0.00000000E+00  0.00000000E+00
  0.00000000E+00  0.00000000E+00  0.00000000E+00
  0.00000000E+00  0.00000000E+00  0.00000000E+00
  0.00000000E+00  0.00000000E+00  0.00000000E+00
  0.00000000E+00  0.00000000E+00  0.00000000E+00
  0.00000000E+00  0.00000000E+00  0.00000000E+00
  0.00000000E+00  0.00000000E+00  0.00000000E+00
  0.00000000E+00  0.00000000E+00  0.00000000E+00
  0.00000000E+00  0.00000000E+00  0.00000000E+00
  0.00000000E+00  0.00000000E+00  0.00000000E+00
  0.00000000E+00  0.00000000E+00  0.00000000E+00
  0.00000000E+00  0.00000000E+00  0.00000000E+00
  0.00000000E+00  0.00000000E+00  0.00000000E+00
  0.00000000E+00  0.00000000E+00  0.00000000E+00
  0.00000000E+00  0.00000000E+00  0.00000000E+00
  0.00000000E+00  0.00000000E+00  0.00000000E+00
  0.00000000E+00  0.00000000E+00  0.00000000E+00
  0.00000000E+00  0.00000000E+00  0.00000000E+00
  0.00000000E+00  0.00000000E+00  0.00000000E+00
  0.00000000E+00  0.00000000E+00  0.00000000E+00
  0.00000000E+00  0.00000000E+00  0.00000000E+00
  0.00000000E+00  0.00000000E+00  0.00000000E+00
  0.00000000E+00  0.00000000E+00  0.00000000E+00
  0.00000000E+00  0.00000000E+00  0.00000000E+00
  0.00000000E+00  0.00000000E+00  0.00000000E+00
  0.00000000E+00  0.00000000E+00  0.00000000E+00
  0.00000000E+00  0.00000000E+00  0.00000000E+00
  0.00000000E+00  0.00000000E+00  0.00000000E+00
  0.00000000E+00  0.00000000E+00  0.00000000E+00
  0.00000000E+00  0.00000000E+00  0.00000000E+00
  0.00000000E+00  0.00000000E+00  0.00000000E+00
  0.00000000E+00  0.00000000E+00  0.00000000E+00
  0.00000000E+00  0.00000000E+00  0.00000000E+00
  0.00000000E+00  0.00000000E+00  0.00000000E+00
  0.00000000E+00  0.00000000E+00  0.00000000E+00
  0.00000000E+00  0.00000000E+00  0.00000000E+00
  0.00000000E+00  0.00000000E+00  0.00000000E+00
  0.00000000E+00  0.00000000E+00  0.00000000E+00
  0.00000000E+00  0.00000000E+00  0.00000000E+00
  0.00000000E+00  0.00000000E+00  0.00000000E+00
  0.00000000E+00  0.00000000E+00  0.00000000E+00
  0.00000000E+00  0.00000000E+00  0.00000000E+00
  0.00000000E+00  0.00000000E+00  0.00000000E+00
  0.00000000E+00  0.00000000E+00  0.00000000E+00
  0.00000000E+00  0.00000000E+00  0.00000000E+00
  0.00000000E+00  0.00000000E+00  0.00000000E+00
  0.00000000E+00  0.00000000E+00  0.00000000E+00
  0.00000000E+00  0.00000000E+00  0.00000000E+00
  0.00000000E+00  0.00000000E+00  0.00000000E+00
  0.00000000E+00  0.00000000E+00  0.00000000E+00
  0.00000000E+00  0.00000000E+00  0.00000000E+00
  0.00000000E+00  0.00000000E+00  0.00000000E+00
  0.00000000E+00  0.00000000E+00  0.00000000E+00
  0.00000000E+00  0.00000000E+00  0.00000000E+00
  0.00000000E+00  0.00000000E+00  0.00000000E+00
  0.00000000E+00  0.00000000E+00  0.00000000E+00
  0.00000000E+00  0.00000000E+00  0.00000000E+00
  0.00000000E+00  0.00000000E+00  0.00000000E+00
  0.00000000E+00  0.00000000E+00  0.00000000E+00
  0.00000000E+00  0.00000000E+00  0.00000000E+00
  0.00000000E+00  0.00000000E+00  0.00000000E+00
  0.00000000E+00  0.00000000E+00  0.00000000E+00
  0.00000000E+00  0.00000000E+00  0.00000000E+00
  0.00000000E+00  0.00000000E+00  0.00000000E+00
  0.00000000E+00  0.00000000E+00  0.00000000E+00
  0.00000000E+00  0.00000000E+00  0.00000000E+00
  0.00000000E+00  0.00000000E+00  0.00000000E+00
  0.00000000E+00  0.00000000E+00  0.00000000E+00
  0.00000000E+00  0.00000000E+00  0.00000000E+00
  0.00000000E+00  0.00000000E+00  0.00000000E+00
  0.00000000E+00  0.00000000E+00  0.00000000E+00
  0.00000000E+00  0.00000000E+00  0.00000000E+00
  0.00000000E+00  0.00000000E+00  0.00000000E+00
  0.00000000E+00  0.00000000E+00  0.00000000E+00
  0.00000000E+00  0.00000000E+00  0.00000000E+00
  0.00000000E+00  0.00000000E+00  0.00000000E+00
  0.00000000E+00  0.00000000E+00  0.00000000E+00
  0.00000000E+00  0.00000000E+00  0.00000000E+00
  0.00000000E+00  0.00000000E+00  0.00000000E+00
  0.00000000E+00  0.00000000E+00  0.00000000E+00
  0.00000000E+00  0.00000000E+00  0.00000000E+00
  0.00000000E+00  0.00000000E+00  0.00000000E+00
  0.00000000E+00  0.00000000E+00  0.00000000E+00
  0.00000000E+00  0.00000000E+00  0.00000000E+00
  0.00000000E+00  0.00000000E+00  0.00000000E+00
  0.00000000E+00  0.00000000E+00  0.00000000E+00
  0.00000000E+00  0.00000000E+00  0.00000000E+00
  0.00000000E+00  0.00000000E+00  0.00000000E+00
  0.00000000E+00  0.00000000E+00  0.00000000E+00
  0.00000000E+00  0.00000000E+00  0.00000000E+00
  0.00000000E+00  0.00000000E+00  0.00000000E+00
  0.00000000E+00  0.00000000E+00  0.00000000E+00
  0.00000000E+00  0.00000000E+00  0.00000000E+00
  0.00000000E+00  0.00000000E+00  0.00000000E+00
  0.00000000E+00  0.00000000E+00  0.00000000E+00
  0.00000000E+00  0.00000000E+00  0.00000000E+00
  0.00000000E+00  0.00000000E+00  0.00000000E+00
  0.00000000E+00  0.00000000E+00  0.00000000E+00
  0.00000000E+00  0.00000000E+00  0.00000000E+00
  0.00000000E+00  0.00000000E+00  0.00000000E+00
  0.00000000E+00  0.00000000E+00  0.00000000E+00
  0.00000000E+00  0.00000000E+00  0.00000000E+00
  0.00000000E+00  0.00000000E+00  0.00000000E+00
  0.00000000E+00  0.00000000E+00  0.00000000E+00
  0.00000000E+00  0.00000000E+00  0.00000000E+00
  0.00000000E+00  0.00000000E+00  0.00000000E+00
  0.00000000E+00  0.00000000E+00  0.00000000E+00
  0.00000000E+00  0.00000000E+00  0.00000000E+00
  0.00000000E+00  0.00000000E+00  0.00000000E+00
  0.00000000E+00  0.00000000E+00  0.00000000E+00
  0.00000000E+00  0.00000000E+00  0.00000000E+00
  0.00000000E+00  0.00000000E+00  0.00000000E+00
  0.00000000E+00  0.00000000E+00  0.00000000E+00
  0.00000000E+00  0.00000000E+00  0.00000000E+00
  0.00000000E+00  0.00000000E+00  0.00000000E+00
  0.00000000E+00  0.00000000E+00  0.00000000E+00
  0.00000000E+00  0.00000000E+00  0.00000000E+00
  0.00000000E+00  0.00000000E+00  0.00000000E+00
  0.00000000E+00  0.00000000E+00  0.00000000E+00
  0.00000000E+00  0.00000000E+00  0.00000000E+00
  0.00000000E+00  0.00000000E+00  0.00000000E+00
  0.00000000E+00  0.00000000E+00  0.00000000E+00
  0.00000000E+00  0.00000000E+00  0.00000000E+00
  0.00000000E+00  0.00000000E+00  0.00000000E+00
  0.00000000E+00  0.00000000E+00  0.00000000E+00
  0.00000000E+00  0.00000000E+00  0.00000000E+00
  0.00000000E+00  0.00000000E+00  0.00000000E+00
  0.00000000E+00  0.00000000E+00  0.00000000E+00
  0.00000000E+00  0.00000000E+00  0.00000000E+00
  0.00000000E+00  0.00000000E+00  0.00000000E+00
  0.00000000E+00  0.00000000E+00  0.00000000E+00
  0.00000000E+00  0.00000000E+00  0.00000000E+00
  0.00000000E+00  0.00000000E+00  0.00000000E+00
  0.00000000E+00  0.00000000E+00  0.00000000E+00
  0.00000000E+00  0.00000000E+00  0.00000000E+00
  0.00000000E+00  0.00000000E+00  0.00000000E+00
  0.00000000E+00  0.00000000E+00  0.00000000E+00
  0.00000000E+00  0.00000000E+00  0.00000000E+00
  0.00000000E+00  0.00000000E+00  0.00000000E+00
  0.00000000E+00  0.00000000E+00  0.00000000E+00
  0.00000000E+00  0.00000000E+00  0.00000000E+00
  0.00000000E+00  0.00000000E+00  0.00000000E+00
  0.00000000E+00  0.00000000E+00  0.00000000E+00
  0.00000000E+00  0.00000000E+00  0.00000000E+00
  0.00000000E+00  0.00000000E+00  0.00000000E+00
  0.00000000E+00  0.00000000E+00  0.00000000E+00
  0.00000000E+00  0.00000000E+00  0.00000000E+00
  0.00000000E+00  0.00000000E+00  0.00000000E+00
  0.00000000E+00  0.00000000E+00  0.00000000E+00
  0.00000000E+00  0.00000000E+00  0.00000000E+00
  0.00000000E+00  0.00000000E+00  0.00000000E+00
  0.00000000E+00  0.00000000E+00  0.00000000E+00
  0.00000000E+00  0.00000000E+00  0.00000000E+00
  0.00000000E+00  0.00000000E+00  0.00000000E+00
  0.00000000E+00  0.00000000E+00  0.00000000E+00
  0.00000000E+00  0.00000000E+00  0.00000000E+00
  0.00000000E+00  0.00000000E+00  0.00000000E+00
  0.00000000E+00  0.00000000E+00  0.00000000E+00
  0.00000000E+00  0.00000000E+00  0.00000000E+00
  0.00000000E+00  0.00000000E+00  0.00000000E+00
  0.00000000E+00  0.00000000E+00  0.00000000E+00
  0.00000000E+00  0.00000000E+00  0.00000000E+00
  0.00000000E+00  0.00000000E+00  0.00000000E+00
  0.00000000E+00  0.00000000E+00  0.00000000E+00
  0.00000000E+00  0.00000000E+00  0.00000000E+00
  0.00000000E+00  0.00000000E+00  0.00000000E+00
  0.00000000E+00  0.00000000E+00  0.00000000E+00
  0.00000000E+00  0.00000000E+00  0.00000000E+00
