Generated by VASPKIT code               
   1.00000000000000     
    24.1695242717609204    0.1880703022238959    0.0000000000000000
   -11.9208725313606703   20.5860714931576361    0.0000000000000000
     0.0000000000000013    0.0000000000000022   21.9877136398468203
  C             
   264
Direct
  0.7021839737523579  0.2435388209420436  0.3949909447016687
  0.4638492079728092  0.7561327945156197  0.3991112050503581
  0.6331084646348487  0.2079185699683506  0.3949064613347616
  0.4930464160261851  0.7349330156140544  0.4445785662271334
  0.6110445018069161  0.2459937991918987  0.3618763219984129
  0.4715489252889673  0.6670380599413890  0.4338224464422445
  0.7228584053571148  0.3036150225023441  0.3619068243406888
  0.4243831615833879  0.7012483910545650  0.3602663288366018
  0.6664936496992193  0.3050982536833245  0.3414523139394823
  0.4295129179821559  0.6462269112340705  0.3816740412155533
  0.7761158277229542  0.3605940128391316  0.3816910602410291
  0.3659697810794489  0.6920800339820626  0.3389430788414499
  0.8104462192813070  0.3596328357402476  0.4353885596849477
  0.3448126865564684  0.7375076796503232  0.3557112192009036
  0.7353615138767077  0.2426661324218201  0.4466833073654503
  0.4436670106248444  0.8000069783177505  0.4152301058699973
  0.7902737341788100  0.3018551307981641  0.4671966263603949
  0.3829080591963327  0.7902637992113078  0.3931971852858827
  0.7013523523617198  0.2060097806881758  0.5001362964518868
  0.4522788769655141  0.8243252261475785  0.4771506105868594
  0.6002315612559540  0.1728433812038381  0.4465611690434269
  0.5014178985098559  0.7584278981507864  0.5040901888605548
  0.6348760181071759  0.1716531517155078  0.5001152987913106
  0.4808454401767375  0.8041833272481743  0.5208606634618729
  0.5443757915604439  0.1749874209801298  0.4670522920174178
  0.4885991124198391  0.7149385045918867  0.5550724460158373
  0.5568640626768057  0.2476649423722533  0.3816873223908664
  0.4594908772962039  0.6252965051922283  0.4828771572464861
  0.5231319360654259  0.2115904351398768  0.4352985554847253
  0.4680997546881430  0.6496472202453127  0.5446177648186151
  0.5557064386009193  0.3081650351461077  0.3815920040568289
  0.4049825597380106  0.5607713331907570  0.4820135067340834
  0.6655525837587997  0.3634666443833706  0.3414492596236619
  0.3764578081067173  0.5840261816924516  0.3807274473211257
  0.6091183065436867  0.3649855423628948  0.3619063222590813
  0.3640013390827051  0.5405983648671283  0.4318130578682585
  0.7754020096089431  0.4212439409370192  0.3815442911965098
  0.3106788151914534  0.6276098511652405  0.3380824052656414
  0.7209917335517942  0.4225393864521617  0.3618858984074765
  0.3158657139036541  0.5746476459619441  0.3585856475978253
  0.8315250491617014  0.4195408957181351  0.4682932838526851
  0.2764500017197820  0.7011495679744889  0.3652151288595123
  0.8096901097400604  0.4577014224870318  0.4351045662808105
  0.2553575303343741  0.6332839414639292  0.3543027903261393
  0.8315062228074057  0.4195479790455235  0.5320360485823027
  0.2486200549863320  0.7188607921448666  0.4118056964073712
  0.7902274904752991  0.3018601119140226  0.5331166346862459
  0.3540565861518600  0.8083198587341601  0.4415551499437690
  0.7353306666747507  0.2426616452984221  0.5536077813132535
  0.3967646120221072  0.8294131193379776  0.4933736822611660
  0.8103943299122962  0.3596227138364139  0.5649214840223140
  0.2882598409278505  0.7733359068510253  0.4506561817374174
  0.7021091436953665  0.2435158603921848  0.6052882590365687
  0.3721864607593093  0.8145964969817270  0.5524172004820720
  0.6001894722354124  0.1728290309788084  0.5536542605277028
  0.4553523758382619  0.7887881601351358  0.5822502834402918
  0.5443524712194118  0.1749836938201516  0.5331175373433351
  0.4604543865139651  0.7337142639262830  0.6034690495385725
  0.6330409147987457  0.2079029079544973  0.6053197244739195
  0.4019988187920707  0.7940318114341370  0.5978476247034928
  0.5230760455399139  0.2115736770449730  0.5648500616881057
  0.4125227593857969  0.6862204673436256  0.6397176942079285
  0.5007982360740890  0.2494212058532942  0.4682876085598710
  0.4189653391373606  0.6003887130426481  0.5822235436420424
  0.5208655819298613  0.3091084606918335  0.4350965376153617
  0.3796667012856904  0.5453669511680708  0.5434635286815261
  0.5007722829795940  0.2494146996963376  0.5318391695261075
  0.3914476184993547  0.6183532014060489  0.6289072377380043
  0.5404670954717319  0.3667812543902707  0.4670168568330735
  0.3139682829808849  0.5105774661123030  0.5526333585321530
  0.6296591483728197  0.4248764828097849  0.3950949707722501
  0.2957256466597330  0.5044694389494399  0.4413802846126992
  0.6987710154089144  0.4603537014890303  0.3950585498111299
  0.2660130402391163  0.5255175831243589  0.3961020399675921
  0.5960266400965268  0.4256678746694305  0.4465803031026334
  0.2713659261082260  0.4900271051935846  0.5005921990476344
  0.7883324621488285  0.4941122633731668  0.4670712205243205
  0.2073113174284474  0.5859358897632454  0.3904887174699143
  0.7316942288701324  0.4950694001050007  0.4467115518297359
  0.2130458322075761  0.5313508731620885  0.4118501731084241
  0.8096528260697288  0.4576997997775400  0.5652100638055646
  0.1985619019263095  0.6697245698190806  0.4492193250724361
  0.7883097579490765  0.4941077338266642  0.5332255326615523
  0.1784074673134918  0.6044607077843209  0.4387712898253299
  0.7760305003230300  0.3605733194008801  0.6186075319882061
  0.2627228583193222  0.7579958729011892  0.5119315216166272
  0.7227616907694681  0.3035849944790251  0.6383593038020799
  0.3039024619329844  0.7782160285094384  0.5618781102301830
  0.7753131366111207  0.4212209257192915  0.6187507190873528
  0.2072051308287532  0.6940130127736468  0.5111314035499299
  0.6109445452338387  0.2459700824748352  0.6383237994165135
  0.3520398188723402  0.7447687280483637  0.6353865745696137
  0.5567738787080748  0.2476372007558053  0.6184854688500848
  0.3571881936341776  0.6918583930028890  0.6559277978588576
  0.6663796532000477  0.3050624661446809  0.6587738846416528
  0.2913774209095294  0.7351919916286889  0.6131664230573172
  0.5208127915797804  0.3090922790444015  0.5650344431090393
  0.3230947550525913  0.5820371742158859  0.6384528874297979
  0.5404432614543728  0.3667697050243184  0.5331260839333842
  0.2851866182687138  0.5292759424495743  0.6009065310924470
  0.5556247027905030  0.3081389436541294  0.6185660202093023
  0.3018491437379136  0.6274285139488430  0.6551386083815335
  0.6303168476571608  0.4616100301596315  0.5001046729800391
  0.2166582576772500  0.4964125860582639  0.5167893061601200
  0.6967576110230024  0.4953235522683804  0.5001224532750680
  0.1880421226116783  0.5165239195585439  0.4732608720064281
  0.7316590784068250  0.4950549617425492  0.5535472708087367
  0.1664452947073172  0.5614502122930088  0.4899516902854051
  0.5959865320234917  0.4256569483785542  0.5536031987387529
  0.2248847484278794  0.5203160509664861  0.5786661886800675
  0.7208945989102601  0.4225096167752976  0.6383746267976563
  0.1952309235023411  0.6523380198875675  0.5604620897853954
  0.6654410078087407  0.3634342968233238  0.6587755718889287
  0.2379982492498150  0.6732465135677803  0.6124322652670882
  0.6090166098749017  0.3649544468831005  0.6382856918900950
  0.2434362514600054  0.6183627455133344  0.6337410716009291
  0.6986925170967212  0.4603381917100621  0.6051910342932383
  0.1743769383579551  0.5846314048421610  0.5495790646014008
  0.6295778387508723  0.4248534881758927  0.6051178227823361
  0.2041516941573882  0.5636780999929331  0.5948680574907178
  0.0029638104381542  0.0643863449790450  0.6217497675824507
  0.0539614655416862  0.2831352691988217  0.6195794500937681
  0.2198639948998535  0.9410208453906155  0.6205720899565852
  0.7274282865844885  0.7886190502456840  0.6196103190020892
  0.0600457325919168  0.0609745160556805  0.6181005586591827
  0.9984624172253294  0.2214439212731277  0.6221739069704745
  0.2194030530630323  0.0004329177590909  0.6227214654913006
  0.7849607055766207  0.7862603952935220  0.6217714824467939
  0.0948405939093254  0.0966471737539746  0.5640437191793528
  0.0001681828383153  0.1772866663728716  0.5697295038076071
  0.1762676635416050  0.0024985955935523  0.5700793864465079
  0.8307496921119836  0.8292153848987358  0.5694606331286961
  0.0024662111652555  0.1104874341024985  0.5695150183123703
  0.0904558683654527  0.2855933432634523  0.5647255389044002
  0.1844899175115644  0.9051274618115086  0.5658493673095359
  0.7288739127241238  0.8256233693741973  0.5649819384847211
  0.0606314398262090  0.1211015922896040  0.5327407077975436
  0.0573160299474499  0.2280368131709327  0.5331726718378225
  0.1653763546535350  0.9425955804664696  0.5339277111703026
  0.7841293139734715  0.8426178339411416  0.5331912727813430
  0.9451948956673707  0.0615891203585047  0.5325823692491074
  0.1130586784228000  0.3464989149612553  0.5333561389761360
  0.2179361421097701  0.8771982833252215  0.5347377536417779
  0.6683304203384470  0.7938161858553769  0.5335416322242404
  0.9467403086568018  0.0029376833900699  0.6181965348234432
  0.0523989075730915  0.3419252917993905  0.6203250944851850
  0.2765233520494292  0.9371164316502055  0.6213153261398707
  0.6664620503820556  0.7325804457797453  0.6200559861759575
  0.9119345087860685  0.0028488555674150  0.5639508041357219
  0.0879936913604800  0.3802594830956226  0.5659646729109742
  0.2754602823135588  0.8988255490907128  0.5672268025101355
  0.6311548211664539  0.7356200145742426  0.5657812598822851
  0.9436738735204648  0.9416203541663019  0.6217288907705431
  0.9929469191227629  0.3399243370990273  0.6203373209791843
  0.3361015113303735  0.9947242233780240  0.6210622779946811
  0.6617052648934770  0.6708331182656971  0.6195251686046925
  0.0642339179018434  0.0034542277161949  0.6216617608412113
  0.9398933974645801  0.2217199744257820  0.6203080812887523
  0.2801184490726761  0.0569120954805298  0.6204770605866884
  0.7779378872951360  0.7235032471783117  0.6193458886402172
  0.0042244131496087  0.9455671292947082  0.6180758952374181
  0.9361991674389121  0.2793554546766342  0.6209365687613959
  0.3378746680833145  0.0550747383976951  0.6212212849690307
  0.7177912008753904  0.6662013655101724  0.6198121457587151
  0.1197907868254326  0.0626698784196176  0.5328113889329535
  0.9407987193375126  0.1656443527748377  0.5338466150126203
  0.2262771465331275  0.0611215403832689  0.5340228002926790
  0.8369826673646426  0.7773071190574304  0.5331770154878294
  0.1098836306988273  0.0037465043816433  0.5695549367059498
  0.9041868553283876  0.1853272636079525  0.5658703838282466
  0.2828158905085624  0.0944289098646647  0.5658128760343837
  0.8115189081893305  0.7194769473207672  0.5647036117858795
  0.1198736506212090  0.0627088441092352  0.4694556075520103
  0.9404960861005843  0.1654706412691471  0.4689177901117160
  0.2264029267732292  0.0611177417613637  0.4690593838086883
  0.8369773739148719  0.7773613134588718  0.4682368373287983
  0.0606663247620514  0.1211656034879142  0.4693182780619893
  0.0570111844777367  0.2279575666177539  0.4683749892893487
  0.1655007416048484  0.9425600127848607  0.4691649560131863
  0.7841667744748536  0.8426897413168489  0.4683973067062604
  0.0949405212804841  0.0966818664507770  0.4381465748690862
  0.9995702713081960  0.1770748321686538  0.4323578171011934
  0.1765750910401786  0.0024863329888369  0.4328359457073621
  0.8308478464806943  0.8293908065930784  0.4321071176318657
  0.9452177447066069  0.0615614740084005  0.4692917671703703
  0.1127619396688990  0.3464484646298752  0.4678759536339355
  0.2180862614486038  0.8771822050314581  0.4691516045896196
  0.6683723249037279  0.7938682001763775  0.4678582098401496
  0.0024558711115288  0.1105001529701820  0.4324588473456489
  0.0897570546236113  0.2854335910010086  0.4366116365943157
  0.1847850976399673  0.9050526965987176  0.4376189390767773
  0.7289521771870209  0.8257587781677701  0.4365400575858019
  0.9120652750159709  0.0028667302324041  0.4378544330553186
  0.0871800055464173  0.3799825118901071  0.4357543816035095
  0.2758071047573446  0.8988814411088748  0.4370132479556342
  0.6311326224441944  0.7358245506077614  0.4354211875350817
  0.8890888039788020  0.9443443228064736  0.5325151676763591
  0.0501330453177035  0.4020927792995384  0.5339438084481796
  0.3349410539562759  0.9333571904921825  0.5350417296571666
  0.6047169158947570  0.6752353142187817  0.5332817609348558
  0.8985963907029001  0.8953739827701637  0.5694614333225385
  0.9911093545053954  0.3759811314062697  0.5661545132669793
  0.3717066830502587  0.9929793025798231  0.5668956195872343
  0.6243192978901744  0.6358292914511536  0.5651360960766728
  0.8891831008130512  0.9443514734256939  0.4692746309700750
  0.0496508864240449  0.4018198727994971  0.4683807925620532
  0.3350899044918150  0.9334418331221709  0.4694910412992804
  0.6047035564761768  0.6753273663083582  0.4677468228034927
  0.0045032347892407  0.9100382734853214  0.5640067850344869
  0.8984312063125753  0.2780404678577107  0.5669143106365009
  0.3756313925681851  0.0914209756393226  0.5671118812412443
  0.7147523286245736  0.6272683802003547  0.5655185292302320
  0.0622417075027790  0.9450491720058266  0.5327388950846541
  0.8767788603038363  0.2193799278992883  0.5346704661136972
  0.3429866344267105  0.1174990970875911  0.5346647377052083
  0.7730260228242137  0.6588652385496118  0.5332676131118534
  0.9463658137479787  0.8845765443895903  0.5327107585356685
  0.9325773193705867  0.3383464738390842  0.5344791023755548
  0.3972572919305329  0.0530788432310685  0.5349809724189116
  0.6562570382992814  0.6076923828006092  0.5331763528637321
  0.1101428045930772  0.0037871981558884  0.4327873780080019
  0.9035465277154322  0.1851412583668232  0.4374589472471869
  0.2831245441481687  0.0943528129323596  0.4375712856897321
  0.8116510081738756  0.7196647726909094  0.4365119631363236
  0.0623385715779610  0.9450780379316077  0.4694781517239255
  0.8764304377219326  0.2192492518774316  0.4691005887930064
  0.3431514590304013  0.1174785698236696  0.4690787214439934
  0.7731052003253842  0.6589766493472204  0.4677481409631218
  0.0603054641837204  0.0610539818487601  0.3840479606614387
  0.9971105584173688  0.2210393029826332  0.3800728659585905
  0.2200601904852890  0.0003392193769430  0.3805564474844281
  0.7851345658330677  0.7866137776008488  0.3796862079361973
  0.0032255579649944  0.0644749413678441  0.3802314851707108
  0.0526053459175612  0.2827475002523812  0.3821768662007684
  0.2204982940250759  0.9409005905392147  0.3829834110867718
  0.7276093003845356  0.7889684951416162  0.3817959866065526
  0.9470087393346706  0.0030081968983620  0.3836948658988392
  0.0509639406019937  0.3415204141067105  0.3817140293026086
  0.2771556484550163  0.9370105641114723  0.3826838309657936
  0.6666165610740504  0.7329306306247285  0.3811965032785127
  0.0646135607445919  0.0035734299427755  0.3804971844449238
  0.9385424321740019  0.2213209333763758  0.3826817797832081
  0.2807530421680946  0.0568295824155572  0.3830324012751311
  0.7781409240205878  0.7238753719566579  0.3818931132097703
  0.8987551720354896  0.8954353928855503  0.4323520506130196
  0.9903272612068521  0.3757608135098093  0.4367950582739618
  0.3720527863456592  0.9929546619793610  0.4376498740723598
  0.6243793276934493  0.6360224829503393  0.4357588584371580
  0.9464489017734995  0.8846002233435014  0.4692261668453400
  0.9322078068770602  0.3382049696195343  0.4690840280361230
  0.3974568524822695  0.0530929634059886  0.4694855661759024
  0.6563145254085572  0.6078359658434057  0.4676710611646828
  0.0046602159677074  0.9100897501710492  0.4380659760646566
  0.8977146392286234  0.2778137842489981  0.4368402170102896
  0.3759432567849038  0.0913425725049818  0.4370200434165151
  0.7148527872130082  0.6274900215877794  0.4353846197015437
  0.9439942039840866  0.9417290472385986  0.3801938058779728
  0.9915567432374977  0.3395150025957342  0.3824914204142684
  0.3367102285740177  0.9946365671932960  0.3832067864950146
  0.6618476335263528  0.6711834723638330  0.3815037165201878
  0.0045440204232344  0.9456978184506912  0.3839891911257496
  0.9348118980240784  0.2789618502623955  0.3823378367639884
  0.3385282381017155  0.0549926633299117  0.3827560617996493
  0.7179939021252216  0.6666128834280419  0.3812709896954533
 
  0.00000000E+00  0.00000000E+00  0.00000000E+00
  0.00000000E+00  0.00000000E+00  0.00000000E+00
  0.00000000E+00  0.00000000E+00  0.00000000E+00
  0.00000000E+00  0.00000000E+00  0.00000000E+00
  0.00000000E+00  0.00000000E+00  0.00000000E+00
  0.00000000E+00  0.00000000E+00  0.00000000E+00
  0.00000000E+00  0.00000000E+00  0.00000000E+00
  0.00000000E+00  0.00000000E+00  0.00000000E+00
  0.00000000E+00  0.00000000E+00  0.00000000E+00
  0.00000000E+00  0.00000000E+00  0.00000000E+00
  0.00000000E+00  0.00000000E+00  0.00000000E+00
  0.00000000E+00  0.00000000E+00  0.00000000E+00
  0.00000000E+00  0.00000000E+00  0.00000000E+00
  0.00000000E+00  0.00000000E+00  0.00000000E+00
  0.00000000E+00  0.00000000E+00  0.00000000E+00
  0.00000000E+00  0.00000000E+00  0.00000000E+00
  0.00000000E+00  0.00000000E+00  0.00000000E+00
  0.00000000E+00  0.00000000E+00  0.00000000E+00
  0.00000000E+00  0.00000000E+00  0.00000000E+00
  0.00000000E+00  0.00000000E+00  0.00000000E+00
  0.00000000E+00  0.00000000E+00  0.00000000E+00
  0.00000000E+00  0.00000000E+00  0.00000000E+00
  0.00000000E+00  0.00000000E+00  0.00000000E+00
  0.00000000E+00  0.00000000E+00  0.00000000E+00
  0.00000000E+00  0.00000000E+00  0.00000000E+00
  0.00000000E+00  0.00000000E+00  0.00000000E+00
  0.00000000E+00  0.00000000E+00  0.00000000E+00
  0.00000000E+00  0.00000000E+00  0.00000000E+00
  0.00000000E+00  0.00000000E+00  0.00000000E+00
  0.00000000E+00  0.00000000E+00  0.00000000E+00
  0.00000000E+00  0.00000000E+00  0.00000000E+00
  0.00000000E+00  0.00000000E+00  0.00000000E+00
  0.00000000E+00  0.00000000E+00  0.00000000E+00
  0.00000000E+00  0.00000000E+00  0.00000000E+00
  0.00000000E+00  0.00000000E+00  0.00000000E+00
  0.00000000E+00  0.00000000E+00  0.00000000E+00
  0.00000000E+00  0.00000000E+00  0.00000000E+00
  0.00000000E+00  0.00000000E+00  0.00000000E+00
  0.00000000E+00  0.00000000E+00  0.00000000E+00
  0.00000000E+00  0.00000000E+00  0.00000000E+00
  0.00000000E+00  0.00000000E+00  0.00000000E+00
  0.00000000E+00  0.00000000E+00  0.00000000E+00
  0.00000000E+00  0.00000000E+00  0.00000000E+00
  0.00000000E+00  0.00000000E+00  0.00000000E+00
  0.00000000E+00  0.00000000E+00  0.00000000E+00
  0.00000000E+00  0.00000000E+00  0.00000000E+00
  0.00000000E+00  0.00000000E+00  0.00000000E+00
  0.00000000E+00  0.00000000E+00  0.00000000E+00
  0.00000000E+00  0.00000000E+00  0.00000000E+00
  0.00000000E+00  0.00000000E+00  0.00000000E+00
  0.00000000E+00  0.00000000E+00  0.00000000E+00
  0.00000000E+00  0.00000000E+00  0.00000000E+00
  0.00000000E+00  0.00000000E+00  0.00000000E+00
  0.00000000E+00  0.00000000E+00  0.00000000E+00
  0.00000000E+00  0.00000000E+00  0.00000000E+00
  0.00000000E+00  0.00000000E+00  0.00000000E+00
  0.00000000E+00  0.00000000E+00  0.00000000E+00
  0.00000000E+00  0.00000000E+00  0.00000000E+00
  0.00000000E+00  0.00000000E+00  0.00000000E+00
  0.00000000E+00  0.00000000E+00  0.00000000E+00
  0.00000000E+00  0.00000000E+00  0.00000000E+00
  0.00000000E+00  0.00000000E+00  0.00000000E+00
  0.00000000E+00  0.00000000E+00  0.00000000E+00
  0.00000000E+00  0.00000000E+00  0.00000000E+00
  0.00000000E+00  0.00000000E+00  0.00000000E+00
  0.00000000E+00  0.00000000E+00  0.00000000E+00
  0.00000000E+00  0.00000000E+00  0.00000000E+00
  0.00000000E+00  0.00000000E+00  0.00000000E+00
  0.00000000E+00  0.00000000E+00  0.00000000E+00
  0.00000000E+00  0.00000000E+00  0.00000000E+00
  0.00000000E+00  0.00000000E+00  0.00000000E+00
  0.00000000E+00  0.00000000E+00  0.00000000E+00
  0.00000000E+00  0.00000000E+00  0.00000000E+00
  0.00000000E+00  0.00000000E+00  0.00000000E+00
  0.00000000E+00  0.00000000E+00  0.00000000E+00
  0.00000000E+00  0.00000000E+00  0.00000000E+00
  0.00000000E+00  0.00000000E+00  0.00000000E+00
  0.00000000E+00  0.00000000E+00  0.00000000E+00
  0.00000000E+00  0.00000000E+00  0.00000000E+00
  0.00000000E+00  0.00000000E+00  0.00000000E+00
  0.00000000E+00  0.00000000E+00  0.00000000E+00
  0.00000000E+00  0.00000000E+00  0.00000000E+00
  0.00000000E+00  0.00000000E+00  0.00000000E+00
  0.00000000E+00  0.00000000E+00  0.00000000E+00
  0.00000000E+00  0.00000000E+00  0.00000000E+00
  0.00000000E+00  0.00000000E+00  0.00000000E+00
  0.00000000E+00  0.00000000E+00  0.00000000E+00
  0.00000000E+00  0.00000000E+00  0.00000000E+00
  0.00000000E+00  0.00000000E+00  0.00000000E+00
  0.00000000E+00  0.00000000E+00  0.00000000E+00
  0.00000000E+00  0.00000000E+00  0.00000000E+00
  0.00000000E+00  0.00000000E+00  0.00000000E+00
  0.00000000E+00  0.00000000E+00  0.00000000E+00
  0.00000000E+00  0.00000000E+00  0.00000000E+00
  0.00000000E+00  0.00000000E+00  0.00000000E+00
  0.00000000E+00  0.00000000E+00  0.00000000E+00
  0.00000000E+00  0.00000000E+00  0.00000000E+00
  0.00000000E+00  0.00000000E+00  0.00000000E+00
  0.00000000E+00  0.00000000E+00  0.00000000E+00
  0.00000000E+00  0.00000000E+00  0.00000000E+00
  0.00000000E+00  0.00000000E+00  0.00000000E+00
  0.00000000E+00  0.00000000E+00  0.00000000E+00
  0.00000000E+00  0.00000000E+00  0.00000000E+00
  0.00000000E+00  0.00000000E+00  0.00000000E+00
  0.00000000E+00  0.00000000E+00  0.00000000E+00
  0.00000000E+00  0.00000000E+00  0.00000000E+00
  0.00000000E+00  0.00000000E+00  0.00000000E+00
  0.00000000E+00  0.00000000E+00  0.00000000E+00
  0.00000000E+00  0.00000000E+00  0.00000000E+00
  0.00000000E+00  0.00000000E+00  0.00000000E+00
  0.00000000E+00  0.00000000E+00  0.00000000E+00
  0.00000000E+00  0.00000000E+00  0.00000000E+00
  0.00000000E+00  0.00000000E+00  0.00000000E+00
  0.00000000E+00  0.00000000E+00  0.00000000E+00
  0.00000000E+00  0.00000000E+00  0.00000000E+00
  0.00000000E+00  0.00000000E+00  0.00000000E+00
  0.00000000E+00  0.00000000E+00  0.00000000E+00
  0.00000000E+00  0.00000000E+00  0.00000000E+00
  0.00000000E+00  0.00000000E+00  0.00000000E+00
  0.00000000E+00  0.00000000E+00  0.00000000E+00
  0.00000000E+00  0.00000000E+00  0.00000000E+00
  0.00000000E+00  0.00000000E+00  0.00000000E+00
  0.00000000E+00  0.00000000E+00  0.00000000E+00
  0.00000000E+00  0.00000000E+00  0.00000000E+00
  0.00000000E+00  0.00000000E+00  0.00000000E+00
  0.00000000E+00  0.00000000E+00  0.00000000E+00
  0.00000000E+00  0.00000000E+00  0.00000000E+00
  0.00000000E+00  0.00000000E+00  0.00000000E+00
  0.00000000E+00  0.00000000E+00  0.00000000E+00
  0.00000000E+00  0.00000000E+00  0.00000000E+00
  0.00000000E+00  0.00000000E+00  0.00000000E+00
  0.00000000E+00  0.00000000E+00  0.00000000E+00
  0.00000000E+00  0.00000000E+00  0.00000000E+00
  0.00000000E+00  0.00000000E+00  0.00000000E+00
  0.00000000E+00  0.00000000E+00  0.00000000E+00
  0.00000000E+00  0.00000000E+00  0.00000000E+00
  0.00000000E+00  0.00000000E+00  0.00000000E+00
  0.00000000E+00  0.00000000E+00  0.00000000E+00
  0.00000000E+00  0.00000000E+00  0.00000000E+00
  0.00000000E+00  0.00000000E+00  0.00000000E+00
  0.00000000E+00  0.00000000E+00  0.00000000E+00
  0.00000000E+00  0.00000000E+00  0.00000000E+00
  0.00000000E+00  0.00000000E+00  0.00000000E+00
  0.00000000E+00  0.00000000E+00  0.00000000E+00
  0.00000000E+00  0.00000000E+00  0.00000000E+00
  0.00000000E+00  0.00000000E+00  0.00000000E+00
  0.00000000E+00  0.00000000E+00  0.00000000E+00
  0.00000000E+00  0.00000000E+00  0.00000000E+00
  0.00000000E+00  0.00000000E+00  0.00000000E+00
  0.00000000E+00  0.00000000E+00  0.00000000E+00
  0.00000000E+00  0.00000000E+00  0.00000000E+00
  0.00000000E+00  0.00000000E+00  0.00000000E+00
  0.00000000E+00  0.00000000E+00  0.00000000E+00
  0.00000000E+00  0.00000000E+00  0.00000000E+00
  0.00000000E+00  0.00000000E+00  0.00000000E+00
  0.00000000E+00  0.00000000E+00  0.00000000E+00
  0.00000000E+00  0.00000000E+00  0.00000000E+00
  0.00000000E+00  0.00000000E+00  0.00000000E+00
  0.00000000E+00  0.00000000E+00  0.00000000E+00
  0.00000000E+00  0.00000000E+00  0.00000000E+00
  0.00000000E+00  0.00000000E+00  0.00000000E+00
  0.00000000E+00  0.00000000E+00  0.00000000E+00
  0.00000000E+00  0.00000000E+00  0.00000000E+00
  0.00000000E+00  0.00000000E+00  0.00000000E+00
  0.00000000E+00  0.00000000E+00  0.00000000E+00
  0.00000000E+00  0.00000000E+00  0.00000000E+00
  0.00000000E+00  0.00000000E+00  0.00000000E+00
  0.00000000E+00  0.00000000E+00  0.00000000E+00
  0.00000000E+00  0.00000000E+00  0.00000000E+00
  0.00000000E+00  0.00000000E+00  0.00000000E+00
  0.00000000E+00  0.00000000E+00  0.00000000E+00
  0.00000000E+00  0.00000000E+00  0.00000000E+00
  0.00000000E+00  0.00000000E+00  0.00000000E+00
  0.00000000E+00  0.00000000E+00  0.00000000E+00
  0.00000000E+00  0.00000000E+00  0.00000000E+00
  0.00000000E+00  0.00000000E+00  0.00000000E+00
  0.00000000E+00  0.00000000E+00  0.00000000E+00
  0.00000000E+00  0.00000000E+00  0.00000000E+00
  0.00000000E+00  0.00000000E+00  0.00000000E+00
  0.00000000E+00  0.00000000E+00  0.00000000E+00
  0.00000000E+00  0.00000000E+00  0.00000000E+00
  0.00000000E+00  0.00000000E+00  0.00000000E+00
  0.00000000E+00  0.00000000E+00  0.00000000E+00
  0.00000000E+00  0.00000000E+00  0.00000000E+00
  0.00000000E+00  0.00000000E+00  0.00000000E+00
  0.00000000E+00  0.00000000E+00  0.00000000E+00
  0.00000000E+00  0.00000000E+00  0.00000000E+00
  0.00000000E+00  0.00000000E+00  0.00000000E+00
  0.00000000E+00  0.00000000E+00  0.00000000E+00
  0.00000000E+00  0.00000000E+00  0.00000000E+00
  0.00000000E+00  0.00000000E+00  0.00000000E+00
  0.00000000E+00  0.00000000E+00  0.00000000E+00
  0.00000000E+00  0.00000000E+00  0.00000000E+00
  0.00000000E+00  0.00000000E+00  0.00000000E+00
  0.00000000E+00  0.00000000E+00  0.00000000E+00
  0.00000000E+00  0.00000000E+00  0.00000000E+00
  0.00000000E+00  0.00000000E+00  0.00000000E+00
  0.00000000E+00  0.00000000E+00  0.00000000E+00
  0.00000000E+00  0.00000000E+00  0.00000000E+00
  0.00000000E+00  0.00000000E+00  0.00000000E+00
  0.00000000E+00  0.00000000E+00  0.00000000E+00
  0.00000000E+00  0.00000000E+00  0.00000000E+00
  0.00000000E+00  0.00000000E+00  0.00000000E+00
  0.00000000E+00  0.00000000E+00  0.00000000E+00
  0.00000000E+00  0.00000000E+00  0.00000000E+00
  0.00000000E+00  0.00000000E+00  0.00000000E+00
  0.00000000E+00  0.00000000E+00  0.00000000E+00
  0.00000000E+00  0.00000000E+00  0.00000000E+00
  0.00000000E+00  0.00000000E+00  0.00000000E+00
  0.00000000E+00  0.00000000E+00  0.00000000E+00
  0.00000000E+00  0.00000000E+00  0.00000000E+00
  0.00000000E+00  0.00000000E+00  0.00000000E+00
  0.00000000E+00  0.00000000E+00  0.00000000E+00
  0.00000000E+00  0.00000000E+00  0.00000000E+00
  0.00000000E+00  0.00000000E+00  0.00000000E+00
  0.00000000E+00  0.00000000E+00  0.00000000E+00
  0.00000000E+00  0.00000000E+00  0.00000000E+00
  0.00000000E+00  0.00000000E+00  0.00000000E+00
  0.00000000E+00  0.00000000E+00  0.00000000E+00
  0.00000000E+00  0.00000000E+00  0.00000000E+00
  0.00000000E+00  0.00000000E+00  0.00000000E+00
  0.00000000E+00  0.00000000E+00  0.00000000E+00
  0.00000000E+00  0.00000000E+00  0.00000000E+00
  0.00000000E+00  0.00000000E+00  0.00000000E+00
  0.00000000E+00  0.00000000E+00  0.00000000E+00
  0.00000000E+00  0.00000000E+00  0.00000000E+00
  0.00000000E+00  0.00000000E+00  0.00000000E+00
  0.00000000E+00  0.00000000E+00  0.00000000E+00
  0.00000000E+00  0.00000000E+00  0.00000000E+00
  0.00000000E+00  0.00000000E+00  0.00000000E+00
  0.00000000E+00  0.00000000E+00  0.00000000E+00
  0.00000000E+00  0.00000000E+00  0.00000000E+00
  0.00000000E+00  0.00000000E+00  0.00000000E+00
  0.00000000E+00  0.00000000E+00  0.00000000E+00
  0.00000000E+00  0.00000000E+00  0.00000000E+00
  0.00000000E+00  0.00000000E+00  0.00000000E+00
  0.00000000E+00  0.00000000E+00  0.00000000E+00
  0.00000000E+00  0.00000000E+00  0.00000000E+00
  0.00000000E+00  0.00000000E+00  0.00000000E+00
  0.00000000E+00  0.00000000E+00  0.00000000E+00
  0.00000000E+00  0.00000000E+00  0.00000000E+00
  0.00000000E+00  0.00000000E+00  0.00000000E+00
  0.00000000E+00  0.00000000E+00  0.00000000E+00
  0.00000000E+00  0.00000000E+00  0.00000000E+00
  0.00000000E+00  0.00000000E+00  0.00000000E+00
  0.00000000E+00  0.00000000E+00  0.00000000E+00
  0.00000000E+00  0.00000000E+00  0.00000000E+00
  0.00000000E+00  0.00000000E+00  0.00000000E+00
  0.00000000E+00  0.00000000E+00  0.00000000E+00
  0.00000000E+00  0.00000000E+00  0.00000000E+00
  0.00000000E+00  0.00000000E+00  0.00000000E+00
  0.00000000E+00  0.00000000E+00  0.00000000E+00
  0.00000000E+00  0.00000000E+00  0.00000000E+00
  0.00000000E+00  0.00000000E+00  0.00000000E+00
  0.00000000E+00  0.00000000E+00  0.00000000E+00
  0.00000000E+00  0.00000000E+00  0.00000000E+00
  0.00000000E+00  0.00000000E+00  0.00000000E+00
  0.00000000E+00  0.00000000E+00  0.00000000E+00
  0.00000000E+00  0.00000000E+00  0.00000000E+00
  0.00000000E+00  0.00000000E+00  0.00000000E+00
  0.00000000E+00  0.00000000E+00  0.00000000E+00
  0.00000000E+00  0.00000000E+00  0.00000000E+00
  0.00000000E+00  0.00000000E+00  0.00000000E+00
  0.00000000E+00  0.00000000E+00  0.00000000E+00
