Generated by VASPKIT code               
   1.00000000000000     
    26.9253763974731086   -0.0140510861582741    0.0000000000000000
   -13.4690859497452742   23.1775498227553811    0.0000000000000000
     0.0000000000000013    0.0000000000000022   21.9768810739296434
  C             
   336
Direct
  0.3188117471012105  0.7086573001394354  0.6508234545204749
  0.6811835279334555  0.2913403121815909  0.6508167396396694
  0.2826530127993793  0.6462233394484730  0.6506014957614956
  0.7173400190053705  0.3537752692054077  0.6505948659697846
  0.3199101465647143  0.6215609688961636  0.6507088943970741
  0.6800790871192676  0.3784326195048873  0.6507024543359873
  0.3783901270739330  0.7225416072378382  0.6510509361652065
  0.6216040497883771  0.2774528998794089  0.6510443942638338
  0.3790833197210052  0.6687053304302076  0.6509209373830054
  0.6209060065602117  0.3312865152020916  0.6509132736109555
  0.4194139899685151  0.7698096541556306  0.6177231612623203
  0.5805803361741037  0.2301846473188477  0.6177161519097961
  0.4026582705578843  0.8051179342729273  0.5829723760858803
  0.5973380065348447  0.1948775619697722  0.5829611885760656
  0.3026965038809885  0.7426603288533613  0.6173918548300332
  0.6973006497568213  0.2573392705095711  0.6173844404252212
  0.3454109747757418  0.7918517439597167  0.5828026804821251
  0.6545867505193433  0.2081470448020696  0.5827948030496000
  0.2498417214855279  0.7153581769294436  0.5823295201297199
  0.7501561882383709  0.2846441011063877  0.5823218287542130
  0.2315213511847155  0.6199354242431284  0.6170389228200164
  0.7684714274050980  0.3800656079433880  0.6170325012693383
  0.2148887857309882  0.6551964579337411  0.5821732229311385
  0.7851068076427108  0.3448059742914358  0.5821660562589906
  0.2156677018284021  0.5679427467688246  0.5821929734547513
  0.7843210643377948  0.4320570169741378  0.5821870525849965
  0.3047163720736302  0.5716116749101625  0.6170636419167971
  0.6952689206099454  0.4283819685322625  0.6170573843919607
  0.2516409064510649  0.5443188267760449  0.5822142265932891
  0.7483459150564469  0.4556783424243628  0.5822099356357817
  0.3481320487947374  0.5670453848926910  0.5822966162141766
  0.6518540072753268  0.4329469079369455  0.5822906787934266
  0.4208513786123028  0.6640582366550146  0.6175509252600315
  0.5791379585049681  0.3359334251102990  0.6175457404900188
  0.4051706135964157  0.6122475124678359  0.5825869756548716
  0.5948164156098044  0.3877442251226014  0.5825803643973988
  0.4624026902573427  0.7646955735802873  0.5828825475653597
  0.5375905227695824  0.2352969681544761  0.5828760554159845
  0.4634207485662965  0.7130669657671779  0.5829381076625834
  0.5365691001434618  0.2869247731439220  0.5829297609494797
  0.4351952600215028  0.8216496375128565  0.5266422151420541
  0.5648024706137028  0.1783469487931799  0.5266332588348769
  0.4715593612369902  0.7962695902965002  0.5266305526965025
  0.5284350986458805  0.2037238091168895  0.5266225940649922
  0.4100123514364884  0.8250758577715811  0.4723363058465380
  0.5899871609584585  0.1749235787879658  0.4723268847075970
  0.3189770609081100  0.7948450391045166  0.5263682373266738
  0.6810223109447122  0.2051554230617409  0.5263612013851167
  0.2601290564928797  0.7475421708001126  0.5261649219173102
  0.7398701730869119  0.2524598151190413  0.5261585978685244
  0.3506315054781520  0.8112863201357559  0.4722279108574706
  0.6493679755782414  0.1887142233729474  0.4722203923488416
  0.2348540951546450  0.7185099629166470  0.4719305643158417
  0.7651458681994607  0.2814940426274467  0.4719244052796457
  0.1888720331884089  0.6249987569425193  0.5257860284460290
  0.8111232527823987  0.3750040584008218  0.5257776914176874
  0.1891689873716067  0.5710382494762292  0.5257767469972054
  0.8108216510329370  0.4289625672411669  0.5257705280644458
  0.1988208856541263  0.6560765491208491  0.4717451451571897
  0.8011781859116895  0.3439274622823108  0.4717375603474076
  0.1993586076000431  0.5502859369505307  0.4714960590426948
  0.8006317436901448  0.4497147865562129  0.4714906406076347
  0.2623922314178259  0.5230964605881459  0.5258432894987364
  0.7375953639023494  0.4769010618661907  0.5258393595144905
  0.3220138037084854  0.5373418862047303  0.5259549698253612
  0.6779723910754100  0.4626520573330570  0.5259485436129762
  0.2366619574351671  0.5257679534889457  0.4716139547391457
  0.7633278029841077  0.4742317513579751  0.4716085979325896
  0.3537783975265918  0.5535265018389764  0.4720354255305752
  0.6462085478325861  0.4464675152393128  0.4720295791974067
  0.4381552224417455  0.6292088973493419  0.5265359674324654
  0.5618338566274957  0.3707833320010913  0.5265282013273602
  0.4740538185514479  0.6915335195349264  0.5267291097598472
  0.5259374213014875  0.3084579943275082  0.5267217963225022
  0.4129207911060988  0.6003034201144145  0.4722084745807537
  0.5870659631195844  0.3996885793234825  0.4722012391194044
  0.4819737568695811  0.7756993929217169  0.4726779599096929
  0.5180202581048735  0.2242936692313770  0.4726710578926840
  0.4832332985549727  0.7223355949627869  0.4726002818055468
  0.5167582843394425  0.2776568712911970  0.4725929651398362
  0.4206287655272442  0.8034836147287856  0.4161162736536371
  0.5793710443923379  0.1965159096545722  0.4161090216716047
  0.4561218928773735  0.7793555904065258  0.4162642067305030
  0.5438744872422372  0.2206397578645913  0.4162584803677003
  0.3244382535245067  0.7811371640519005  0.4159099335154868
  0.6755618471564531  0.2188646652350671  0.4159025497870921
  0.2675565723638100  0.7356165225050030  0.4157088229078968
  0.7324420696254745  0.2643868906350396  0.4157034511341161
  0.3677267862338174  0.7763398211811786  0.3811973827683937
  0.6322728212754015  0.2236616477879320  0.3811894497807704
  0.2090463077748659  0.6345357227269565  0.4154288758533028
  0.7909501864450167  0.3654674475819988  0.4154220814789289
  0.2093983325242549  0.5825229952996878  0.4153011018565869
  0.7905931025464141  0.4174773178091684  0.4152959318602665
  0.2517204818442024  0.6837072084541591  0.3808456235468093
  0.7482753606636554  0.3162957316178646  0.3808396505786029
  0.2696872622715046  0.5427257129569698  0.4155328761997548
  0.7303026966854375  0.4572722600203630  0.4155276767428445
  0.3271306617612541  0.5563324011025215  0.4157725581441858
  0.6728577891912367  0.4436626322263807  0.4157666606492423
  0.2528246138825640  0.5778175165624557  0.3806911251527320
  0.7471665075191405  0.4221817597998200  0.3806866767841059
  0.4228203961988924  0.6323700000794740  0.4159815960884934
  0.5771687771253736  0.3676232739258938  0.4159738880781021
  0.4575091408817967  0.6924214694279617  0.4161491502274760
  0.5424814695812303  0.3075712343296775  0.4161417991278336
  0.4406539192188141  0.7276214422351788  0.3813706801710676
  0.5593407427744144  0.2723737173236354  0.3813645199247908
  0.3698045949818507  0.6052376254930981  0.3811183357555020
  0.6301855327599281  0.3947576742172864  0.3811119581319420
  0.3525495089807524  0.7262582469591385  0.3476850512458532
  0.6474470379970001  0.2737431593167017  0.3476782941872708
  0.2934270283341162  0.6790988268963072  0.3474274932700003
  0.7065678738196922  0.3209033164502121  0.3474201726898650
  0.2940077087158172  0.6251804393957363  0.3474601613114551
  0.7059854095510234  0.3748202892145243  0.3474530491296964
  0.3896795625381725  0.7014883103794740  0.3477378804240285
  0.6103140959142005  0.2985098317361603  0.3477318706021363
  0.3535293709203680  0.6390751632141298  0.3476373293302315
  0.6464623503946190  0.3609224004743022  0.3476299226808644
  0.3820048287961315  0.9788705320980091  0.4476905576386847
  0.0377152249110342  0.4131221976231353  0.4393273273647595
  0.5862515188076305  0.6128300388704948  0.4497740463006981
  0.6179987040949643  0.0211285893234467  0.4476772163788160
  0.9622967576296476  0.5868810169012646  0.4393058538434443
  0.4137620214864675  0.3871802597008517  0.4498411511976043
  0.3247975424858615  0.9325755439254368  0.4508256926451887
  0.0790562724562234  0.3956267073407288  0.4443094239232750
  0.6027882934693342  0.6716564387359332  0.4439510070461336
  0.6752055048901267  0.0674218853183473  0.4508075129801238
  0.9209548557870577  0.6043769847323731  0.4442817765875954
  0.3972351569560360  0.3283537522342892  0.4440102363677674
  0.2883144889185265  0.9494254388031511  0.4155239860791020
  0.0567561917475652  0.3403106940209158  0.4104717466371655
  0.6560860574659668  0.7000282267230462  0.4064429698907103
  0.7116902142883662  0.0505695377819332  0.4155169449058905
  0.9432624250858748  0.6596959000250883  0.4104480248324114
  0.3439446492948797  0.2999876473876795  0.4064888935019245
  0.3816535266699223  0.0251258381192678  0.4104241249239174
  0.9891715352447699  0.3686956725923818  0.4023526171370325
  0.6292646314824430  0.6041078786337996  0.4159196708758907
  0.6183496232930725  0.9748698662033918  0.4104181800863779
  0.0108465558351785  0.6313108422145283  0.4023400169814804
  0.3707614037153371  0.3959058471981017  0.4159675503584123
  0.3240934314750276  0.0057765066708358  0.3902604070017587
  0.0021949536830863  0.3251560870060329  0.3842155469448602
  0.6708604337705398  0.6576110077078098  0.3886487911089101
  0.6759100936062039  0.9942155958359007  0.3902601439531316
  0.9978264049188017  0.6748503986580465  0.3841999836205381
  0.3291727682909898  0.3424032397329845  0.3886845015970377
  0.4127949449214324  0.0787786671950782  0.4423932684014666
  0.9363737988258287  0.3524213859826367  0.4333625165168964
  0.6479582863518282  0.5735626529224334  0.4543654460248533
  0.5872049851071489  0.9212189264347533  0.4423885793549970
  0.0636388577535682  0.6475809127044274  0.4333589503337408
  0.3520526794455253  0.4264429303149126  0.4544069068639913
  0.4125253777055474  0.0045646566836479  0.5020246142306899
  0.0141223294379399  0.4226232504626319  0.4926163364377502
  0.5798969012090651  0.5883218839140096  0.5083312567232786
  0.5874734545383717  0.9954375507545443  0.5020130519190343
  0.9858818733024747  0.5773748462565600  0.4925977302558180
  0.4201063582435058  0.4116823823476511  0.5083952018038453
  0.4309912417659200  0.0668285853325683  0.4991467421531285
  0.9507843287772255  0.3841613526025975  0.4893427362865677
  0.6190383862869401  0.5644163604965708  0.5115770289903456
  0.5690108397323090  0.9331747014686971  0.4991406141367096
  0.0492201947067305  0.6158372190841807  0.4893352076653973
  0.3809606539313424  0.4355856681472324  0.5116272055533884
  0.3860480067293768  0.9838827667101502  0.5593513670134972
  0.0319509795333162  0.4149582106910907  0.5507361910141755
  0.5898305972758301  0.6224505837545177  0.5610347133922178
  0.6139510909149486  0.0161224882115389  0.5593388738757736
  0.9680455857394251  0.5850391129647295  0.5507122140292259
  0.4101594686776351  0.3775444149256479  0.5610987099513581
  0.2983095049735499  0.9120615968184325  0.5080740651793979
  0.0967934513913403  0.3878355844859295  0.5023736699500044
  0.6127112752841568  0.7057961329738125  0.4965357813414804
  0.7016891831273936  0.0879390673197332  0.5080585256540017
  0.9032095119680074  0.6121662689291941  0.5023417263104196
  0.3872960475845738  0.2942062104934019  0.4965892795762648
  0.3288140849809177  0.9376074245608171  0.5622837038827109
  0.0733758083927873  0.3975547202788523  0.5556274766109699
  0.6063449156778350  0.6812503461811601  0.5550207492614430
  0.6711839064677285  0.0623985497975307  0.5622679211449637
  0.9266217483355110  0.6024440209491703  0.5555961616192684
  0.3936509124031697  0.3187493482600531  0.5550791541550757
  0.2395408329375755  0.9381339996840958  0.4516351352725264
  0.0619281597245407  0.2996906534336597  0.4482147634589811
  0.6975987307161394  0.7514938965385499  0.4364016387269821
  0.7604647546085765  0.0618653744984332  0.4516330549869511
  0.9380851848333783  0.7003149200425008  0.4481869539563132
  0.3024230711776750  0.2485218242308061  0.4364381335709280
  0.2454505728204776  0.9162083820285313  0.5090392495871987
  0.0853264085976152  0.3276720353864924  0.5052435932658987
  0.6721693994856500  0.7555638524959287  0.4923187462624037
  0.7545505067161994  0.0837950265485856  0.5090310292527788
  0.9146789846447497  0.6723320302018619  0.5052118777735417
  0.3278377031785417  0.2444420264411468  0.4923633675139895
  0.2186356815660030  0.9780321615612094  0.4503995131581910
  0.0170483790116778  0.2401439203470698  0.4479348640529137
  0.7571839093700904  0.7672856945900548  0.4357918385286433
  0.7813654164434410  0.0219628425610653  0.4504055532379412
  0.9829692081690555  0.7598626814593060  0.4479162257884834
  0.2428354717827132  0.2327231559994706  0.4358045139275075
  0.3031591279561485  0.0457950912339357  0.3889121421552690
  0.9571549819346851  0.2654565773082973  0.3838356355544130
  0.7305489423904982  0.6732814180957717  0.3881188819967022
  0.6968440251549064  0.9541963094905128  0.3889150119096677
  0.0428692032454001  0.7345505964124841  0.3838254244007077
  0.2694835644392355  0.3267342184102076  0.3881401753737564
  0.2472167751371593  0.0284298670269508  0.4129319518780872
  0.9679271893785210  0.2226868045717123  0.4097399599951351
  0.7736401552423640  0.7307811767556512  0.4050372210023047
  0.7527847550805113  0.9715639284722755  0.4129403516148585
  0.0320946248049420  0.7773196757912973  0.4097299658367609
  0.2263884340422301  0.2692320800854359  0.4050468502832045
  0.3918693971179775  0.1186896563190095  0.4413174632252913
  0.8915747464549360  0.2928553044563107  0.4331256100615699
  0.7074109776407821  0.5890654141205506  0.4537363053931039
  0.6081331031193251  0.8813084365396258  0.4413238434666133
  0.1084392680765227  0.7071459808641818  0.4331274094629190
  0.2926020674589261  0.4109408643093590  0.4537609219815161
  0.3405994915803446  0.1042316441624266  0.4081302879507758
  0.9002817594542851  0.2510896448410205  0.4018435849010164
  0.7467685857535153  0.6347300728127276  0.4147785019564366
  0.6594021976388662  0.8957614389546994  0.4081395847877869
  0.0997388945126592  0.7489133588317918  0.4018441082932980
  0.2532574208742336  0.3652836388105158  0.4147919957218711
  0.3901792168162507  0.1458445106673776  0.4968399149881140
  0.8622239989892956  0.2668559101705729  0.4888917942872419
  0.7362115829132998  0.5948621241335140  0.5104295929678219
  0.6098212497594291  0.8541565343241946  0.4968508537966599
  0.1377835454352525  0.7331405545880753  0.4888990440533471
  0.2637899239621986  0.4051413280929135  0.5104489996992811
  0.4165821214967467  0.0836668342629145  0.5553734316598831
  0.9305992312319068  0.3543096000643370  0.5461406609566385
  0.6514196352535512  0.5830632883633068  0.5670187230855631
  0.5834200161115111  0.9163397208701617  0.5553695092232358
  0.0693963091985392  0.6456829145904610  0.5461376212613253
  0.3485687715754404  0.4169329998041533  0.5670606064802352
  0.3881261062399251  0.0332633326857903  0.5927626289713848
  0.9797927620786823  0.3717741468719943  0.5842177054681010
  0.6350163695681738  0.6197551679419788  0.5976969792949939
  0.6118721280309194  0.9667456287252916  0.5927548197590956
  0.0201965103083087  0.6282176033046460  0.5842070458507744
  0.3649651812711224  0.3802363591967075  0.5977459576250426
  0.3958711237497650  0.1237053794240279  0.5541870407079206
  0.8857646704891182  0.2947960960771727  0.5459685134614257
  0.7109550508549870  0.5987565414876197  0.5663977126422524
  0.6041272905915682  0.8762988009322639  0.5541927147392026
  0.1142335979636083  0.7051970885308460  0.5459730070414693
  0.2890304161922043  0.4012364813012479  0.5664228820964637
  0.2948450625788848  0.9575635662876596  0.5976676423105248
  0.0474521175862682  0.3434463429457750  0.5921764969913970
  0.6618401304369147  0.7156275565890392  0.5878133229842644
  0.7051525928952328  0.0424460629171604  0.5976610997553943
  0.9525401495266754  0.6565490154535534  0.5921512691084323
  0.3381442169018706  0.2843675730368256  0.5878571969252055
  0.2435596181994272  0.9431653511028563  0.5646590453658255
  0.0561946917149313  0.3016342856253036  0.5609899825388801
  0.7011594174805024  0.7608914179935216  0.5489716170283543
  0.7564383263745087  0.0568400299126584  0.5646553370005879
  0.9438054168253540  0.6983653178312429  0.5609636843814132
  0.2988336474717596  0.2391036482018986  0.5490080419812042
  0.3321972974413739  0.0158764018004121  0.6169175223469240
  0.9905596931499249  0.3290164563374397  0.6101717011857528
  0.6780614130963835  0.6770873899604914  0.6147000995352204
  0.6678009238121536  0.9841371259261565  0.6169149691524116
  0.0094291847944307  0.6709755239732635  0.6101578515765527
  0.3219150188548840  0.3229039119070941  0.6147375596507514
  0.2042921775924897  0.9949247004800733  0.5066638345694977
  0.9969326378794884  0.2102100341465157  0.5047318983404530
  0.7897245627380357  0.7862462055850833  0.4912446294704498
  0.7957075674239750  0.0050742544437242  0.5066708843131353
  0.0030759545533274  0.7897916105648209  0.5047167475093471
  0.2102842416728900  0.2137583483908662  0.4912532256435663
  0.2226728107395215  0.9830935888846380  0.5634861968612225
  0.0113018152065945  0.2420023193743746  0.5607679874959771
  0.7607071643597839  0.7768661360508359  0.5484712504076876
  0.7773256784552176  0.0169116416507984  0.5634896683410305
  0.9887005694287518  0.7579968322660130  0.5607512275398610
  0.2392854806832595  0.2231306911295459  0.5484878230218317
  0.2494757369180366  0.0778654211619243  0.4463930333875338
  0.9157650470495369  0.1796310269915240  0.4433390580775376
  0.8186991413204013  0.7279737720867420  0.4417735684032910
  0.7505252358677544  0.9221303245836640  0.4464098311698751
  0.0842527148023340  0.8203726808764452  0.4433373096594125
  0.1813191068164510  0.2720341236279119  0.4417713922693294
  0.3067272713314111  0.1237887529498621  0.4435750646237278
  0.8745040461286636  0.1971981373439995  0.4385363857571706
  0.8018912917942225  0.6691808941296600  0.4478369294159995
  0.6932740736368395  0.8762099276194543  0.4435930674053960
  0.1255105790958915  0.8028010081021782  0.4385424650758246
  0.1981238603894404  0.3308268521911539  0.4478372899274808
  0.3373885494562826  0.1500873210679553  0.4977130478152901
  0.8508439594990733  0.2068025931967745  0.4917187699979404
  0.7955852291005096  0.6444713568073360  0.5062596854988261
  0.6626115551486516  0.8499134958601862  0.4977297037451086
  0.1491664197251132  0.7931950246832222  0.4917255000682376
  0.2044181201028694  0.3555280724770408  0.5062624462669549
  0.2230418125795699  0.0572234825594568  0.5037559741020906
  0.9336163110095541  0.1719297296892346  0.5014628353554645
  0.8286558752353116  0.7621283630240434  0.4945006907169378
  0.7769582278072722  0.9427766461197967  0.5037708800170683
  0.0663946303370695  0.8280730017383199  0.5014569223202122
  0.1713488997105879  0.2378696722553756  0.4944959673436486
  0.3471194610178891  0.1123017133979063  0.5904135455178008
  0.8909869035551725  0.2542551625323894  0.5838125290964044
  0.7525491551454649  0.6503975307116068  0.5965369645518004
  0.6528782018253503  0.8877092283689468  0.5904255016926496
  0.1090107982240870  0.7457393794516428  0.5838142779957061
  0.2474306049448275  0.3495926096419108  0.5965534834257136
  0.3113261546068526  0.0559532521128528  0.6158312170305302
  0.9455444133958339  0.2693356295405203  0.6100419828517709
  0.7377586856349687  0.6928268028932554  0.6141633106631275
  0.6886712074127948  0.9440584613391838  0.6158385528678614
  0.0544472963925301  0.7306563527459257  0.6100346126244658
  0.2622175207018780  0.3071634899217712  0.6141857432955760
  0.2537946823542777  0.0366268521990530  0.5955104497947845
  0.9585933348814782  0.2257626892906110  0.5918774852758950
  0.7794444836852106  0.7464791188096126  0.5870516034148749
  0.7462018936289969  0.9633812203986548  0.5955214406361515
  0.0414042187867920  0.7742328362182272  0.5918657879212187
  0.2205398802295400  0.2535130549851029  0.5870641323688265
  0.3107386426852136  0.1287412238270093  0.5549538554169001
  0.8689235738642991  0.1992085003419931  0.5497435789736435
  0.8054746643315343  0.6787341434954561  0.5588611959872420
  0.6892591603004666  0.8712644309042158  0.5549713811609812
  0.1310792857449816  0.8007884454833522  0.5497472386919222
  0.1945131132555681  0.3212601591963172  0.5588606484480648
  0.2535643068920778  0.0828873517125891  0.5581502976772484
  0.9101016166486320  0.1815584210470763  0.5547306077839400
  0.8222786336546404  0.7376128497322013  0.5530910133215733
  0.7464317581086539  0.9171170219455964  0.5581661027690661
  0.0899014728176751  0.8184400574677605  0.5547264414532046
  0.1777112852093930  0.2623808154343632  0.5530885254457880
 
  0.00000000E+00  0.00000000E+00  0.00000000E+00
  0.00000000E+00  0.00000000E+00  0.00000000E+00
  0.00000000E+00  0.00000000E+00  0.00000000E+00
  0.00000000E+00  0.00000000E+00  0.00000000E+00
  0.00000000E+00  0.00000000E+00  0.00000000E+00
  0.00000000E+00  0.00000000E+00  0.00000000E+00
  0.00000000E+00  0.00000000E+00  0.00000000E+00
  0.00000000E+00  0.00000000E+00  0.00000000E+00
  0.00000000E+00  0.00000000E+00  0.00000000E+00
  0.00000000E+00  0.00000000E+00  0.00000000E+00
  0.00000000E+00  0.00000000E+00  0.00000000E+00
  0.00000000E+00  0.00000000E+00  0.00000000E+00
  0.00000000E+00  0.00000000E+00  0.00000000E+00
  0.00000000E+00  0.00000000E+00  0.00000000E+00
  0.00000000E+00  0.00000000E+00  0.00000000E+00
  0.00000000E+00  0.00000000E+00  0.00000000E+00
  0.00000000E+00  0.00000000E+00  0.00000000E+00
  0.00000000E+00  0.00000000E+00  0.00000000E+00
  0.00000000E+00  0.00000000E+00  0.00000000E+00
  0.00000000E+00  0.00000000E+00  0.00000000E+00
  0.00000000E+00  0.00000000E+00  0.00000000E+00
  0.00000000E+00  0.00000000E+00  0.00000000E+00
  0.00000000E+00  0.00000000E+00  0.00000000E+00
  0.00000000E+00  0.00000000E+00  0.00000000E+00
  0.00000000E+00  0.00000000E+00  0.00000000E+00
  0.00000000E+00  0.00000000E+00  0.00000000E+00
  0.00000000E+00  0.00000000E+00  0.00000000E+00
  0.00000000E+00  0.00000000E+00  0.00000000E+00
  0.00000000E+00  0.00000000E+00  0.00000000E+00
  0.00000000E+00  0.00000000E+00  0.00000000E+00
  0.00000000E+00  0.00000000E+00  0.00000000E+00
  0.00000000E+00  0.00000000E+00  0.00000000E+00
  0.00000000E+00  0.00000000E+00  0.00000000E+00
  0.00000000E+00  0.00000000E+00  0.00000000E+00
  0.00000000E+00  0.00000000E+00  0.00000000E+00
  0.00000000E+00  0.00000000E+00  0.00000000E+00
  0.00000000E+00  0.00000000E+00  0.00000000E+00
  0.00000000E+00  0.00000000E+00  0.00000000E+00
  0.00000000E+00  0.00000000E+00  0.00000000E+00
  0.00000000E+00  0.00000000E+00  0.00000000E+00
  0.00000000E+00  0.00000000E+00  0.00000000E+00
  0.00000000E+00  0.00000000E+00  0.00000000E+00
  0.00000000E+00  0.00000000E+00  0.00000000E+00
  0.00000000E+00  0.00000000E+00  0.00000000E+00
  0.00000000E+00  0.00000000E+00  0.00000000E+00
  0.00000000E+00  0.00000000E+00  0.00000000E+00
  0.00000000E+00  0.00000000E+00  0.00000000E+00
  0.00000000E+00  0.00000000E+00  0.00000000E+00
  0.00000000E+00  0.00000000E+00  0.00000000E+00
  0.00000000E+00  0.00000000E+00  0.00000000E+00
  0.00000000E+00  0.00000000E+00  0.00000000E+00
  0.00000000E+00  0.00000000E+00  0.00000000E+00
  0.00000000E+00  0.00000000E+00  0.00000000E+00
  0.00000000E+00  0.00000000E+00  0.00000000E+00
  0.00000000E+00  0.00000000E+00  0.00000000E+00
  0.00000000E+00  0.00000000E+00  0.00000000E+00
  0.00000000E+00  0.00000000E+00  0.00000000E+00
  0.00000000E+00  0.00000000E+00  0.00000000E+00
  0.00000000E+00  0.00000000E+00  0.00000000E+00
  0.00000000E+00  0.00000000E+00  0.00000000E+00
  0.00000000E+00  0.00000000E+00  0.00000000E+00
  0.00000000E+00  0.00000000E+00  0.00000000E+00
  0.00000000E+00  0.00000000E+00  0.00000000E+00
  0.00000000E+00  0.00000000E+00  0.00000000E+00
  0.00000000E+00  0.00000000E+00  0.00000000E+00
  0.00000000E+00  0.00000000E+00  0.00000000E+00
  0.00000000E+00  0.00000000E+00  0.00000000E+00
  0.00000000E+00  0.00000000E+00  0.00000000E+00
  0.00000000E+00  0.00000000E+00  0.00000000E+00
  0.00000000E+00  0.00000000E+00  0.00000000E+00
  0.00000000E+00  0.00000000E+00  0.00000000E+00
  0.00000000E+00  0.00000000E+00  0.00000000E+00
  0.00000000E+00  0.00000000E+00  0.00000000E+00
  0.00000000E+00  0.00000000E+00  0.00000000E+00
  0.00000000E+00  0.00000000E+00  0.00000000E+00
  0.00000000E+00  0.00000000E+00  0.00000000E+00
  0.00000000E+00  0.00000000E+00  0.00000000E+00
  0.00000000E+00  0.00000000E+00  0.00000000E+00
  0.00000000E+00  0.00000000E+00  0.00000000E+00
  0.00000000E+00  0.00000000E+00  0.00000000E+00
  0.00000000E+00  0.00000000E+00  0.00000000E+00
  0.00000000E+00  0.00000000E+00  0.00000000E+00
  0.00000000E+00  0.00000000E+00  0.00000000E+00
  0.00000000E+00  0.00000000E+00  0.00000000E+00
  0.00000000E+00  0.00000000E+00  0.00000000E+00
  0.00000000E+00  0.00000000E+00  0.00000000E+00
  0.00000000E+00  0.00000000E+00  0.00000000E+00
  0.00000000E+00  0.00000000E+00  0.00000000E+00
  0.00000000E+00  0.00000000E+00  0.00000000E+00
  0.00000000E+00  0.00000000E+00  0.00000000E+00
  0.00000000E+00  0.00000000E+00  0.00000000E+00
  0.00000000E+00  0.00000000E+00  0.00000000E+00
  0.00000000E+00  0.00000000E+00  0.00000000E+00
  0.00000000E+00  0.00000000E+00  0.00000000E+00
  0.00000000E+00  0.00000000E+00  0.00000000E+00
  0.00000000E+00  0.00000000E+00  0.00000000E+00
  0.00000000E+00  0.00000000E+00  0.00000000E+00
  0.00000000E+00  0.00000000E+00  0.00000000E+00
  0.00000000E+00  0.00000000E+00  0.00000000E+00
  0.00000000E+00  0.00000000E+00  0.00000000E+00
  0.00000000E+00  0.00000000E+00  0.00000000E+00
  0.00000000E+00  0.00000000E+00  0.00000000E+00
  0.00000000E+00  0.00000000E+00  0.00000000E+00
  0.00000000E+00  0.00000000E+00  0.00000000E+00
  0.00000000E+00  0.00000000E+00  0.00000000E+00
  0.00000000E+00  0.00000000E+00  0.00000000E+00
  0.00000000E+00  0.00000000E+00  0.00000000E+00
  0.00000000E+00  0.00000000E+00  0.00000000E+00
  0.00000000E+00  0.00000000E+00  0.00000000E+00
  0.00000000E+00  0.00000000E+00  0.00000000E+00
  0.00000000E+00  0.00000000E+00  0.00000000E+00
  0.00000000E+00  0.00000000E+00  0.00000000E+00
  0.00000000E+00  0.00000000E+00  0.00000000E+00
  0.00000000E+00  0.00000000E+00  0.00000000E+00
  0.00000000E+00  0.00000000E+00  0.00000000E+00
  0.00000000E+00  0.00000000E+00  0.00000000E+00
  0.00000000E+00  0.00000000E+00  0.00000000E+00
  0.00000000E+00  0.00000000E+00  0.00000000E+00
  0.00000000E+00  0.00000000E+00  0.00000000E+00
  0.00000000E+00  0.00000000E+00  0.00000000E+00
  0.00000000E+00  0.00000000E+00  0.00000000E+00
  0.00000000E+00  0.00000000E+00  0.00000000E+00
  0.00000000E+00  0.00000000E+00  0.00000000E+00
  0.00000000E+00  0.00000000E+00  0.00000000E+00
  0.00000000E+00  0.00000000E+00  0.00000000E+00
  0.00000000E+00  0.00000000E+00  0.00000000E+00
  0.00000000E+00  0.00000000E+00  0.00000000E+00
  0.00000000E+00  0.00000000E+00  0.00000000E+00
  0.00000000E+00  0.00000000E+00  0.00000000E+00
  0.00000000E+00  0.00000000E+00  0.00000000E+00
  0.00000000E+00  0.00000000E+00  0.00000000E+00
  0.00000000E+00  0.00000000E+00  0.00000000E+00
  0.00000000E+00  0.00000000E+00  0.00000000E+00
  0.00000000E+00  0.00000000E+00  0.00000000E+00
  0.00000000E+00  0.00000000E+00  0.00000000E+00
  0.00000000E+00  0.00000000E+00  0.00000000E+00
  0.00000000E+00  0.00000000E+00  0.00000000E+00
  0.00000000E+00  0.00000000E+00  0.00000000E+00
  0.00000000E+00  0.00000000E+00  0.00000000E+00
  0.00000000E+00  0.00000000E+00  0.00000000E+00
  0.00000000E+00  0.00000000E+00  0.00000000E+00
  0.00000000E+00  0.00000000E+00  0.00000000E+00
  0.00000000E+00  0.00000000E+00  0.00000000E+00
  0.00000000E+00  0.00000000E+00  0.00000000E+00
  0.00000000E+00  0.00000000E+00  0.00000000E+00
  0.00000000E+00  0.00000000E+00  0.00000000E+00
  0.00000000E+00  0.00000000E+00  0.00000000E+00
  0.00000000E+00  0.00000000E+00  0.00000000E+00
  0.00000000E+00  0.00000000E+00  0.00000000E+00
  0.00000000E+00  0.00000000E+00  0.00000000E+00
  0.00000000E+00  0.00000000E+00  0.00000000E+00
  0.00000000E+00  0.00000000E+00  0.00000000E+00
  0.00000000E+00  0.00000000E+00  0.00000000E+00
  0.00000000E+00  0.00000000E+00  0.00000000E+00
  0.00000000E+00  0.00000000E+00  0.00000000E+00
  0.00000000E+00  0.00000000E+00  0.00000000E+00
  0.00000000E+00  0.00000000E+00  0.00000000E+00
  0.00000000E+00  0.00000000E+00  0.00000000E+00
  0.00000000E+00  0.00000000E+00  0.00000000E+00
  0.00000000E+00  0.00000000E+00  0.00000000E+00
  0.00000000E+00  0.00000000E+00  0.00000000E+00
  0.00000000E+00  0.00000000E+00  0.00000000E+00
  0.00000000E+00  0.00000000E+00  0.00000000E+00
  0.00000000E+00  0.00000000E+00  0.00000000E+00
  0.00000000E+00  0.00000000E+00  0.00000000E+00
  0.00000000E+00  0.00000000E+00  0.00000000E+00
  0.00000000E+00  0.00000000E+00  0.00000000E+00
  0.00000000E+00  0.00000000E+00  0.00000000E+00
  0.00000000E+00  0.00000000E+00  0.00000000E+00
  0.00000000E+00  0.00000000E+00  0.00000000E+00
  0.00000000E+00  0.00000000E+00  0.00000000E+00
  0.00000000E+00  0.00000000E+00  0.00000000E+00
  0.00000000E+00  0.00000000E+00  0.00000000E+00
  0.00000000E+00  0.00000000E+00  0.00000000E+00
  0.00000000E+00  0.00000000E+00  0.00000000E+00
  0.00000000E+00  0.00000000E+00  0.00000000E+00
  0.00000000E+00  0.00000000E+00  0.00000000E+00
  0.00000000E+00  0.00000000E+00  0.00000000E+00
  0.00000000E+00  0.00000000E+00  0.00000000E+00
  0.00000000E+00  0.00000000E+00  0.00000000E+00
  0.00000000E+00  0.00000000E+00  0.00000000E+00
  0.00000000E+00  0.00000000E+00  0.00000000E+00
  0.00000000E+00  0.00000000E+00  0.00000000E+00
  0.00000000E+00  0.00000000E+00  0.00000000E+00
  0.00000000E+00  0.00000000E+00  0.00000000E+00
  0.00000000E+00  0.00000000E+00  0.00000000E+00
  0.00000000E+00  0.00000000E+00  0.00000000E+00
  0.00000000E+00  0.00000000E+00  0.00000000E+00
  0.00000000E+00  0.00000000E+00  0.00000000E+00
  0.00000000E+00  0.00000000E+00  0.00000000E+00
  0.00000000E+00  0.00000000E+00  0.00000000E+00
  0.00000000E+00  0.00000000E+00  0.00000000E+00
  0.00000000E+00  0.00000000E+00  0.00000000E+00
  0.00000000E+00  0.00000000E+00  0.00000000E+00
  0.00000000E+00  0.00000000E+00  0.00000000E+00
  0.00000000E+00  0.00000000E+00  0.00000000E+00
  0.00000000E+00  0.00000000E+00  0.00000000E+00
  0.00000000E+00  0.00000000E+00  0.00000000E+00
  0.00000000E+00  0.00000000E+00  0.00000000E+00
  0.00000000E+00  0.00000000E+00  0.00000000E+00
  0.00000000E+00  0.00000000E+00  0.00000000E+00
  0.00000000E+00  0.00000000E+00  0.00000000E+00
  0.00000000E+00  0.00000000E+00  0.00000000E+00
  0.00000000E+00  0.00000000E+00  0.00000000E+00
  0.00000000E+00  0.00000000E+00  0.00000000E+00
  0.00000000E+00  0.00000000E+00  0.00000000E+00
  0.00000000E+00  0.00000000E+00  0.00000000E+00
  0.00000000E+00  0.00000000E+00  0.00000000E+00
  0.00000000E+00  0.00000000E+00  0.00000000E+00
  0.00000000E+00  0.00000000E+00  0.00000000E+00
  0.00000000E+00  0.00000000E+00  0.00000000E+00
  0.00000000E+00  0.00000000E+00  0.00000000E+00
  0.00000000E+00  0.00000000E+00  0.00000000E+00
  0.00000000E+00  0.00000000E+00  0.00000000E+00
  0.00000000E+00  0.00000000E+00  0.00000000E+00
  0.00000000E+00  0.00000000E+00  0.00000000E+00
  0.00000000E+00  0.00000000E+00  0.00000000E+00
  0.00000000E+00  0.00000000E+00  0.00000000E+00
  0.00000000E+00  0.00000000E+00  0.00000000E+00
  0.00000000E+00  0.00000000E+00  0.00000000E+00
  0.00000000E+00  0.00000000E+00  0.00000000E+00
  0.00000000E+00  0.00000000E+00  0.00000000E+00
  0.00000000E+00  0.00000000E+00  0.00000000E+00
  0.00000000E+00  0.00000000E+00  0.00000000E+00
  0.00000000E+00  0.00000000E+00  0.00000000E+00
  0.00000000E+00  0.00000000E+00  0.00000000E+00
  0.00000000E+00  0.00000000E+00  0.00000000E+00
  0.00000000E+00  0.00000000E+00  0.00000000E+00
  0.00000000E+00  0.00000000E+00  0.00000000E+00
  0.00000000E+00  0.00000000E+00  0.00000000E+00
  0.00000000E+00  0.00000000E+00  0.00000000E+00
  0.00000000E+00  0.00000000E+00  0.00000000E+00
  0.00000000E+00  0.00000000E+00  0.00000000E+00
  0.00000000E+00  0.00000000E+00  0.00000000E+00
  0.00000000E+00  0.00000000E+00  0.00000000E+00
  0.00000000E+00  0.00000000E+00  0.00000000E+00
  0.00000000E+00  0.00000000E+00  0.00000000E+00
  0.00000000E+00  0.00000000E+00  0.00000000E+00
  0.00000000E+00  0.00000000E+00  0.00000000E+00
  0.00000000E+00  0.00000000E+00  0.00000000E+00
  0.00000000E+00  0.00000000E+00  0.00000000E+00
  0.00000000E+00  0.00000000E+00  0.00000000E+00
  0.00000000E+00  0.00000000E+00  0.00000000E+00
  0.00000000E+00  0.00000000E+00  0.00000000E+00
  0.00000000E+00  0.00000000E+00  0.00000000E+00
  0.00000000E+00  0.00000000E+00  0.00000000E+00
  0.00000000E+00  0.00000000E+00  0.00000000E+00
  0.00000000E+00  0.00000000E+00  0.00000000E+00
  0.00000000E+00  0.00000000E+00  0.00000000E+00
  0.00000000E+00  0.00000000E+00  0.00000000E+00
  0.00000000E+00  0.00000000E+00  0.00000000E+00
  0.00000000E+00  0.00000000E+00  0.00000000E+00
  0.00000000E+00  0.00000000E+00  0.00000000E+00
  0.00000000E+00  0.00000000E+00  0.00000000E+00
  0.00000000E+00  0.00000000E+00  0.00000000E+00
  0.00000000E+00  0.00000000E+00  0.00000000E+00
  0.00000000E+00  0.00000000E+00  0.00000000E+00
  0.00000000E+00  0.00000000E+00  0.00000000E+00
  0.00000000E+00  0.00000000E+00  0.00000000E+00
  0.00000000E+00  0.00000000E+00  0.00000000E+00
  0.00000000E+00  0.00000000E+00  0.00000000E+00
  0.00000000E+00  0.00000000E+00  0.00000000E+00
  0.00000000E+00  0.00000000E+00  0.00000000E+00
  0.00000000E+00  0.00000000E+00  0.00000000E+00
  0.00000000E+00  0.00000000E+00  0.00000000E+00
  0.00000000E+00  0.00000000E+00  0.00000000E+00
  0.00000000E+00  0.00000000E+00  0.00000000E+00
  0.00000000E+00  0.00000000E+00  0.00000000E+00
  0.00000000E+00  0.00000000E+00  0.00000000E+00
  0.00000000E+00  0.00000000E+00  0.00000000E+00
  0.00000000E+00  0.00000000E+00  0.00000000E+00
  0.00000000E+00  0.00000000E+00  0.00000000E+00
  0.00000000E+00  0.00000000E+00  0.00000000E+00
  0.00000000E+00  0.00000000E+00  0.00000000E+00
  0.00000000E+00  0.00000000E+00  0.00000000E+00
  0.00000000E+00  0.00000000E+00  0.00000000E+00
  0.00000000E+00  0.00000000E+00  0.00000000E+00
  0.00000000E+00  0.00000000E+00  0.00000000E+00
  0.00000000E+00  0.00000000E+00  0.00000000E+00
  0.00000000E+00  0.00000000E+00  0.00000000E+00
  0.00000000E+00  0.00000000E+00  0.00000000E+00
  0.00000000E+00  0.00000000E+00  0.00000000E+00
  0.00000000E+00  0.00000000E+00  0.00000000E+00
  0.00000000E+00  0.00000000E+00  0.00000000E+00
  0.00000000E+00  0.00000000E+00  0.00000000E+00
  0.00000000E+00  0.00000000E+00  0.00000000E+00
  0.00000000E+00  0.00000000E+00  0.00000000E+00
  0.00000000E+00  0.00000000E+00  0.00000000E+00
  0.00000000E+00  0.00000000E+00  0.00000000E+00
  0.00000000E+00  0.00000000E+00  0.00000000E+00
  0.00000000E+00  0.00000000E+00  0.00000000E+00
  0.00000000E+00  0.00000000E+00  0.00000000E+00
  0.00000000E+00  0.00000000E+00  0.00000000E+00
  0.00000000E+00  0.00000000E+00  0.00000000E+00
  0.00000000E+00  0.00000000E+00  0.00000000E+00
  0.00000000E+00  0.00000000E+00  0.00000000E+00
  0.00000000E+00  0.00000000E+00  0.00000000E+00
  0.00000000E+00  0.00000000E+00  0.00000000E+00
  0.00000000E+00  0.00000000E+00  0.00000000E+00
  0.00000000E+00  0.00000000E+00  0.00000000E+00
  0.00000000E+00  0.00000000E+00  0.00000000E+00
  0.00000000E+00  0.00000000E+00  0.00000000E+00
  0.00000000E+00  0.00000000E+00  0.00000000E+00
  0.00000000E+00  0.00000000E+00  0.00000000E+00
  0.00000000E+00  0.00000000E+00  0.00000000E+00
  0.00000000E+00  0.00000000E+00  0.00000000E+00
  0.00000000E+00  0.00000000E+00  0.00000000E+00
  0.00000000E+00  0.00000000E+00  0.00000000E+00
  0.00000000E+00  0.00000000E+00  0.00000000E+00
  0.00000000E+00  0.00000000E+00  0.00000000E+00
  0.00000000E+00  0.00000000E+00  0.00000000E+00
  0.00000000E+00  0.00000000E+00  0.00000000E+00
  0.00000000E+00  0.00000000E+00  0.00000000E+00
  0.00000000E+00  0.00000000E+00  0.00000000E+00
  0.00000000E+00  0.00000000E+00  0.00000000E+00
  0.00000000E+00  0.00000000E+00  0.00000000E+00
  0.00000000E+00  0.00000000E+00  0.00000000E+00
  0.00000000E+00  0.00000000E+00  0.00000000E+00
  0.00000000E+00  0.00000000E+00  0.00000000E+00
  0.00000000E+00  0.00000000E+00  0.00000000E+00
  0.00000000E+00  0.00000000E+00  0.00000000E+00
  0.00000000E+00  0.00000000E+00  0.00000000E+00
  0.00000000E+00  0.00000000E+00  0.00000000E+00
  0.00000000E+00  0.00000000E+00  0.00000000E+00
  0.00000000E+00  0.00000000E+00  0.00000000E+00
  0.00000000E+00  0.00000000E+00  0.00000000E+00
  0.00000000E+00  0.00000000E+00  0.00000000E+00
  0.00000000E+00  0.00000000E+00  0.00000000E+00
  0.00000000E+00  0.00000000E+00  0.00000000E+00
  0.00000000E+00  0.00000000E+00  0.00000000E+00
  0.00000000E+00  0.00000000E+00  0.00000000E+00
  0.00000000E+00  0.00000000E+00  0.00000000E+00
  0.00000000E+00  0.00000000E+00  0.00000000E+00
  0.00000000E+00  0.00000000E+00  0.00000000E+00
  0.00000000E+00  0.00000000E+00  0.00000000E+00
  0.00000000E+00  0.00000000E+00  0.00000000E+00
