Generated by VASPKIT code               
   1.00000000000000     
    25.2498420467146261    0.3532084426137647    0.0000000000000000
     0.3923344758603975   24.5570959956639463    0.0000000000000000
     0.0000000000000013    0.0000000000000012   21.9681263539285005
  C             
   336
Direct
  0.3874652397554297  0.6037791495198428  0.4627108137959083
  0.0124861024985566  0.8647002997507329  0.5563725529342901
  0.3874648863369670  0.6037737033044467  0.5372900055416379
  0.0435746460108195  0.8943453781390626  0.6002372402441462
  0.4412029535069406  0.6254996870422298  0.5541095471820878
  0.0072115303960816  0.9257399583999346  0.6387274259581320
  0.4412053016267666  0.6255083793267250  0.4459017844797583
  0.9569191769058840  0.8777649555048062  0.5677620849049330
  0.4694165922740487  0.6409411474418696  0.5000094632015675
  0.9536264087012505  0.9154793625973585  0.6186735671436747
  0.4692935497277793  0.6066811974592985  0.3952897375527468
  0.9217609095019853  0.8837697248991557  0.5188876563662558
  0.4524066944402210  0.5588590290417814  0.3607466957304874
  0.9405161056833464  0.8766383028471169  0.4568595237524452
  0.3793948239456005  0.5496305406657482  0.4338756328085529
  0.0306547933235481  0.8580692074080812  0.4965871797682362
  0.4086533041041409  0.5308528699690049  0.3809524080165297
  0.9940388550173255  0.8640260478653418  0.4458846140544395
  0.3640165310668680  0.5041420016943300  0.4672802541503678
  0.0805809719708175  0.8808841204240468  0.4783760037842748
  0.3793894828139071  0.5496223376129410  0.5661183060309171
  0.0917183855635756  0.9162452853772669  0.5826495104815644
  0.3640143703136527  0.5041388314437557  0.5327041408806640
  0.1105575939414289  0.9093537988699621  0.5206110953472296
  0.4086452971923281  0.5308379022129522  0.6190444646490904
  0.1054218588503158  0.9703046498989071  0.6029647526305543
  0.4692852589825422  0.6066676956154357  0.6047237190345673
  0.0203646799892777  0.9778643890289919  0.6582637313003126
  0.4523949488971851  0.5588424962053965  0.6392569381322093
  0.0703940796684825  0.0005620269304836  0.6400425961371792
  0.5264953016681390  0.6051380357222795  0.6049941644489447
  0.9804373147690024  0.0217044141240728  0.6584912044592056
  0.5253437039455134  0.6400369003171903  0.5000133607376909
  0.9152000684483854  0.9577294193274376  0.6188612294406890
  0.5541976439222562  0.6217562873589364  0.5533046790224446
  0.9288115412132063  0.0118240902695643  0.6391705322802402
  0.5265043339593153  0.6051512706086936  0.3950260251635242
  0.8820452070037897  0.9277219515736019  0.5191005791099880
  0.5542021599238826  0.6217627277170598  0.4467232946269742
  0.8786389620477613  0.9638934260047770  0.5681402450339149
  0.4992871942394027  0.5287345684682636  0.3404207399499783
  0.9122901817971696  0.9161339169488190  0.4187123185206160
  0.5450944815415606  0.5574963446290694  0.3613399683231248
  0.8760327398762952  0.9476131002429490  0.4572281675228649
  0.5007256057642490  0.4712861316898079  0.3404139848616367
  0.9385948442857346  0.9415558913785329  0.3709564750768590
  0.4097508196580722  0.4717930552751454  0.3808182336604467
  0.0213857513585118  0.8904563276736478  0.3963394043526645
  0.3818507016915009  0.4550186364612719  0.4347566921811105
  0.0749426997271700  0.9007912730589580  0.4164538218679780
  0.4549171001677056  0.4425227709099147  0.3613248693911393
  0.9942021185581528  0.9284905083803536  0.3595796817005375
  0.3994380631776404  0.4091623112114732  0.4666736145567851
  0.0994322825231669  0.9486689405178231  0.3989838607441619
  0.3818462642331384  0.4550098745627623  0.5652221192271270
  0.1360261991993056  0.9590078428311203  0.5025244141430403
  0.4097405423180574  0.4717793930676853  0.6191670668182112
  0.1327644114467105  0.9967154145461444  0.5534234281964765
  0.3994362303225240  0.4091597761785917  0.5332975423860206
  0.1305092291426275  0.9782992819233698  0.4428677479745332
  0.4549042577746807  0.4425047133079679  0.6386609955313021
  0.1239654017231608  0.0523912662247198  0.5427733650530299
  0.4992731106691312  0.5287147116713080  0.6595865398212576
  0.0614037897788627  0.0584495340293724  0.6290453633174214
  0.5450821679496144  0.5574780327867314  0.6386756140662569
  0.0057959308589849  0.0715139944407641  0.6404219564255630
  0.5007116015357430  0.4712663569891825  0.6595800331023791
  0.0877084960640250  0.0838702169773607  0.5812897128789183
  0.5902484970678609  0.5282075674600299  0.6191811930061450
  0.9786128235635978  0.1095482070400363  0.6036609488679991
  0.6005610651027550  0.5908385590990936  0.5333270127987024
  0.9005659785955867  0.0513356332851987  0.6010171328328346
  0.6005626324069966  0.5908407306211205  0.4667031923990262
  0.8694892134471403  0.0217055539063502  0.5571334390127883
  0.6181485790611838  0.5449822975655511  0.5652431757101098
  0.9250561507733979  0.0992134585731283  0.5835458962603384
  0.5902582620572558  0.5282215007347434  0.3808334372425102
  0.8672346270849257  0.0032892941608088  0.4465777760174813
  0.6181523005950238  0.5449904259074599  0.4347783307393706
  0.8639721450559180  0.0409966731630538  0.4974767791378458
  0.5476038099509871  0.4411579302886405  0.3607440408250641
  0.9296054126345232  0.9994436723312408  0.3599596705719897
  0.5913531842497489  0.4691621484349230  0.3809566455601798
  0.8945771912089784  0.0296999087561033  0.3970358539344129
  0.4735048062967570  0.3948625172514144  0.3950060776855891
  0.0195612101866303  0.9782999806226830  0.3415106351332926
  0.4458019944719327  0.3782443039450617  0.4466958397554481
  0.0711872524534161  0.9881804702915744  0.3608309101821410
  0.5307143109508852  0.3933330216148094  0.3952772348367790
  0.9796349876179157  0.0221409668211034  0.3417378855550408
  0.4457971146294301  0.3782380594237888  0.5532773124344382
  0.1213593776250096  0.0361114150744845  0.4318615311957100
  0.4734946609342691  0.3948498058351000  0.6049743311556002
  0.1179523622809201  0.0722827473809241  0.4809020846797728
  0.4746557631289994  0.3599640584806760  0.4999873733940604
  0.0847984630402826  0.0422748515941052  0.3811396983796647
  0.5475926274473207  0.4411417002433870  0.6392534075662539
  0.0594819583417271  0.1233661453059022  0.5431425154720658
  0.5913453913212540  0.4691480810703044  0.6190475600294266
  0.0059597910052777  0.1359781716632995  0.5541165824793689
  0.5307052595816251  0.3933203235295770  0.6047109724958663
  0.0782378092712383  0.1162339956402795  0.4811136247938997
  0.6359827679146614  0.4958578687644388  0.5327199491606673
  0.9194183274528638  0.1191205955876974  0.5216239215689894
  0.6359838863307749  0.4958613760457929  0.4672967604751568
  0.8894408715216037  0.0906507685567503  0.4793900442178562
  0.6206097032975960  0.4503774099086815  0.4338823723092795
  0.9082804616791835  0.0837593958843720  0.4173514007741426
  0.6206035169214160  0.4503694777333596  0.5661246550341272
  0.9693435166666708  0.1419356424422064  0.5034122225927290
  0.5587963189888794  0.3745002708862982  0.4458908883887122
  0.9927878126459070  0.0742650938728139  0.3612737088870535
  0.5305827971880913  0.3590594431425589  0.4999914408489242
  0.0463732795786834  0.0845257198325999  0.3813262838867941
  0.5587938729821997  0.3744922022673421  0.5540988987426331
  0.0430798486715017  0.1222403580412618  0.4322387763323243
  0.6125340434221016  0.3962259285560690  0.4627100976327554
  0.9564243520283006  0.1056601410787461  0.3997642024821416
  0.6125339661615964  0.3962209729696943  0.5372894267714868
  0.9875128514911670  0.1353048558841100  0.4436284612678553
  0.0808023641286722  0.5556026018163192  0.5000135053186479
  0.5633280214316685  0.9200573460470646  0.4999649964517296
  0.6901364217318641  0.8889913804679396  0.5665004018435122
  0.3098645607821900  0.1110051120607825  0.5666068946268941
  0.8805663222322748  0.3182059575835085  0.5667475343257173
  0.1194303542935575  0.6817686968042130  0.5668321863953990
  0.0723840345180988  0.5842938146276219  0.5575998539847240
  0.5901319935133839  0.9303575632490075  0.5575642452122046
  0.6356706785546248  0.8859262984628936  0.5393149647076986
  0.3643285747902489  0.1140670636630930  0.5394030320069005
  0.8820561882783070  0.3743243588186064  0.5393771767197679
  0.1179444825188133  0.6256648792813952  0.5394256231328045
  0.0684823187235771  0.5301355551102158  0.5970456387754230
  0.5371701095177809  0.9314671886388993  0.5969445356250083
  0.6238454921802989  0.8265405852534996  0.5529954222033827
  0.3761597508140845  0.1734520591274246  0.5530876942896353
  0.8258913977555340  0.3953495308942107  0.5530194653782993
  0.1741105409829085  0.6046347900555142  0.5530457902080067
  0.1018865406568165  0.5049517916857145  0.5000057052725032
  0.5166038198641908  0.8956144923703213  0.4999690209778641
  0.7009402083058583  0.8411393326889909  0.6057027571899134
  0.2990598613141391  0.1588596474035370  0.6057894496824174
  0.8336215538658355  0.3142617839903417  0.6057774804141287
  0.1663945543220204  0.6856966496854461  0.6058440486146094
  0.0885865763047363  0.4843700023719757  0.5604522191813784
  0.4951245330848041  0.9083183521795219  0.5603770661365772
  0.6592220463241065  0.8038292957641890  0.5979398274001473
  0.3408029208593272  0.1961632385590567  0.5980446478190383
  0.8013026236143536  0.3624502025104148  0.5975263032437524
  0.1987112268872620  0.6375143338413702  0.5975674905466548
  0.0885888488830789  0.4843824751358224  0.4395528989122716
  0.4951093554730130  0.9083355014897466  0.4395728898178869
  0.7551798593452159  0.8223641243111409  0.5992006475368533
  0.2448286939103545  0.1776132671231442  0.5993511858164192
  0.8104630167093159  0.2615565663386489  0.5990643895343444
  0.1895518657401379  0.7384044249862086  0.5991779548918241
  0.0723862610971907  0.5843092799066804  0.4424307292008823
  0.5901234885047478  0.9303721202838481  0.4423635116620623
  0.7353407104230678  0.8964138360683523  0.5329078320366926
  0.2646505509343849  0.1035703439648103  0.5330487161237047
  0.8833232224016386  0.2708059255133407  0.5328724439032433
  0.1166820214736414  0.7291802266440356  0.5329828213488943
  0.0684877161822376  0.5301567632731162  0.4029688656631423
  0.5371479534541185  0.9314992965092017  0.4030017962693467
  0.7765987034564645  0.8556757778636320  0.5527006423916450
  0.2233096682611581  0.1442408576546732  0.5529068616511551
  0.8408555961877733  0.2340888220302146  0.5531437826323068
  0.1591628337091836  0.7658859398011347  0.5532617112944815
  0.0168132485054647  0.6070176056874270  0.4437151438896257
  0.6057662215628604  0.9886848017945633  0.4436765029731526
  0.7353553416926444  0.8964247037162340  0.4669451829956124
  0.2646625738975166  0.1035812424275877  0.4670857968459082
  0.8833171301361046  0.2708212568229535  0.4670213213715407
  0.1166757704270962  0.7291957277436703  0.4671306125784757
  0.0168103774131140  0.6070025064034110  0.5563136517421818
  0.6057764260504761  0.9886668672371937  0.5562795623745219
  0.6356749258886184  0.8859300513666887  0.4605907513543513
  0.3643329505819796  0.1140719230460884  0.4606796421650914
  0.8820544387901186  0.3743353775977893  0.4605763443344555
  0.1179418087170499  0.6256770234896607  0.4606247647446973
  0.9913089191909230  0.6202008731751084  0.5000165638001624
  0.6155724023390626  0.0155415904921706  0.4999841463085218
  0.6901395837535088  0.8889922437234345  0.4333880914884287
  0.3098665340286387  0.1110058529234749  0.4334942754271489
  0.8805692782711622  0.3182316244622981  0.4331705684309954
  0.1194322212899899  0.6817956992992600  0.4332545231894351
  0.0133829089051727  0.5262386816328006  0.6128111739916373
  0.5270217436048734  0.9877359084318518  0.6126582424608580
  0.6128379642188625  0.7955629858628394  0.4999506426460493
  0.3871639825080582  0.2044347529399969  0.5000446837032788
  0.7971428046243128  0.4111233771268846  0.4999917163514886
  0.2028557438918518  0.5888774315482218  0.5000087103144000
  0.9837549068732760  0.5733775895915033  0.5912553703264493
  0.5692835055800065  0.0207166140348837  0.5911774246087951
  0.6238445239399950  0.8265445298022132  0.4469071032778716
  0.3761560665148556  0.1734577209720294  0.4470013132585043
  0.8258880825128181  0.3953656648133108  0.4469552396253622
  0.1741063480396952  0.6046526558964261  0.4469806782220102
  0.9866085910152094  0.4737374204556855  0.6128037734280443
  0.4730055687297045  0.0122266425021032  0.6126743007855214
  0.6246145145809553  0.7378128476758341  0.4999515639990175
  0.3753872527586288  0.2621845877333375  0.5000451863556444
  0.7402716223734011  0.4072569885482793  0.4999946005343033
  0.2597271290800027  0.5927433387227439  0.5000054468366093
  0.0657647568702203  0.4330621630868259  0.5585567677449623
  0.4427442845124998  0.9288594183680480  0.5585079845903606
  0.6715745392803923  0.7463397779734984  0.5983700413989010
  0.3284669835203733  0.2536448743259708  0.5984755183956427
  0.7446110974858895  0.3586198181139592  0.5975106876679555
  0.2553998738662911  0.6413441230568480  0.5975437169068626
  0.0162396447485876  0.4266024455771515  0.5912407779270281
  0.4307374432028746  0.9792525611527535  0.5911885278629885
  0.6486135839440644  0.7130877061997190  0.5525384744435496
  0.3514178030156047  0.2869039985556714  0.5526145012988641
  0.7145579635642850  0.3874347249144279  0.5526238425419785
  0.2854491225290650  0.6125382542253180  0.5526318886973410
  0.0657669602693131  0.4330746426022283  0.4414338894630887
  0.4427292198018276  0.9288766761488774  0.4414699127850650
  0.7676189819000141  0.7648916510126417  0.5986579132643016
  0.2324051906314777  0.2350842317613037  0.5988248191939284
  0.7539319086527037  0.2576555642646525  0.5990236730852958
  0.2460787414378928  0.7423052343001544  0.5991083334635998
  0.0594747913983430  0.4062707533060642  0.4999928323690275
  0.4160186864253285  0.9338381924115761  0.4999963843103573
  0.7255693272021878  0.7274542850746769  0.6058148347364928
  0.2744872773610524  0.2725124251314833  0.6059116456506586
  0.7213765491357108  0.3066838120359109  0.6051559147286282
  0.2786345567545860  0.6932697316067331  0.6052060974260575
  0.0162434574284932  0.4266221575411597  0.4087477357470054
  0.4307177395983922  0.9792821974898437  0.4088186724773519
  0.8027767962392252  0.7427266017235234  0.5528124593758073
  0.1972388338929227  0.2572717932794463  0.5530078378231480
  0.7289542641166508  0.2265057902061818  0.5530966084628568
  0.2710522568065563  0.7734723208443127  0.5531993885280345
  0.0133901772232836  0.5262623246332573  0.3871982223197427
  0.5269962901457805  0.9877725768447699  0.3873224300075683
  0.8010159268447969  0.8315460616275384  0.4998904360367987
  0.1989879241700223  0.1684490156332851  0.5001051234390865
  0.8150624350928387  0.2139403140357260  0.4999294650656672
  0.1849369686556346  0.7860605818388544  0.5000759736743425
  0.9837587764439225  0.5733964569028611  0.4087617033864121
  0.5692647722377925  0.0207455749552118  0.4088075825736949
  0.7766944483896506  0.8557536547868857  0.4470882643233908
  0.2234030958233952  0.1443188636428869  0.4472947152489795
  0.8408367609374154  0.2341137504959835  0.4467434671463808
  0.1591439211112433  0.7659131737810654  0.4468614390173695
  0.9866161136535873  0.4737610571992949  0.3871910628158736
  0.4729799291933703  0.0122619823422961  0.3873374046645892
  0.8148548946482004  0.7745265648735187  0.4998986315486649
  0.1851485181000990  0.2254687088031458  0.5000995289984865
  0.7581522703943432  0.2098428442948016  0.4999441503519287
  0.2418474209188417  0.7901580845165558  0.5000606915664094
  0.9405231249801624  0.5937277498942698  0.5000108703874823
  0.5839828207842817  0.0661601766005636  0.4999997989082186
  0.7009450099232983  0.8411339785508727  0.3942076923362654
  0.2990618018232107  0.1588570148156637  0.3942929142383337
  0.8336051154873477  0.3143038349481207  0.3941584760675322
  0.1663766815255490  0.6857410428652780  0.3942253149753257
  0.9342312350306714  0.5669248705609670  0.5585689777990308
  0.5572730174308149  0.0711223397118288  0.5585265100650790
  0.6592015839120480  0.8038323030503455  0.4019519106674606
  0.3407793673599870  0.1961691510391985  0.4020563314503482
  0.8012881040167923  0.3624850858469215  0.4024335015185604
  0.1986959844430026  0.6375520389574361  0.4024750815263179
  0.9342335627217895  0.5669363561379932  0.4414464291568909
  0.5572577304628257  0.0711378738340113  0.4414885843259592
  0.7551759172336873  0.8223805842797616  0.4006458090911316
  0.2448206321187409  0.1776320719155592  0.4007962073084650
  0.8104483429541861  0.2615952491693173  0.4008259654673778
  0.1895360724168589  0.7384458516664455  0.4009398665222867
  0.9315100352746363  0.4698430872916292  0.5970336302421776
  0.4628535888228368  0.0684997745742466  0.5969943204687895
  0.6485841991683847  0.7130935220028698  0.4473827805672928
  0.3513865155412867  0.2869096332780911  0.4474582990747582
  0.7145502579301665  0.3874611797835057  0.4473683482911562
  0.2854402726772294  0.6125651278578155  0.4473761670717191
  0.9114086996703613  0.5156170972475710  0.5604496367955213
  0.5048929571045471  0.0916630703945500  0.5604233184439966
  0.6715356998323713  0.7463503755425354  0.4015221811397379
  0.3284257998858164  0.2536584554658177  0.4016263864346012
  0.7445996187986419  0.3586545765593078  0.4024570772134043
  0.2553874281309893  0.6413809416236538  0.4024904755595671
  0.9831848344438269  0.3929818592822954  0.5562873119625285
  0.3942355935020440  0.0113139253377310  0.5563199915918168
  0.6884122231120997  0.6715612584705323  0.5323998612434945
  0.3116056572255577  0.3284331980075822  0.5324924685840186
  0.6637227992176149  0.3582929407201928  0.5365959072787577
  0.3362791580599002  0.6416943407852854  0.5366038987693178
  0.0086883976550633  0.3797992034686789  0.4999868613463117
  0.3844291926772755  0.9844572052084603  0.5000117958072268
  0.7355780816779180  0.6801989973729891  0.5647396281559804
  0.2644580147842242  0.3197884294439676  0.5648587365265769
  0.6738842455103519  0.3042520226282385  0.5667446583017421
  0.3261177227466930  0.6957207002494173  0.5667802146855982
  0.9831878469275235  0.3929965987775250  0.4436883557786883
  0.3942252864610991  0.0113318729896253  0.4437170700658042
  0.7829906388846611  0.6898077021835946  0.5321557948279566
  0.2170232709776615  0.3101902292797724  0.5323204598677490
  0.6799809327086448  0.2568067712657853  0.5328756450120772
  0.3200275902678397  0.7431824437668714  0.5329458285665156
  0.9276124428979841  0.4156910681965883  0.5575711642956837
  0.4098781532692484  0.0696261183856620  0.5576323960214263
  0.6883949626583360  0.6715640085475385  0.4675066766018169
  0.3115882687715044  0.3284359246148385  0.4675981593256645
  0.6637207433220795  0.3583046416215444  0.4633973975183069
  0.3362754270384034  0.6417063566543088  0.4634057819190323
  0.9315165754550053  0.4698640098578647  0.4029569593364967
  0.4628320966387187  0.0685313843405581  0.4030503998769943
  0.8027645514422017  0.7427221469540087  0.4469894315081131
  0.1972248979611974  0.2572705625560969  0.4471862035094292
  0.7289484136786937  0.2265266078382596  0.4468046196434666
  0.2710445680966397  0.7734951959416464  0.4469075191483870
  0.9114108072705703  0.5156295534159901  0.4395503215677736
  0.5048786425198563  0.0916795269739898  0.4396185858522336
  0.7675992951139990  0.7649098822536655  0.4011725415922655
  0.2323813922593772  0.2351054021326740  0.4013403451935224
  0.7539215152389298  0.2576933493879808  0.4008950189119549
  0.2460670445463532  0.7423452033387851  0.4009810279966849
  0.8981117254136295  0.4950479379394732  0.4999969003799733
  0.4833980904023676  0.1043845449173194  0.5000277867524130
  0.7255166452361055  0.7274811704495284  0.3940855565681075
  0.2744316376253885  0.2725425507832539  0.3941827143828332
  0.7213658214885960  0.3067283392327004  0.3947951406941871
  0.2786215366619191  0.6933176109791310  0.3948471830599694
  0.9276150347219901  0.4157056647664026  0.4424023252238725
  0.4098713621080221  0.0696403674962548  0.4424318478103530
  0.7829792931763978  0.6898047171152528  0.4676784637746064
  0.2170101148731099  0.3101892244386674  0.4678445183618692
  0.6799723567740987  0.2568170069858872  0.4670580876436592
  0.3200186295555080  0.7431934648168512  0.4671272565847615
  0.9191970034159459  0.4443977661489683  0.4999889065328290
  0.4366753014577242  0.0799412354929880  0.5000305532366207
  0.7355440613628785  0.6802053604187689  0.4351399479894223
  0.2644225028208915  0.3197980617070612  0.4352586327965290
  0.6738822132008520  0.3042774566316347  0.4332230011850070
  0.3261140813846420  0.6957478963789852  0.4332579205675610
 
  0.00000000E+00  0.00000000E+00  0.00000000E+00
  0.00000000E+00  0.00000000E+00  0.00000000E+00
  0.00000000E+00  0.00000000E+00  0.00000000E+00
  0.00000000E+00  0.00000000E+00  0.00000000E+00
  0.00000000E+00  0.00000000E+00  0.00000000E+00
  0.00000000E+00  0.00000000E+00  0.00000000E+00
  0.00000000E+00  0.00000000E+00  0.00000000E+00
  0.00000000E+00  0.00000000E+00  0.00000000E+00
  0.00000000E+00  0.00000000E+00  0.00000000E+00
  0.00000000E+00  0.00000000E+00  0.00000000E+00
  0.00000000E+00  0.00000000E+00  0.00000000E+00
  0.00000000E+00  0.00000000E+00  0.00000000E+00
  0.00000000E+00  0.00000000E+00  0.00000000E+00
  0.00000000E+00  0.00000000E+00  0.00000000E+00
  0.00000000E+00  0.00000000E+00  0.00000000E+00
  0.00000000E+00  0.00000000E+00  0.00000000E+00
  0.00000000E+00  0.00000000E+00  0.00000000E+00
  0.00000000E+00  0.00000000E+00  0.00000000E+00
  0.00000000E+00  0.00000000E+00  0.00000000E+00
  0.00000000E+00  0.00000000E+00  0.00000000E+00
  0.00000000E+00  0.00000000E+00  0.00000000E+00
  0.00000000E+00  0.00000000E+00  0.00000000E+00
  0.00000000E+00  0.00000000E+00  0.00000000E+00
  0.00000000E+00  0.00000000E+00  0.00000000E+00
  0.00000000E+00  0.00000000E+00  0.00000000E+00
  0.00000000E+00  0.00000000E+00  0.00000000E+00
  0.00000000E+00  0.00000000E+00  0.00000000E+00
  0.00000000E+00  0.00000000E+00  0.00000000E+00
  0.00000000E+00  0.00000000E+00  0.00000000E+00
  0.00000000E+00  0.00000000E+00  0.00000000E+00
  0.00000000E+00  0.00000000E+00  0.00000000E+00
  0.00000000E+00  0.00000000E+00  0.00000000E+00
  0.00000000E+00  0.00000000E+00  0.00000000E+00
  0.00000000E+00  0.00000000E+00  0.00000000E+00
  0.00000000E+00  0.00000000E+00  0.00000000E+00
  0.00000000E+00  0.00000000E+00  0.00000000E+00
  0.00000000E+00  0.00000000E+00  0.00000000E+00
  0.00000000E+00  0.00000000E+00  0.00000000E+00
  0.00000000E+00  0.00000000E+00  0.00000000E+00
  0.00000000E+00  0.00000000E+00  0.00000000E+00
  0.00000000E+00  0.00000000E+00  0.00000000E+00
  0.00000000E+00  0.00000000E+00  0.00000000E+00
  0.00000000E+00  0.00000000E+00  0.00000000E+00
  0.00000000E+00  0.00000000E+00  0.00000000E+00
  0.00000000E+00  0.00000000E+00  0.00000000E+00
  0.00000000E+00  0.00000000E+00  0.00000000E+00
  0.00000000E+00  0.00000000E+00  0.00000000E+00
  0.00000000E+00  0.00000000E+00  0.00000000E+00
  0.00000000E+00  0.00000000E+00  0.00000000E+00
  0.00000000E+00  0.00000000E+00  0.00000000E+00
  0.00000000E+00  0.00000000E+00  0.00000000E+00
  0.00000000E+00  0.00000000E+00  0.00000000E+00
  0.00000000E+00  0.00000000E+00  0.00000000E+00
  0.00000000E+00  0.00000000E+00  0.00000000E+00
  0.00000000E+00  0.00000000E+00  0.00000000E+00
  0.00000000E+00  0.00000000E+00  0.00000000E+00
  0.00000000E+00  0.00000000E+00  0.00000000E+00
  0.00000000E+00  0.00000000E+00  0.00000000E+00
  0.00000000E+00  0.00000000E+00  0.00000000E+00
  0.00000000E+00  0.00000000E+00  0.00000000E+00
  0.00000000E+00  0.00000000E+00  0.00000000E+00
  0.00000000E+00  0.00000000E+00  0.00000000E+00
  0.00000000E+00  0.00000000E+00  0.00000000E+00
  0.00000000E+00  0.00000000E+00  0.00000000E+00
  0.00000000E+00  0.00000000E+00  0.00000000E+00
  0.00000000E+00  0.00000000E+00  0.00000000E+00
  0.00000000E+00  0.00000000E+00  0.00000000E+00
  0.00000000E+00  0.00000000E+00  0.00000000E+00
  0.00000000E+00  0.00000000E+00  0.00000000E+00
  0.00000000E+00  0.00000000E+00  0.00000000E+00
  0.00000000E+00  0.00000000E+00  0.00000000E+00
  0.00000000E+00  0.00000000E+00  0.00000000E+00
  0.00000000E+00  0.00000000E+00  0.00000000E+00
  0.00000000E+00  0.00000000E+00  0.00000000E+00
  0.00000000E+00  0.00000000E+00  0.00000000E+00
  0.00000000E+00  0.00000000E+00  0.00000000E+00
  0.00000000E+00  0.00000000E+00  0.00000000E+00
  0.00000000E+00  0.00000000E+00  0.00000000E+00
  0.00000000E+00  0.00000000E+00  0.00000000E+00
  0.00000000E+00  0.00000000E+00  0.00000000E+00
  0.00000000E+00  0.00000000E+00  0.00000000E+00
  0.00000000E+00  0.00000000E+00  0.00000000E+00
  0.00000000E+00  0.00000000E+00  0.00000000E+00
  0.00000000E+00  0.00000000E+00  0.00000000E+00
  0.00000000E+00  0.00000000E+00  0.00000000E+00
  0.00000000E+00  0.00000000E+00  0.00000000E+00
  0.00000000E+00  0.00000000E+00  0.00000000E+00
  0.00000000E+00  0.00000000E+00  0.00000000E+00
  0.00000000E+00  0.00000000E+00  0.00000000E+00
  0.00000000E+00  0.00000000E+00  0.00000000E+00
  0.00000000E+00  0.00000000E+00  0.00000000E+00
  0.00000000E+00  0.00000000E+00  0.00000000E+00
  0.00000000E+00  0.00000000E+00  0.00000000E+00
  0.00000000E+00  0.00000000E+00  0.00000000E+00
  0.00000000E+00  0.00000000E+00  0.00000000E+00
  0.00000000E+00  0.00000000E+00  0.00000000E+00
  0.00000000E+00  0.00000000E+00  0.00000000E+00
  0.00000000E+00  0.00000000E+00  0.00000000E+00
  0.00000000E+00  0.00000000E+00  0.00000000E+00
  0.00000000E+00  0.00000000E+00  0.00000000E+00
  0.00000000E+00  0.00000000E+00  0.00000000E+00
  0.00000000E+00  0.00000000E+00  0.00000000E+00
  0.00000000E+00  0.00000000E+00  0.00000000E+00
  0.00000000E+00  0.00000000E+00  0.00000000E+00
  0.00000000E+00  0.00000000E+00  0.00000000E+00
  0.00000000E+00  0.00000000E+00  0.00000000E+00
  0.00000000E+00  0.00000000E+00  0.00000000E+00
  0.00000000E+00  0.00000000E+00  0.00000000E+00
  0.00000000E+00  0.00000000E+00  0.00000000E+00
  0.00000000E+00  0.00000000E+00  0.00000000E+00
  0.00000000E+00  0.00000000E+00  0.00000000E+00
  0.00000000E+00  0.00000000E+00  0.00000000E+00
  0.00000000E+00  0.00000000E+00  0.00000000E+00
  0.00000000E+00  0.00000000E+00  0.00000000E+00
  0.00000000E+00  0.00000000E+00  0.00000000E+00
  0.00000000E+00  0.00000000E+00  0.00000000E+00
  0.00000000E+00  0.00000000E+00  0.00000000E+00
  0.00000000E+00  0.00000000E+00  0.00000000E+00
  0.00000000E+00  0.00000000E+00  0.00000000E+00
  0.00000000E+00  0.00000000E+00  0.00000000E+00
  0.00000000E+00  0.00000000E+00  0.00000000E+00
  0.00000000E+00  0.00000000E+00  0.00000000E+00
  0.00000000E+00  0.00000000E+00  0.00000000E+00
  0.00000000E+00  0.00000000E+00  0.00000000E+00
  0.00000000E+00  0.00000000E+00  0.00000000E+00
  0.00000000E+00  0.00000000E+00  0.00000000E+00
  0.00000000E+00  0.00000000E+00  0.00000000E+00
  0.00000000E+00  0.00000000E+00  0.00000000E+00
  0.00000000E+00  0.00000000E+00  0.00000000E+00
  0.00000000E+00  0.00000000E+00  0.00000000E+00
  0.00000000E+00  0.00000000E+00  0.00000000E+00
  0.00000000E+00  0.00000000E+00  0.00000000E+00
  0.00000000E+00  0.00000000E+00  0.00000000E+00
  0.00000000E+00  0.00000000E+00  0.00000000E+00
  0.00000000E+00  0.00000000E+00  0.00000000E+00
  0.00000000E+00  0.00000000E+00  0.00000000E+00
  0.00000000E+00  0.00000000E+00  0.00000000E+00
  0.00000000E+00  0.00000000E+00  0.00000000E+00
  0.00000000E+00  0.00000000E+00  0.00000000E+00
  0.00000000E+00  0.00000000E+00  0.00000000E+00
  0.00000000E+00  0.00000000E+00  0.00000000E+00
  0.00000000E+00  0.00000000E+00  0.00000000E+00
  0.00000000E+00  0.00000000E+00  0.00000000E+00
  0.00000000E+00  0.00000000E+00  0.00000000E+00
  0.00000000E+00  0.00000000E+00  0.00000000E+00
  0.00000000E+00  0.00000000E+00  0.00000000E+00
  0.00000000E+00  0.00000000E+00  0.00000000E+00
  0.00000000E+00  0.00000000E+00  0.00000000E+00
  0.00000000E+00  0.00000000E+00  0.00000000E+00
  0.00000000E+00  0.00000000E+00  0.00000000E+00
  0.00000000E+00  0.00000000E+00  0.00000000E+00
  0.00000000E+00  0.00000000E+00  0.00000000E+00
  0.00000000E+00  0.00000000E+00  0.00000000E+00
  0.00000000E+00  0.00000000E+00  0.00000000E+00
  0.00000000E+00  0.00000000E+00  0.00000000E+00
  0.00000000E+00  0.00000000E+00  0.00000000E+00
  0.00000000E+00  0.00000000E+00  0.00000000E+00
  0.00000000E+00  0.00000000E+00  0.00000000E+00
  0.00000000E+00  0.00000000E+00  0.00000000E+00
  0.00000000E+00  0.00000000E+00  0.00000000E+00
  0.00000000E+00  0.00000000E+00  0.00000000E+00
  0.00000000E+00  0.00000000E+00  0.00000000E+00
  0.00000000E+00  0.00000000E+00  0.00000000E+00
  0.00000000E+00  0.00000000E+00  0.00000000E+00
  0.00000000E+00  0.00000000E+00  0.00000000E+00
  0.00000000E+00  0.00000000E+00  0.00000000E+00
  0.00000000E+00  0.00000000E+00  0.00000000E+00
  0.00000000E+00  0.00000000E+00  0.00000000E+00
  0.00000000E+00  0.00000000E+00  0.00000000E+00
  0.00000000E+00  0.00000000E+00  0.00000000E+00
  0.00000000E+00  0.00000000E+00  0.00000000E+00
  0.00000000E+00  0.00000000E+00  0.00000000E+00
  0.00000000E+00  0.00000000E+00  0.00000000E+00
  0.00000000E+00  0.00000000E+00  0.00000000E+00
  0.00000000E+00  0.00000000E+00  0.00000000E+00
  0.00000000E+00  0.00000000E+00  0.00000000E+00
  0.00000000E+00  0.00000000E+00  0.00000000E+00
  0.00000000E+00  0.00000000E+00  0.00000000E+00
  0.00000000E+00  0.00000000E+00  0.00000000E+00
  0.00000000E+00  0.00000000E+00  0.00000000E+00
  0.00000000E+00  0.00000000E+00  0.00000000E+00
  0.00000000E+00  0.00000000E+00  0.00000000E+00
  0.00000000E+00  0.00000000E+00  0.00000000E+00
  0.00000000E+00  0.00000000E+00  0.00000000E+00
  0.00000000E+00  0.00000000E+00  0.00000000E+00
  0.00000000E+00  0.00000000E+00  0.00000000E+00
  0.00000000E+00  0.00000000E+00  0.00000000E+00
  0.00000000E+00  0.00000000E+00  0.00000000E+00
  0.00000000E+00  0.00000000E+00  0.00000000E+00
  0.00000000E+00  0.00000000E+00  0.00000000E+00
  0.00000000E+00  0.00000000E+00  0.00000000E+00
  0.00000000E+00  0.00000000E+00  0.00000000E+00
  0.00000000E+00  0.00000000E+00  0.00000000E+00
  0.00000000E+00  0.00000000E+00  0.00000000E+00
  0.00000000E+00  0.00000000E+00  0.00000000E+00
  0.00000000E+00  0.00000000E+00  0.00000000E+00
  0.00000000E+00  0.00000000E+00  0.00000000E+00
  0.00000000E+00  0.00000000E+00  0.00000000E+00
  0.00000000E+00  0.00000000E+00  0.00000000E+00
  0.00000000E+00  0.00000000E+00  0.00000000E+00
  0.00000000E+00  0.00000000E+00  0.00000000E+00
  0.00000000E+00  0.00000000E+00  0.00000000E+00
  0.00000000E+00  0.00000000E+00  0.00000000E+00
  0.00000000E+00  0.00000000E+00  0.00000000E+00
  0.00000000E+00  0.00000000E+00  0.00000000E+00
  0.00000000E+00  0.00000000E+00  0.00000000E+00
  0.00000000E+00  0.00000000E+00  0.00000000E+00
  0.00000000E+00  0.00000000E+00  0.00000000E+00
  0.00000000E+00  0.00000000E+00  0.00000000E+00
  0.00000000E+00  0.00000000E+00  0.00000000E+00
  0.00000000E+00  0.00000000E+00  0.00000000E+00
  0.00000000E+00  0.00000000E+00  0.00000000E+00
  0.00000000E+00  0.00000000E+00  0.00000000E+00
  0.00000000E+00  0.00000000E+00  0.00000000E+00
  0.00000000E+00  0.00000000E+00  0.00000000E+00
  0.00000000E+00  0.00000000E+00  0.00000000E+00
  0.00000000E+00  0.00000000E+00  0.00000000E+00
  0.00000000E+00  0.00000000E+00  0.00000000E+00
  0.00000000E+00  0.00000000E+00  0.00000000E+00
  0.00000000E+00  0.00000000E+00  0.00000000E+00
  0.00000000E+00  0.00000000E+00  0.00000000E+00
  0.00000000E+00  0.00000000E+00  0.00000000E+00
  0.00000000E+00  0.00000000E+00  0.00000000E+00
  0.00000000E+00  0.00000000E+00  0.00000000E+00
  0.00000000E+00  0.00000000E+00  0.00000000E+00
  0.00000000E+00  0.00000000E+00  0.00000000E+00
  0.00000000E+00  0.00000000E+00  0.00000000E+00
  0.00000000E+00  0.00000000E+00  0.00000000E+00
  0.00000000E+00  0.00000000E+00  0.00000000E+00
  0.00000000E+00  0.00000000E+00  0.00000000E+00
  0.00000000E+00  0.00000000E+00  0.00000000E+00
  0.00000000E+00  0.00000000E+00  0.00000000E+00
  0.00000000E+00  0.00000000E+00  0.00000000E+00
  0.00000000E+00  0.00000000E+00  0.00000000E+00
  0.00000000E+00  0.00000000E+00  0.00000000E+00
  0.00000000E+00  0.00000000E+00  0.00000000E+00
  0.00000000E+00  0.00000000E+00  0.00000000E+00
  0.00000000E+00  0.00000000E+00  0.00000000E+00
  0.00000000E+00  0.00000000E+00  0.00000000E+00
  0.00000000E+00  0.00000000E+00  0.00000000E+00
  0.00000000E+00  0.00000000E+00  0.00000000E+00
  0.00000000E+00  0.00000000E+00  0.00000000E+00
  0.00000000E+00  0.00000000E+00  0.00000000E+00
  0.00000000E+00  0.00000000E+00  0.00000000E+00
  0.00000000E+00  0.00000000E+00  0.00000000E+00
  0.00000000E+00  0.00000000E+00  0.00000000E+00
  0.00000000E+00  0.00000000E+00  0.00000000E+00
  0.00000000E+00  0.00000000E+00  0.00000000E+00
  0.00000000E+00  0.00000000E+00  0.00000000E+00
  0.00000000E+00  0.00000000E+00  0.00000000E+00
  0.00000000E+00  0.00000000E+00  0.00000000E+00
  0.00000000E+00  0.00000000E+00  0.00000000E+00
  0.00000000E+00  0.00000000E+00  0.00000000E+00
  0.00000000E+00  0.00000000E+00  0.00000000E+00
  0.00000000E+00  0.00000000E+00  0.00000000E+00
  0.00000000E+00  0.00000000E+00  0.00000000E+00
  0.00000000E+00  0.00000000E+00  0.00000000E+00
  0.00000000E+00  0.00000000E+00  0.00000000E+00
  0.00000000E+00  0.00000000E+00  0.00000000E+00
  0.00000000E+00  0.00000000E+00  0.00000000E+00
  0.00000000E+00  0.00000000E+00  0.00000000E+00
  0.00000000E+00  0.00000000E+00  0.00000000E+00
  0.00000000E+00  0.00000000E+00  0.00000000E+00
  0.00000000E+00  0.00000000E+00  0.00000000E+00
  0.00000000E+00  0.00000000E+00  0.00000000E+00
  0.00000000E+00  0.00000000E+00  0.00000000E+00
  0.00000000E+00  0.00000000E+00  0.00000000E+00
  0.00000000E+00  0.00000000E+00  0.00000000E+00
  0.00000000E+00  0.00000000E+00  0.00000000E+00
  0.00000000E+00  0.00000000E+00  0.00000000E+00
  0.00000000E+00  0.00000000E+00  0.00000000E+00
  0.00000000E+00  0.00000000E+00  0.00000000E+00
  0.00000000E+00  0.00000000E+00  0.00000000E+00
  0.00000000E+00  0.00000000E+00  0.00000000E+00
  0.00000000E+00  0.00000000E+00  0.00000000E+00
  0.00000000E+00  0.00000000E+00  0.00000000E+00
  0.00000000E+00  0.00000000E+00  0.00000000E+00
  0.00000000E+00  0.00000000E+00  0.00000000E+00
  0.00000000E+00  0.00000000E+00  0.00000000E+00
  0.00000000E+00  0.00000000E+00  0.00000000E+00
  0.00000000E+00  0.00000000E+00  0.00000000E+00
  0.00000000E+00  0.00000000E+00  0.00000000E+00
  0.00000000E+00  0.00000000E+00  0.00000000E+00
  0.00000000E+00  0.00000000E+00  0.00000000E+00
  0.00000000E+00  0.00000000E+00  0.00000000E+00
  0.00000000E+00  0.00000000E+00  0.00000000E+00
  0.00000000E+00  0.00000000E+00  0.00000000E+00
  0.00000000E+00  0.00000000E+00  0.00000000E+00
  0.00000000E+00  0.00000000E+00  0.00000000E+00
  0.00000000E+00  0.00000000E+00  0.00000000E+00
  0.00000000E+00  0.00000000E+00  0.00000000E+00
  0.00000000E+00  0.00000000E+00  0.00000000E+00
  0.00000000E+00  0.00000000E+00  0.00000000E+00
  0.00000000E+00  0.00000000E+00  0.00000000E+00
  0.00000000E+00  0.00000000E+00  0.00000000E+00
  0.00000000E+00  0.00000000E+00  0.00000000E+00
  0.00000000E+00  0.00000000E+00  0.00000000E+00
  0.00000000E+00  0.00000000E+00  0.00000000E+00
  0.00000000E+00  0.00000000E+00  0.00000000E+00
  0.00000000E+00  0.00000000E+00  0.00000000E+00
  0.00000000E+00  0.00000000E+00  0.00000000E+00
  0.00000000E+00  0.00000000E+00  0.00000000E+00
  0.00000000E+00  0.00000000E+00  0.00000000E+00
  0.00000000E+00  0.00000000E+00  0.00000000E+00
  0.00000000E+00  0.00000000E+00  0.00000000E+00
  0.00000000E+00  0.00000000E+00  0.00000000E+00
  0.00000000E+00  0.00000000E+00  0.00000000E+00
  0.00000000E+00  0.00000000E+00  0.00000000E+00
  0.00000000E+00  0.00000000E+00  0.00000000E+00
  0.00000000E+00  0.00000000E+00  0.00000000E+00
  0.00000000E+00  0.00000000E+00  0.00000000E+00
  0.00000000E+00  0.00000000E+00  0.00000000E+00
  0.00000000E+00  0.00000000E+00  0.00000000E+00
  0.00000000E+00  0.00000000E+00  0.00000000E+00
  0.00000000E+00  0.00000000E+00  0.00000000E+00
  0.00000000E+00  0.00000000E+00  0.00000000E+00
  0.00000000E+00  0.00000000E+00  0.00000000E+00
  0.00000000E+00  0.00000000E+00  0.00000000E+00
  0.00000000E+00  0.00000000E+00  0.00000000E+00
  0.00000000E+00  0.00000000E+00  0.00000000E+00
  0.00000000E+00  0.00000000E+00  0.00000000E+00
  0.00000000E+00  0.00000000E+00  0.00000000E+00
  0.00000000E+00  0.00000000E+00  0.00000000E+00
  0.00000000E+00  0.00000000E+00  0.00000000E+00
  0.00000000E+00  0.00000000E+00  0.00000000E+00
  0.00000000E+00  0.00000000E+00  0.00000000E+00
  0.00000000E+00  0.00000000E+00  0.00000000E+00
  0.00000000E+00  0.00000000E+00  0.00000000E+00
  0.00000000E+00  0.00000000E+00  0.00000000E+00
  0.00000000E+00  0.00000000E+00  0.00000000E+00
  0.00000000E+00  0.00000000E+00  0.00000000E+00
  0.00000000E+00  0.00000000E+00  0.00000000E+00
  0.00000000E+00  0.00000000E+00  0.00000000E+00
  0.00000000E+00  0.00000000E+00  0.00000000E+00
  0.00000000E+00  0.00000000E+00  0.00000000E+00
  0.00000000E+00  0.00000000E+00  0.00000000E+00
