Generated by VASPKIT code               
   1.00000000000000     
    13.4004555551338154   -0.0155278227889943    0.0000000000000000
    -6.7020365831437463   11.3208160073187738    0.0000000000000000
     0.0000000000000014    0.0000000000000024   21.9346143140644187
  C             
    96
Direct
  0.1572579406761446  0.4670586855295066  0.3938189417938023
  0.2571726783435813  0.4526354663071617  0.3940122700618621
  0.3499497895815848  0.5492513560404114  0.3601342432941908
  0.1883824274733794  0.5732183893736281  0.3602089005038758
  0.3069090334487015  0.6237948690491915  0.3397485278793336
  0.1475119630653450  0.6469071937591225  0.3808530381467005
  0.0705605900248631  0.6134149326319307  0.4327484156049728
  0.0877570278753686  0.4399254999295728  0.4461487505934491
  0.0430248432328093  0.5130834082829031  0.4660740689056401
  0.1163980521020654  0.3978062432284847  0.4999974023134323
  0.2842035091324664  0.4125948974005555  0.4466298544252025
  0.2137255008846524  0.3877450966760281  0.4999978215725414
  0.4011589062751127  0.4578169893206941  0.4670693844361378
  0.4654533211142004  0.5993819058343249  0.3805436254302170
  0.4907757126394516  0.5519455952044272  0.4347493985289833
  0.5442651579445120  0.7247542537840721  0.3780000531040810
  0.3814302557947477  0.7471234434760036  0.3410945196900650
  0.5005535403908418  0.7972114435286913  0.3603388689264275
  0.2222546093585585  0.7734702734357065  0.3788654657469501
  0.3373224297034617  0.8221183673719703  0.3607340538665396
  0.0858237120877571  0.7199509464983840  0.4640783125828306
  0.1888738701166925  0.8272420578000320  0.4303638402298889
  0.0858248294768966  0.7199506611623079  0.5359222635582095
  0.0430271147766679  0.5130821652131600  0.5339248922261132
  0.0877601580450332  0.4399257069539888  0.5538489345206550
  0.0705641782494029  0.6134147136019884  0.5672506513651818
  0.1572628361793827  0.4670568101610473  0.6061769524380055
  0.2842061216821982  0.4125925013241390  0.5533634978331795
  0.4011603400788168  0.4578174374176688  0.5329236139609116
  0.2571752832307191  0.4526329596022875  0.6059816732392419
  0.4907772481347458  0.5519437307042486  0.5652423703882518
  0.5825074510201627  0.6452284225110593  0.4681714436557207
  0.6312575608323471  0.7590282704549132  0.4313885054690021
  0.5825091987855820  0.6452291780622385  0.5318201726927635
  0.6093056372141062  0.8383348294612657  0.4692106979736133
  0.5306561175063488  0.9074225671449474  0.3930055582513352
  0.4319809070694648  0.9234239898778497  0.3933329379945024
  0.5916822231491479  0.9308188914141907  0.4469927242529472
  0.2903525593400744  0.8986468462298605  0.4690715146667648
  0.4079514929650062  0.9646825789074545  0.4465777682614858
  0.1888748640115937  0.8272430348193746  0.5696384707863845
  0.2903528436992202  0.8986493970069096  0.5309305187636778
  0.1475164773507188  0.6469055244071428  0.6191457424403737
  0.1883872610400077  0.5732170974915243  0.6397888386975935
  0.2222590126349807  0.7734684938694353  0.6211339416531323
  0.3499531715033141  0.5492479433282272  0.6398603447344110
  0.4654573820913814  0.5993809244979111  0.6194491641669179
  0.3069156144969975  0.6237920071224796  0.6602475736737641
  0.6312571884482470  0.7590268281839334  0.5686020260055072
  0.6093058235970589  0.8383349087384361  0.5307810993913911
  0.5442690644050060  0.7247516530071805  0.6219923111448561
  0.5751660170259235  0.9850813210424149  0.4999972900256694
  0.4814971656879256  0.0032916844298420  0.4999995261524531
  0.4079513486690942  0.9646821606562884  0.5534216587989628
  0.5916829519010568  0.9308184757120783  0.5530014145968526
  0.3373266216876916  0.8221165916099336  0.6392632700611234
  0.3814369399774342  0.7471220189148186  0.6589013034465034
  0.5005604608518104  0.7972096118431212  0.6396534640032967
  0.4319851311657427  0.9234204961784748  0.6066650656468865
  0.5306590106402582  0.9074210300463852  0.6069883086896944
  0.8594001088590849  0.8888075704099411  0.6220300686648590
  0.9388358247421698  0.8478886389946940  0.6191135508227911
  0.9092958084881995  0.7685970090710014  0.5659983767373340
  0.7711714011791303  0.8304516854842959  0.5688249735626341
  0.8207699142878812  0.7658860241667178  0.5331944084794767
  0.8045362196551953  0.9409553820584334  0.5319405575834282
  0.9085100354551541  0.0132889502221706  0.6196503101504320
  0.8660412838410932  0.0437048651008992  0.5645972735864739
  0.0293818001252380  0.0942614548424837  0.6205574480510476
  0.0609949286551548  0.9243501694577205  0.6213985351705533
  0.1034801802131663  0.0472446428678236  0.6190281203800859
  0.0144821109232229  0.7838878387802374  0.5357742055493468
  0.1178697176798392  0.8932963609253486  0.5700083684972297
  0.0144837327043602  0.7838898829408433  0.4642259866831747
  0.8207699108602232  0.7658850043454374  0.4668006046129934
  0.9093017256638036  0.7685985128594042  0.4339975139775308
  0.8045396387181218  0.9409587045590385  0.4680490433095333
  0.7711745106027088  0.8304499726963667  0.4311668017085277
  0.8660447601182243  0.0437051977777443  0.4353942629806914
  0.9563325127682840  0.1447872095000830  0.5329884962131202
  0.0575289808054203  0.1715855885595726  0.5659376469299852
  0.9563357109428331  0.1447881380667014  0.4670049975809222
  0.1759054882679807  0.0955635153605214  0.5642388503033854
  0.1758943820017173  0.0042884845767596  0.5320993070215625
  0.1497453645174872  0.1737300711093211  0.5327296219103311
  0.1178727348855065  0.8932976342164556  0.4299934150668648
  0.1758967302322843  0.0042889231460869  0.4679020951234047
  0.9388438657287231  0.8478895606621192  0.3808834700815240
  0.8594068830200597  0.8888068781870486  0.3779634283151756
  0.9085181950888329  0.0132884228579724  0.3803422324187890
  0.0610028365995675  0.9243496805481652  0.3786012364322536
  0.0575336360703250  0.1715853330744414  0.4340584457534185
  0.1497483000057974  0.1737294699868501  0.4672696361740892
  0.1759099223074506  0.0955634798884575  0.4357610556303267
  0.0293902157165385  0.0942597724226686  0.3794390518508822
  0.1034901483813369  0.0472451927028518  0.3809710461476472
 
  0.00000000E+00  0.00000000E+00  0.00000000E+00
  0.00000000E+00  0.00000000E+00  0.00000000E+00
  0.00000000E+00  0.00000000E+00  0.00000000E+00
  0.00000000E+00  0.00000000E+00  0.00000000E+00
  0.00000000E+00  0.00000000E+00  0.00000000E+00
  0.00000000E+00  0.00000000E+00  0.00000000E+00
  0.00000000E+00  0.00000000E+00  0.00000000E+00
  0.00000000E+00  0.00000000E+00  0.00000000E+00
  0.00000000E+00  0.00000000E+00  0.00000000E+00
  0.00000000E+00  0.00000000E+00  0.00000000E+00
  0.00000000E+00  0.00000000E+00  0.00000000E+00
  0.00000000E+00  0.00000000E+00  0.00000000E+00
  0.00000000E+00  0.00000000E+00  0.00000000E+00
  0.00000000E+00  0.00000000E+00  0.00000000E+00
  0.00000000E+00  0.00000000E+00  0.00000000E+00
  0.00000000E+00  0.00000000E+00  0.00000000E+00
  0.00000000E+00  0.00000000E+00  0.00000000E+00
  0.00000000E+00  0.00000000E+00  0.00000000E+00
  0.00000000E+00  0.00000000E+00  0.00000000E+00
  0.00000000E+00  0.00000000E+00  0.00000000E+00
  0.00000000E+00  0.00000000E+00  0.00000000E+00
  0.00000000E+00  0.00000000E+00  0.00000000E+00
  0.00000000E+00  0.00000000E+00  0.00000000E+00
  0.00000000E+00  0.00000000E+00  0.00000000E+00
  0.00000000E+00  0.00000000E+00  0.00000000E+00
  0.00000000E+00  0.00000000E+00  0.00000000E+00
  0.00000000E+00  0.00000000E+00  0.00000000E+00
  0.00000000E+00  0.00000000E+00  0.00000000E+00
  0.00000000E+00  0.00000000E+00  0.00000000E+00
  0.00000000E+00  0.00000000E+00  0.00000000E+00
  0.00000000E+00  0.00000000E+00  0.00000000E+00
  0.00000000E+00  0.00000000E+00  0.00000000E+00
  0.00000000E+00  0.00000000E+00  0.00000000E+00
  0.00000000E+00  0.00000000E+00  0.00000000E+00
  0.00000000E+00  0.00000000E+00  0.00000000E+00
  0.00000000E+00  0.00000000E+00  0.00000000E+00
  0.00000000E+00  0.00000000E+00  0.00000000E+00
  0.00000000E+00  0.00000000E+00  0.00000000E+00
  0.00000000E+00  0.00000000E+00  0.00000000E+00
  0.00000000E+00  0.00000000E+00  0.00000000E+00
  0.00000000E+00  0.00000000E+00  0.00000000E+00
  0.00000000E+00  0.00000000E+00  0.00000000E+00
  0.00000000E+00  0.00000000E+00  0.00000000E+00
  0.00000000E+00  0.00000000E+00  0.00000000E+00
  0.00000000E+00  0.00000000E+00  0.00000000E+00
  0.00000000E+00  0.00000000E+00  0.00000000E+00
  0.00000000E+00  0.00000000E+00  0.00000000E+00
  0.00000000E+00  0.00000000E+00  0.00000000E+00
  0.00000000E+00  0.00000000E+00  0.00000000E+00
  0.00000000E+00  0.00000000E+00  0.00000000E+00
  0.00000000E+00  0.00000000E+00  0.00000000E+00
  0.00000000E+00  0.00000000E+00  0.00000000E+00
  0.00000000E+00  0.00000000E+00  0.00000000E+00
  0.00000000E+00  0.00000000E+00  0.00000000E+00
  0.00000000E+00  0.00000000E+00  0.00000000E+00
  0.00000000E+00  0.00000000E+00  0.00000000E+00
  0.00000000E+00  0.00000000E+00  0.00000000E+00
  0.00000000E+00  0.00000000E+00  0.00000000E+00
  0.00000000E+00  0.00000000E+00  0.00000000E+00
  0.00000000E+00  0.00000000E+00  0.00000000E+00
  0.00000000E+00  0.00000000E+00  0.00000000E+00
  0.00000000E+00  0.00000000E+00  0.00000000E+00
  0.00000000E+00  0.00000000E+00  0.00000000E+00
  0.00000000E+00  0.00000000E+00  0.00000000E+00
  0.00000000E+00  0.00000000E+00  0.00000000E+00
  0.00000000E+00  0.00000000E+00  0.00000000E+00
  0.00000000E+00  0.00000000E+00  0.00000000E+00
  0.00000000E+00  0.00000000E+00  0.00000000E+00
  0.00000000E+00  0.00000000E+00  0.00000000E+00
  0.00000000E+00  0.00000000E+00  0.00000000E+00
  0.00000000E+00  0.00000000E+00  0.00000000E+00
  0.00000000E+00  0.00000000E+00  0.00000000E+00
  0.00000000E+00  0.00000000E+00  0.00000000E+00
  0.00000000E+00  0.00000000E+00  0.00000000E+00
  0.00000000E+00  0.00000000E+00  0.00000000E+00
  0.00000000E+00  0.00000000E+00  0.00000000E+00
  0.00000000E+00  0.00000000E+00  0.00000000E+00
  0.00000000E+00  0.00000000E+00  0.00000000E+00
  0.00000000E+00  0.00000000E+00  0.00000000E+00
  0.00000000E+00  0.00000000E+00  0.00000000E+00
  0.00000000E+00  0.00000000E+00  0.00000000E+00
  0.00000000E+00  0.00000000E+00  0.00000000E+00
  0.00000000E+00  0.00000000E+00  0.00000000E+00
  0.00000000E+00  0.00000000E+00  0.00000000E+00
  0.00000000E+00  0.00000000E+00  0.00000000E+00
  0.00000000E+00  0.00000000E+00  0.00000000E+00
  0.00000000E+00  0.00000000E+00  0.00000000E+00
  0.00000000E+00  0.00000000E+00  0.00000000E+00
  0.00000000E+00  0.00000000E+00  0.00000000E+00
  0.00000000E+00  0.00000000E+00  0.00000000E+00
  0.00000000E+00  0.00000000E+00  0.00000000E+00
  0.00000000E+00  0.00000000E+00  0.00000000E+00
  0.00000000E+00  0.00000000E+00  0.00000000E+00
  0.00000000E+00  0.00000000E+00  0.00000000E+00
  0.00000000E+00  0.00000000E+00  0.00000000E+00
  0.00000000E+00  0.00000000E+00  0.00000000E+00
