Generated by VASPKIT code               
   1.00000000000000     
    28.6106770356884752    0.1685020179805934    0.0000000000000000
   -14.1561292179287523   25.4378133051502324    0.0000000000000000
     0.0000000000000013    0.0000000000000024   21.9255459739168401
  C             
   264
Direct
  0.4541217380532986  0.7845457483691867  0.5331247894017040
  0.5458767562445092  0.2154619244784174  0.5331366278747661
  0.4541191530580122  0.7845591801242051  0.4668491903925837
  0.5458674116345440  0.2154600981963757  0.4668601826337840
  0.4160870351521187  0.7994690646024554  0.4462758255499064
  0.5838882329790511  0.2005384810666863  0.4462660572431579
  0.4161070387605337  0.7994673909418679  0.5537304053648294
  0.5838907726637941  0.2005296567273250  0.5537263328350039
  0.3960631437702786  0.8177802286670834  0.5000156718765658
  0.6039267839410675  0.1822238631452806  0.4999889042103983
  0.3857503583668586  0.7776199697480666  0.6052404278919238
  0.6142548636740109  0.2223660137950766  0.6052313390474533
  0.3923267097240301  0.7383490208244672  0.6389397033654519
  0.6076860802093464  0.2616266870449040  0.6389490588449845
  0.4621522592888772  0.7476612790250567  0.5657839094188803
  0.5378469670041770  0.2523371293309822  0.5658174610876392
  0.4299712179921691  0.7236421640403479  0.6194038569863347
  0.5700407877907800  0.2763388190386080  0.6194371575684012
  0.4681311803548243  0.7080585549396570  0.5319783247276120
  0.5318694563436287  0.2919469516511465  0.5320383016564605
  0.4621365364020545  0.7476702094645211  0.4341697164730379
  0.5378446145355353  0.2523511705743259  0.4342002328653622
  0.4681177042767339  0.7080625424498086  0.4679324438616536
  0.5318718160774886  0.2919574260093262  0.4679937920490666
  0.4299310485991859  0.7236609123632025  0.3805619330229763
  0.5700416789757962  0.2763725915091821  0.3805935374937774
  0.3857132425425958  0.7776254445283927  0.3947732317912485
  0.6142592977926220  0.2224007233249984  0.3947654011391562
  0.3922779414807190  0.7383654312360167  0.3610487000166915
  0.6076890330222481  0.2616680934859692  0.3610645985844120
  0.3292903943533244  0.7634689446941785  0.3944262774996245
  0.6706837567219824  0.2365617267578498  0.3943956172712965
  0.3374394431142609  0.7953226638119498  0.5000307406828093
  0.6625473385559866  0.2046848364518002  0.4999892841532342
  0.3063229491009170  0.7723268073805187  0.4469480500699597
  0.6936554962930239  0.2276829797290667  0.4469026842293084
  0.3293263377428628  0.7634512080567946  0.6056185648399538
  0.6706772769010196  0.2365246525732099  0.6055967918111740
  0.3063409929130066  0.7723213700034315  0.5531308197933960
  0.6936514310652948  0.2276589502255712  0.5530897786894607
  0.3400234255678363  0.6992874824057635  0.6594699128848356
  0.6599937615525123  0.3006825852963586  0.6594873718059593
  0.3013424803642765  0.7150337404923602  0.6388442788692247
  0.6986703135049724  0.2849392511521051  0.6388327976012220
  0.3267745275294911  0.6463062753928687  0.6595502590894161
  0.6732501865739462  0.3536662599782708  0.6595766525811694
  0.4159612642255452  0.6687934204858655  0.6192836302893708
  0.5840547738195182  0.3311889997907049  0.6193535973716832
  0.4394548901191043  0.6594237869688144  0.5652977463220052
  0.5605592083661610  0.3405720727811393  0.5653772943156082
  0.3653862098012067  0.6308030799003910  0.6390806883193588
  0.6346378430638480  0.3691795716665667  0.6391413662064246
  0.4109586811080478  0.6129159246449321  0.5329979688262734
  0.5890662195415748  0.3870774833393396  0.5330916826554184
  0.4394261529343963  0.6594350380715021  0.4346011156468667
  0.5605649632148814  0.3405933332911632  0.4346851423604967
  0.4159224067805301  0.6688145967435751  0.3806412120559296
  0.5840613571225333  0.3312203050144866  0.3807096329631257
  0.4109326683737778  0.6129314072583124  0.4668852154537508
  0.5890518288386177  0.3871030334132071  0.4669759818704291
  0.3653374043033915  0.6308257443495751  0.3608678574137755
  0.6346384988975642  0.3692125881350755  0.3609287019851107
  0.3399735342605373  0.6993120554847218  0.3405259766255566
  0.6599931727545950  0.3007228308453821  0.3405410350387919
  0.3012964181292543  0.7150527276925779  0.3611942513226501
  0.6986750500641563  0.2849740409824204  0.3611725974039852
  0.3267146957536242  0.6463247996276792  0.3404464649620940
  0.6732518745579362  0.3537079539358821  0.3404773982376298
  0.2506531039734802  0.6769192429200479  0.3808315882464945
  0.7493216587878964  0.3231043466754306  0.3808181144022193
  0.2533788133704440  0.7334737107138120  0.4669655974264337
  0.7466015493204003  0.2665282668144190  0.4669265249940686
  0.2533876385611490  0.7334646663019947  0.5331212860357711
  0.7466000738405038  0.2665178691021621  0.5330822656649872
  0.2268094782990162  0.6865560592186341  0.4346814806657704
  0.7731692509778995  0.3134527811056906  0.4346508142213579
  0.2506947875164690  0.6769039246142740  0.6192236501748362
  0.7493185423439989  0.3230785783476303  0.6192047731009094
  0.2268352753132878  0.6865469386367021  0.5653953013426551
  0.7731635142522166  0.3134377428346056  0.5653618277230195
  0.2743685439093539  0.6068372414720791  0.6391392879910719
  0.7256522384216898  0.3931353211789321  0.6391659452700251
  0.2374831608921382  0.6222829476434439  0.6190716136885894
  0.7625395940721976  0.3776987228145748  0.6190745520287053
  0.3367771213466764  0.5819804560186636  0.6057565099205744
  0.6632423114184960  0.4180081098675177  0.6058285796184639
  0.3593186316532397  0.5730625800464286  0.5535547001765536
  0.6407006259180742  0.4269345812948668  0.5536313735386287
  0.2805372111971886  0.5670253689236423  0.6058873903386772
  0.7194782492271335  0.4329561876440731  0.6059369251191815
  0.3592943647451691  0.5730735712566714  0.4463646956042238
  0.6406991133259904  0.4269586493088753  0.4464418279533786
  0.3367401961456962  0.5819957843602975  0.3941759697362350
  0.6632449033312774  0.4180386857551736  0.3942470261549941
  0.3273165632388693  0.5484158587701260  0.4999671361236421
  0.6726862386329167  0.4515876192454988  0.5000397161030198
  0.2743120627610613  0.6068557259418770  0.3608677243518424
  0.7256610389552086  0.3931732390153255  0.3608935805016894
  0.2374388798735015  0.6222977124625060  0.3809758348946429
  0.7625370546268636  0.3777261459887834  0.3809813666975683
  0.2804997429348798  0.5670456354736566  0.3940970724637084
  0.7194805431426444  0.4329774859984514  0.3941404728879435
  0.1998102774427493  0.6380354034837553  0.4682143025439082
  0.8001742840570307  0.3619620855138175  0.4681951323011433
  0.1998157099840583  0.6380335077480289  0.5318677556359956
  0.8001811672682237  0.3619562231663947  0.5318437320115552
  0.2062342351816779  0.5983848989091539  0.5649678959640261
  0.7937770873700625  0.4016046942029679  0.5649674067700099
  0.2062078485685482  0.5983871509473928  0.4350915999939971
  0.7937733706971039  0.4016215857863278  0.4350939802369236
  0.2497963470731189  0.5437078696522885  0.5537974553163986
  0.7502123097904049  0.4562838945741834  0.5538447487448167
  0.2731254910335297  0.5337233534520145  0.4999824532991540
  0.7268737163405932  0.4662702905656949  0.5000436286229885
  0.2497749018643690  0.5437133561295644  0.4461887822755341
  0.7502145414615307  0.4562975938136704  0.4462352475773458
  0.2122904423628237  0.5601607682286059  0.5330871156556928
  0.7877162484069938  0.4398370391586657  0.5331090822429785
  0.2122806512936213  0.5601616424576866  0.4669547755905314
  0.7877164364864573  0.4398472169727957  0.4669741604490816
  0.9652364306610183  0.0217559629908086  0.3809391751813417
  0.4256756033170291  0.8798033179487118  0.5000438463875039
  0.0880648596703805  0.4744144010937270  0.4999723876481763
  0.5312528467379652  0.6129569022802223  0.5002337958079718
  0.9442632834555528  0.9667707683386724  0.3809542590201300
  0.4177133176503396  0.9037188064722061  0.4431667973251499
  0.0622047650661034  0.4535720368261555  0.4437893762034806
  0.5515203705255362  0.6059991941407096  0.4440376902858068
  0.9090754611231610  0.9458020834386461  0.4353063471201739
  0.4662378119558366  0.9284842457035584  0.4094038080742723
  0.0623306639930853  0.4972470571624919  0.4080778808221907
  0.5060542769693981  0.5654987519548359  0.4081396001875020
  0.9432343483287372  0.0355381592514685  0.4352601868423503
  0.4861197043949701  0.9011385472279504  0.5000540696810828
  0.1026906058390981  0.5301883520067180  0.4999629910288308
  0.4737207759921979  0.5756577606393850  0.5002707388112486
  0.9082607418930914  0.9883870864928911  0.4671566633797113
  0.5081078261986524  0.9262843582388807  0.4439102112302518
  0.0885735060428740  0.5441612479713108  0.4432595773313031
  0.4588231127910199  0.5480125327970976  0.4433606916995674
  0.9860123056101936  0.0778894649957094  0.4671409223184763
  0.5080883539536976  0.9262996553283886  0.5561998126597899
  0.0885713587258247  0.5441641148955670  0.5566534477884726
  0.4589070736241089  0.5478867553403776  0.5570934057622866
  0.0210010751668939  0.0550324023298529  0.3809407647631516
  0.4176915850503531  0.9037298020467501  0.5569081694836617
  0.0621969966065629  0.4535777412116833  0.5561597661954457
  0.5516273514335094  0.6058647960943969  0.5562817439421871
  0.0342721923772335  0.0898265461021678  0.4352685638882694
  0.4662076011099268  0.9285192738096326  0.5906651849758198
  0.0623168852321226  0.4972543661042239  0.5918544899834957
  0.5062119758058948  0.5652804602283210  0.5921641154755170
  0.0557480421842095  0.0332443317447532  0.3809613914532820
  0.3945120146417325  0.9365143032424775  0.5565490944470217
  0.0096555073948817  0.4116325153510104  0.5562007727567221
  0.5924520843952699  0.5919455923144743  0.5562033411724377
  0.9790158429776193  0.9449834872902748  0.3809272951835314
  0.3945313120963456  0.9364924832929197  0.4434586282757023
  0.0096671063093509  0.4116270736863603  0.4437553097165384
  0.5923479053181867  0.5920810521032455  0.4438447402109997
  0.0347783135864081  0.9782608872455301  0.3809307879774366
  0.3840373755181153  0.9533475072097841  0.4999933530782628
  0.9834369645775947  0.3909870294008631  0.4999720299824081
  0.6126347141320921  0.5848787198723814  0.4999465471371510
  0.9222156800094787  0.9105522856359203  0.4671447817934545
  0.4736627194556416  0.9783146514288970  0.3855621227967805
  0.0097926729244404  0.4812226538014404  0.3856207446167904
  0.5199888891120177  0.5274769375093472  0.3855886065695938
  0.9657449211074260  0.9101799825085963  0.4352455098533918
  0.4300660534702610  0.9841355119768725  0.4079965221033338
  0.9765757650531901  0.4290487640564233  0.4079700344345113
  0.5725821600964984  0.5426635501146384  0.4078038159985886
  0.9222124754005087  0.9105459051756279  0.5328335295494960
  0.5263594382135320  0.0216403170531784  0.3855722367047207
  0.9902315732343970  0.5187314665460687  0.3856216757457252
  0.4798246262068078  0.4728161127695804  0.3855369419615103
  0.9082546350278189  0.9883757090448634  0.5328453880903126
  0.5607531855746137  0.9705142028007159  0.4435994447594832
  0.0696059365648689  0.5817119574842832  0.4431408470591987
  0.4187327525982421  0.4939962613875220  0.4432952679237614
  0.9090645441431895  0.9457846427426264  0.5646881972441724
  0.5699511504862027  0.0158269800441872  0.4080521748752621
  0.0234500104148818  0.5709093466380291  0.4079583441661883
  0.4272666631437624  0.4575815710184881  0.4079114636734730
  0.9860047717048945  0.0778794326283819  0.5328758036922248
  0.5607328600936462  0.9705373391863228  0.5565223073168180
  0.0696037271660702  0.5817085091919180  0.5567582620616838
  0.4188232035656267  0.4938552716279099  0.5570592809574444
  0.9432155556912063  0.0355294168736499  0.5647526690445823
  0.5884010056832517  0.9881998084661969  0.5000645487124168
  0.0657780259000682  0.6040919464300837  0.4999474937873755
  0.3952602273693311  0.4691589308867032  0.5001642394626780
  0.0342627276335881  0.0898139925776201  0.5647550485414875
  0.5699094229223812  0.0158592849795395  0.5920351332080613
  0.0234465192006421  0.5709106628544554  0.5919379282176148
  0.4274320306114712  0.4573615191718761  0.5921719821402440
  0.0778053692223378  0.0894559572453748  0.4671664584630527
  0.4736222809137142  0.9783648900126931  0.6144629868600150
  0.0097682798769733  0.4812214292051035  0.6142866092596212
  0.5201841134021481  0.5272077696276385  0.6144464832244637
  0.0909367139410743  0.0542086069111521  0.4353158065917712
  0.4300356227953602  0.9841783930232546  0.5919759703471228
  0.9765521800451910  0.4290487738246996  0.5919420221388436
  0.5727409104020251  0.5424446017946500  0.5920569450817723
  0.0777954408855640  0.0894462560117719  0.5328538392496559
  0.5263171901606932  0.0216863962700978  0.6144699450159858
  0.9902254096367678  0.5187351003450733  0.6142711564593442
  0.4800189023116567  0.4725443490456184  0.6143960090973053
  0.0567810410987805  0.9644764472085394  0.4352519544537780
  0.4115822248528084  0.0117917754185336  0.4999675055666863
  0.9342376404701558  0.3958709121876048  0.4999512308544030
  0.6047447209512768  0.5308637836264937  0.4998093035233759
  0.0140053427368211  0.9221246537690445  0.4671246719903288
  0.4392412702314503  0.0294586703698300  0.4435030899222554
  0.9304118468385689  0.4182404946097384  0.4431382254431565
  0.5811845149387824  0.5061679275036712  0.4429105323252067
  0.0917532366383455  0.0116221833564187  0.4671547572975602
  0.4392300048774221  0.0294927414905860  0.5564303085835230
  0.9304009366827677  0.4182531468046868  0.5567505858059937
  0.5812796482904480  0.5060319879527252  0.5566809576604925
  0.9657388566250028  0.9101740113705078  0.5647380127767202
  0.5337713738188908  0.0714804029503847  0.4093700938458149
  0.9376955765240444  0.5027109280917121  0.4080631346887227
  0.4937985957347686  0.4347414732942311  0.4078132604091942
  0.0140023859106230  0.9221168464689878  0.5328620771681859
  0.4918901774876782  0.0736971994873712  0.4438285776417477
  0.9114548674581815  0.4558014690125250  0.4432459489804089
  0.5411019763851763  0.4521360814733597  0.4428827647903009
  0.9442523690760071  0.9667544217512765  0.6190394492447094
  0.6054742267283263  0.0634853074019907  0.4434898717762523
  0.9903586067836806  0.5883305399687055  0.4437342236697313
  0.4075595048876386  0.4080829476204009  0.4437667513893308
  0.9652251684347659  0.0217411487774842  0.6190724019917510
  0.6159467973522418  0.0466417546436201  0.5000492881300674
  0.0165808425463907  0.6089729034071309  0.4999543143465974
  0.3873818763386042  0.4151489002372536  0.5000281262730889
  0.0209937950709469  0.0550112264770175  0.6190692313695905
  0.6054445123051444  0.0634984315866616  0.5565765451086242
  0.9903607853488725  0.5883376276481541  0.5561831401113720
  0.4076744887351947  0.4079487284639385  0.5561265141817144
  0.9790038093015181  0.9449674289184474  0.6190677120570612
  0.5822926827703863  0.0962648373046868  0.4431350046957820
  0.9378213135401061  0.5463937599047073  0.4437591496097089
  0.4483841241985774  0.3941600481011113  0.4436914851988542
  0.0909376399882303  0.0541996703884534  0.5646978866038840
  0.5337436831225788  0.0715210603152875  0.5906373338841016
  0.9376840301749817  0.5027121760398160  0.5918265037216794
  0.4939563656908509  0.4345162537810142  0.5918457239409134
  0.0917425513759321  0.0116139861834964  0.5328426287085343
  0.4918729995555160  0.0737248818031681  0.5561206362241050
  0.9114487603509981  0.4558112741716798  0.5566202828986261
  0.5411843271201209  0.4520152873798060  0.5566179157372009
  0.0567797349400152  0.9644614026462713  0.5647450489494596
  0.5138618926180711  0.0988620128676656  0.4999785851587971
  0.8973239349335038  0.4697819662183985  0.4999346579749948
  0.5262961293945477  0.4243618161650409  0.4997116161532841
  0.0557451091639884  0.0332244765240076  0.6190461702465958
  0.5822648410580041  0.0962776182966462  0.5568755892392164
  0.9378160186938521  0.5463895618773073  0.5561316146608015
  0.4484951150209069  0.3940241932373371  0.5559340475284705
  0.0347718787094512  0.9782412562297299  0.6190684020809089
  0.5743105933360690  0.1201937846877873  0.4999924773308831
  0.9119601953468139  0.5255546115783103  0.4999423243144527
  0.4687652320212165  0.3870685467443187  0.4997358163421233
 
  0.00000000E+00  0.00000000E+00  0.00000000E+00
  0.00000000E+00  0.00000000E+00  0.00000000E+00
  0.00000000E+00  0.00000000E+00  0.00000000E+00
  0.00000000E+00  0.00000000E+00  0.00000000E+00
  0.00000000E+00  0.00000000E+00  0.00000000E+00
  0.00000000E+00  0.00000000E+00  0.00000000E+00
  0.00000000E+00  0.00000000E+00  0.00000000E+00
  0.00000000E+00  0.00000000E+00  0.00000000E+00
  0.00000000E+00  0.00000000E+00  0.00000000E+00
  0.00000000E+00  0.00000000E+00  0.00000000E+00
  0.00000000E+00  0.00000000E+00  0.00000000E+00
  0.00000000E+00  0.00000000E+00  0.00000000E+00
  0.00000000E+00  0.00000000E+00  0.00000000E+00
  0.00000000E+00  0.00000000E+00  0.00000000E+00
  0.00000000E+00  0.00000000E+00  0.00000000E+00
  0.00000000E+00  0.00000000E+00  0.00000000E+00
  0.00000000E+00  0.00000000E+00  0.00000000E+00
  0.00000000E+00  0.00000000E+00  0.00000000E+00
  0.00000000E+00  0.00000000E+00  0.00000000E+00
  0.00000000E+00  0.00000000E+00  0.00000000E+00
  0.00000000E+00  0.00000000E+00  0.00000000E+00
  0.00000000E+00  0.00000000E+00  0.00000000E+00
  0.00000000E+00  0.00000000E+00  0.00000000E+00
  0.00000000E+00  0.00000000E+00  0.00000000E+00
  0.00000000E+00  0.00000000E+00  0.00000000E+00
  0.00000000E+00  0.00000000E+00  0.00000000E+00
  0.00000000E+00  0.00000000E+00  0.00000000E+00
  0.00000000E+00  0.00000000E+00  0.00000000E+00
  0.00000000E+00  0.00000000E+00  0.00000000E+00
  0.00000000E+00  0.00000000E+00  0.00000000E+00
  0.00000000E+00  0.00000000E+00  0.00000000E+00
  0.00000000E+00  0.00000000E+00  0.00000000E+00
  0.00000000E+00  0.00000000E+00  0.00000000E+00
  0.00000000E+00  0.00000000E+00  0.00000000E+00
  0.00000000E+00  0.00000000E+00  0.00000000E+00
  0.00000000E+00  0.00000000E+00  0.00000000E+00
  0.00000000E+00  0.00000000E+00  0.00000000E+00
  0.00000000E+00  0.00000000E+00  0.00000000E+00
  0.00000000E+00  0.00000000E+00  0.00000000E+00
  0.00000000E+00  0.00000000E+00  0.00000000E+00
  0.00000000E+00  0.00000000E+00  0.00000000E+00
  0.00000000E+00  0.00000000E+00  0.00000000E+00
  0.00000000E+00  0.00000000E+00  0.00000000E+00
  0.00000000E+00  0.00000000E+00  0.00000000E+00
  0.00000000E+00  0.00000000E+00  0.00000000E+00
  0.00000000E+00  0.00000000E+00  0.00000000E+00
  0.00000000E+00  0.00000000E+00  0.00000000E+00
  0.00000000E+00  0.00000000E+00  0.00000000E+00
  0.00000000E+00  0.00000000E+00  0.00000000E+00
  0.00000000E+00  0.00000000E+00  0.00000000E+00
  0.00000000E+00  0.00000000E+00  0.00000000E+00
  0.00000000E+00  0.00000000E+00  0.00000000E+00
  0.00000000E+00  0.00000000E+00  0.00000000E+00
  0.00000000E+00  0.00000000E+00  0.00000000E+00
  0.00000000E+00  0.00000000E+00  0.00000000E+00
  0.00000000E+00  0.00000000E+00  0.00000000E+00
  0.00000000E+00  0.00000000E+00  0.00000000E+00
  0.00000000E+00  0.00000000E+00  0.00000000E+00
  0.00000000E+00  0.00000000E+00  0.00000000E+00
  0.00000000E+00  0.00000000E+00  0.00000000E+00
  0.00000000E+00  0.00000000E+00  0.00000000E+00
  0.00000000E+00  0.00000000E+00  0.00000000E+00
  0.00000000E+00  0.00000000E+00  0.00000000E+00
  0.00000000E+00  0.00000000E+00  0.00000000E+00
  0.00000000E+00  0.00000000E+00  0.00000000E+00
  0.00000000E+00  0.00000000E+00  0.00000000E+00
  0.00000000E+00  0.00000000E+00  0.00000000E+00
  0.00000000E+00  0.00000000E+00  0.00000000E+00
  0.00000000E+00  0.00000000E+00  0.00000000E+00
  0.00000000E+00  0.00000000E+00  0.00000000E+00
  0.00000000E+00  0.00000000E+00  0.00000000E+00
  0.00000000E+00  0.00000000E+00  0.00000000E+00
  0.00000000E+00  0.00000000E+00  0.00000000E+00
  0.00000000E+00  0.00000000E+00  0.00000000E+00
  0.00000000E+00  0.00000000E+00  0.00000000E+00
  0.00000000E+00  0.00000000E+00  0.00000000E+00
  0.00000000E+00  0.00000000E+00  0.00000000E+00
  0.00000000E+00  0.00000000E+00  0.00000000E+00
  0.00000000E+00  0.00000000E+00  0.00000000E+00
  0.00000000E+00  0.00000000E+00  0.00000000E+00
  0.00000000E+00  0.00000000E+00  0.00000000E+00
  0.00000000E+00  0.00000000E+00  0.00000000E+00
  0.00000000E+00  0.00000000E+00  0.00000000E+00
  0.00000000E+00  0.00000000E+00  0.00000000E+00
  0.00000000E+00  0.00000000E+00  0.00000000E+00
  0.00000000E+00  0.00000000E+00  0.00000000E+00
  0.00000000E+00  0.00000000E+00  0.00000000E+00
  0.00000000E+00  0.00000000E+00  0.00000000E+00
  0.00000000E+00  0.00000000E+00  0.00000000E+00
  0.00000000E+00  0.00000000E+00  0.00000000E+00
  0.00000000E+00  0.00000000E+00  0.00000000E+00
  0.00000000E+00  0.00000000E+00  0.00000000E+00
  0.00000000E+00  0.00000000E+00  0.00000000E+00
  0.00000000E+00  0.00000000E+00  0.00000000E+00
  0.00000000E+00  0.00000000E+00  0.00000000E+00
  0.00000000E+00  0.00000000E+00  0.00000000E+00
  0.00000000E+00  0.00000000E+00  0.00000000E+00
  0.00000000E+00  0.00000000E+00  0.00000000E+00
  0.00000000E+00  0.00000000E+00  0.00000000E+00
  0.00000000E+00  0.00000000E+00  0.00000000E+00
  0.00000000E+00  0.00000000E+00  0.00000000E+00
  0.00000000E+00  0.00000000E+00  0.00000000E+00
  0.00000000E+00  0.00000000E+00  0.00000000E+00
  0.00000000E+00  0.00000000E+00  0.00000000E+00
  0.00000000E+00  0.00000000E+00  0.00000000E+00
  0.00000000E+00  0.00000000E+00  0.00000000E+00
  0.00000000E+00  0.00000000E+00  0.00000000E+00
  0.00000000E+00  0.00000000E+00  0.00000000E+00
  0.00000000E+00  0.00000000E+00  0.00000000E+00
  0.00000000E+00  0.00000000E+00  0.00000000E+00
  0.00000000E+00  0.00000000E+00  0.00000000E+00
  0.00000000E+00  0.00000000E+00  0.00000000E+00
  0.00000000E+00  0.00000000E+00  0.00000000E+00
  0.00000000E+00  0.00000000E+00  0.00000000E+00
  0.00000000E+00  0.00000000E+00  0.00000000E+00
  0.00000000E+00  0.00000000E+00  0.00000000E+00
  0.00000000E+00  0.00000000E+00  0.00000000E+00
  0.00000000E+00  0.00000000E+00  0.00000000E+00
  0.00000000E+00  0.00000000E+00  0.00000000E+00
  0.00000000E+00  0.00000000E+00  0.00000000E+00
  0.00000000E+00  0.00000000E+00  0.00000000E+00
  0.00000000E+00  0.00000000E+00  0.00000000E+00
  0.00000000E+00  0.00000000E+00  0.00000000E+00
  0.00000000E+00  0.00000000E+00  0.00000000E+00
  0.00000000E+00  0.00000000E+00  0.00000000E+00
  0.00000000E+00  0.00000000E+00  0.00000000E+00
  0.00000000E+00  0.00000000E+00  0.00000000E+00
  0.00000000E+00  0.00000000E+00  0.00000000E+00
  0.00000000E+00  0.00000000E+00  0.00000000E+00
  0.00000000E+00  0.00000000E+00  0.00000000E+00
  0.00000000E+00  0.00000000E+00  0.00000000E+00
  0.00000000E+00  0.00000000E+00  0.00000000E+00
  0.00000000E+00  0.00000000E+00  0.00000000E+00
  0.00000000E+00  0.00000000E+00  0.00000000E+00
  0.00000000E+00  0.00000000E+00  0.00000000E+00
  0.00000000E+00  0.00000000E+00  0.00000000E+00
  0.00000000E+00  0.00000000E+00  0.00000000E+00
  0.00000000E+00  0.00000000E+00  0.00000000E+00
  0.00000000E+00  0.00000000E+00  0.00000000E+00
  0.00000000E+00  0.00000000E+00  0.00000000E+00
  0.00000000E+00  0.00000000E+00  0.00000000E+00
  0.00000000E+00  0.00000000E+00  0.00000000E+00
  0.00000000E+00  0.00000000E+00  0.00000000E+00
  0.00000000E+00  0.00000000E+00  0.00000000E+00
  0.00000000E+00  0.00000000E+00  0.00000000E+00
  0.00000000E+00  0.00000000E+00  0.00000000E+00
  0.00000000E+00  0.00000000E+00  0.00000000E+00
  0.00000000E+00  0.00000000E+00  0.00000000E+00
  0.00000000E+00  0.00000000E+00  0.00000000E+00
  0.00000000E+00  0.00000000E+00  0.00000000E+00
  0.00000000E+00  0.00000000E+00  0.00000000E+00
  0.00000000E+00  0.00000000E+00  0.00000000E+00
  0.00000000E+00  0.00000000E+00  0.00000000E+00
  0.00000000E+00  0.00000000E+00  0.00000000E+00
  0.00000000E+00  0.00000000E+00  0.00000000E+00
  0.00000000E+00  0.00000000E+00  0.00000000E+00
  0.00000000E+00  0.00000000E+00  0.00000000E+00
  0.00000000E+00  0.00000000E+00  0.00000000E+00
  0.00000000E+00  0.00000000E+00  0.00000000E+00
  0.00000000E+00  0.00000000E+00  0.00000000E+00
  0.00000000E+00  0.00000000E+00  0.00000000E+00
  0.00000000E+00  0.00000000E+00  0.00000000E+00
  0.00000000E+00  0.00000000E+00  0.00000000E+00
  0.00000000E+00  0.00000000E+00  0.00000000E+00
  0.00000000E+00  0.00000000E+00  0.00000000E+00
  0.00000000E+00  0.00000000E+00  0.00000000E+00
  0.00000000E+00  0.00000000E+00  0.00000000E+00
  0.00000000E+00  0.00000000E+00  0.00000000E+00
  0.00000000E+00  0.00000000E+00  0.00000000E+00
  0.00000000E+00  0.00000000E+00  0.00000000E+00
  0.00000000E+00  0.00000000E+00  0.00000000E+00
  0.00000000E+00  0.00000000E+00  0.00000000E+00
  0.00000000E+00  0.00000000E+00  0.00000000E+00
  0.00000000E+00  0.00000000E+00  0.00000000E+00
  0.00000000E+00  0.00000000E+00  0.00000000E+00
  0.00000000E+00  0.00000000E+00  0.00000000E+00
  0.00000000E+00  0.00000000E+00  0.00000000E+00
  0.00000000E+00  0.00000000E+00  0.00000000E+00
  0.00000000E+00  0.00000000E+00  0.00000000E+00
  0.00000000E+00  0.00000000E+00  0.00000000E+00
  0.00000000E+00  0.00000000E+00  0.00000000E+00
  0.00000000E+00  0.00000000E+00  0.00000000E+00
  0.00000000E+00  0.00000000E+00  0.00000000E+00
  0.00000000E+00  0.00000000E+00  0.00000000E+00
  0.00000000E+00  0.00000000E+00  0.00000000E+00
  0.00000000E+00  0.00000000E+00  0.00000000E+00
  0.00000000E+00  0.00000000E+00  0.00000000E+00
  0.00000000E+00  0.00000000E+00  0.00000000E+00
  0.00000000E+00  0.00000000E+00  0.00000000E+00
  0.00000000E+00  0.00000000E+00  0.00000000E+00
  0.00000000E+00  0.00000000E+00  0.00000000E+00
  0.00000000E+00  0.00000000E+00  0.00000000E+00
  0.00000000E+00  0.00000000E+00  0.00000000E+00
  0.00000000E+00  0.00000000E+00  0.00000000E+00
  0.00000000E+00  0.00000000E+00  0.00000000E+00
  0.00000000E+00  0.00000000E+00  0.00000000E+00
  0.00000000E+00  0.00000000E+00  0.00000000E+00
  0.00000000E+00  0.00000000E+00  0.00000000E+00
  0.00000000E+00  0.00000000E+00  0.00000000E+00
  0.00000000E+00  0.00000000E+00  0.00000000E+00
  0.00000000E+00  0.00000000E+00  0.00000000E+00
  0.00000000E+00  0.00000000E+00  0.00000000E+00
  0.00000000E+00  0.00000000E+00  0.00000000E+00
  0.00000000E+00  0.00000000E+00  0.00000000E+00
  0.00000000E+00  0.00000000E+00  0.00000000E+00
  0.00000000E+00  0.00000000E+00  0.00000000E+00
  0.00000000E+00  0.00000000E+00  0.00000000E+00
  0.00000000E+00  0.00000000E+00  0.00000000E+00
  0.00000000E+00  0.00000000E+00  0.00000000E+00
  0.00000000E+00  0.00000000E+00  0.00000000E+00
  0.00000000E+00  0.00000000E+00  0.00000000E+00
  0.00000000E+00  0.00000000E+00  0.00000000E+00
  0.00000000E+00  0.00000000E+00  0.00000000E+00
  0.00000000E+00  0.00000000E+00  0.00000000E+00
  0.00000000E+00  0.00000000E+00  0.00000000E+00
  0.00000000E+00  0.00000000E+00  0.00000000E+00
  0.00000000E+00  0.00000000E+00  0.00000000E+00
  0.00000000E+00  0.00000000E+00  0.00000000E+00
  0.00000000E+00  0.00000000E+00  0.00000000E+00
  0.00000000E+00  0.00000000E+00  0.00000000E+00
  0.00000000E+00  0.00000000E+00  0.00000000E+00
  0.00000000E+00  0.00000000E+00  0.00000000E+00
  0.00000000E+00  0.00000000E+00  0.00000000E+00
  0.00000000E+00  0.00000000E+00  0.00000000E+00
  0.00000000E+00  0.00000000E+00  0.00000000E+00
  0.00000000E+00  0.00000000E+00  0.00000000E+00
  0.00000000E+00  0.00000000E+00  0.00000000E+00
  0.00000000E+00  0.00000000E+00  0.00000000E+00
  0.00000000E+00  0.00000000E+00  0.00000000E+00
  0.00000000E+00  0.00000000E+00  0.00000000E+00
  0.00000000E+00  0.00000000E+00  0.00000000E+00
  0.00000000E+00  0.00000000E+00  0.00000000E+00
  0.00000000E+00  0.00000000E+00  0.00000000E+00
  0.00000000E+00  0.00000000E+00  0.00000000E+00
  0.00000000E+00  0.00000000E+00  0.00000000E+00
  0.00000000E+00  0.00000000E+00  0.00000000E+00
  0.00000000E+00  0.00000000E+00  0.00000000E+00
  0.00000000E+00  0.00000000E+00  0.00000000E+00
  0.00000000E+00  0.00000000E+00  0.00000000E+00
  0.00000000E+00  0.00000000E+00  0.00000000E+00
  0.00000000E+00  0.00000000E+00  0.00000000E+00
  0.00000000E+00  0.00000000E+00  0.00000000E+00
  0.00000000E+00  0.00000000E+00  0.00000000E+00
  0.00000000E+00  0.00000000E+00  0.00000000E+00
  0.00000000E+00  0.00000000E+00  0.00000000E+00
  0.00000000E+00  0.00000000E+00  0.00000000E+00
  0.00000000E+00  0.00000000E+00  0.00000000E+00
  0.00000000E+00  0.00000000E+00  0.00000000E+00
  0.00000000E+00  0.00000000E+00  0.00000000E+00
  0.00000000E+00  0.00000000E+00  0.00000000E+00
  0.00000000E+00  0.00000000E+00  0.00000000E+00
  0.00000000E+00  0.00000000E+00  0.00000000E+00
  0.00000000E+00  0.00000000E+00  0.00000000E+00
  0.00000000E+00  0.00000000E+00  0.00000000E+00
  0.00000000E+00  0.00000000E+00  0.00000000E+00
  0.00000000E+00  0.00000000E+00  0.00000000E+00
  0.00000000E+00  0.00000000E+00  0.00000000E+00
  0.00000000E+00  0.00000000E+00  0.00000000E+00
  0.00000000E+00  0.00000000E+00  0.00000000E+00
  0.00000000E+00  0.00000000E+00  0.00000000E+00
  0.00000000E+00  0.00000000E+00  0.00000000E+00
  0.00000000E+00  0.00000000E+00  0.00000000E+00
  0.00000000E+00  0.00000000E+00  0.00000000E+00
  0.00000000E+00  0.00000000E+00  0.00000000E+00
