Generated by VASPKIT code               
   1.00000000000000     
    23.4745868793441126   -0.0103919475831069    0.0000000000000000
    -0.0103821511483090   23.4380991740263731    0.0000000000000000
     0.0000000000000013    0.0000000000000013   21.9336926144724735
  C             
   264
Direct
  0.9787322786555147  0.6234115580315306  0.5904110690381769
  0.6234805752890600  0.0208122583909694  0.5901937007743622
  0.0242753327951370  0.5953328937506032  0.6236076525904529
  0.5952358116408326  0.9752948978655985  0.6234379153714037
  0.0761378209421259  0.6011428868585794  0.5880734498853990
  0.6007169003067191  0.9233155181335139  0.5879440264133933
  0.0026861975609669  0.6461481787090012  0.5346174189210630
  0.6460326170520317  0.9967781576227822  0.5343956486197313
  0.0621066474004178  0.6319718001744739  0.5331205281434277
  0.6316205297799141  0.9372129683804483  0.5329323740459256
  0.9711334012462015  0.6461250076564961  0.4804740295805678
  0.6459839552066142  0.0283664282452000  0.4802635829378116
  0.9149418655666437  0.6207542859886085  0.4800435022801676
  0.6209886234088124  0.0847503901709039  0.4798691092394216
  0.9240042931937128  0.6000375666916418  0.5898089497945096
  0.6004364483646369  0.0757274722727206  0.5896403981532853
  0.8914212425063180  0.5989619078349355  0.5334611719963978
  0.5994465078675879  0.1083868123657645  0.5333260073878472
  0.9123042929660050  0.5476794812332417  0.6225519158527493
  0.5482775214182778  0.0876304645227410  0.6224735806619082
  0.0133163322556207  0.5446108696712835  0.6550030361248224
  0.5446957549242224  0.9864605247366411  0.6549282385678035
  0.9562546874607739  0.5203607569387637  0.6544970713906454
  0.5208088759253136  0.0437100602187962  0.6544606611396238
  0.0541384793780750  0.4981231948587638  0.6519523722895838
  0.4980544280911485  0.9457573696940116  0.6519649358357342
  0.1158016497864268  0.5568352437490919  0.5854310523824385
  0.5562263302482363  0.8838020200954803  0.5853447333156805
  0.1044798168892024  0.5042105234590625  0.6180225840828684
  0.5038013496413679  0.8953203725890022  0.6180198455747050
  0.1430908446903860  0.5426415049381065  0.5277811769117375
  0.5418020966891899  0.8565350709753939  0.5277173909845968
  0.0887438410138512  0.6190129626313717  0.4777972332064593
  0.6180287480848460  0.9108720595816624  0.4776360188831822
  0.1297992936087669  0.5732340537681327  0.4749103173553266
  0.5723056365291717  0.8697888820849928  0.4747881535248482
  0.9982759136008037  0.6325728947087933  0.4228217443720612
  0.6322429968961061  0.0012788608466888  0.4226173324914367
  0.0562073964880584  0.6192600413940313  0.4215722892051234
  0.6185969542330138  0.9433008428463499  0.4214023757735130
  0.9064074823021083  0.5930772038605446  0.4220620394739235
  0.5933323379223211  0.0934283538923459  0.4219170426306166
  0.9582358737339806  0.5997928295738421  0.3866493160433326
  0.5997030295029665  0.0414981855290961  0.3864860524239652
  0.8751926591411930  0.5424054008300234  0.4196945180041964
  0.5429147353328388  0.1248735993980461  0.4196190952635850
  0.8590704071682640  0.5465942745731832  0.5312863850899963
  0.5473477028757036  0.1409920426694567  0.5312244344016530
  0.8721870476024134  0.5146561491993755  0.5863102757865953
  0.5154709508141634  0.1279513446317494  0.5863051282695474
  0.8512721970749332  0.5187303992386307  0.4753266783887440
  0.5195081552707684  0.1489338828189187  0.4752950830583073
  0.8776709072876683  0.4554629159262705  0.5831818753161386
  0.4563578094515381  0.1226694472412200  0.5832859816272603
  0.9618121130041328  0.4587662071778243  0.6512317692621143
  0.4592748525341687  0.0383733397668587  0.6513001439026963
  0.0222163517322659  0.4450764762621888  0.6497868407508284
  0.4452611056435452  0.9779201356821907  0.6498684436448168
  0.9232688975382970  0.4270651177706952  0.6161860294041162
  0.4278044325232510  0.0771005093740368  0.6163273652343423
  0.0417641275830549  0.4002071694400228  0.6133506834059070
  0.4002969714182095  0.9585018156906941  0.6135139490096408
  0.1248073416563020  0.4575945982895083  0.5803054820228997
  0.4570852660386487  0.8751264013344301  0.5803809052123154
  0.1487278036650546  0.4812695997922328  0.5246733212092397
  0.4804918453361681  0.8510661184712169  0.5247049177607052
  0.0935925189126721  0.4069227963946443  0.5779379608993548
  0.4066676615673108  0.9065716475021400  0.5780829582044991
  0.1409295938114352  0.4534057255730281  0.4687136157254230
  0.4526522971148671  0.8590079586759723  0.4687755664448698
  0.1223290932240576  0.5445370853278428  0.4168181251698492
  0.5436421901376912  0.8773305535323666  0.4167140189718072
  0.0767311028141221  0.5729348821418405  0.3838139707616207
  0.5721955682435347  0.9228994919987215  0.3836726357911868
  0.1278129529642985  0.4853438490907725  0.4136897244885213
  0.4845290508449235  0.8720486565302639  0.4136948727443021
  0.9777836486859444  0.5549235243872188  0.3502131603151122
  0.5547388942568769  0.0220798653191232  0.3501315569403494
  0.0381878876445563  0.5412337931140380  0.3487682311350018
  0.5407251476497881  0.9616266614300205  0.3486998569754702
  0.8955201835176373  0.4957894763357644  0.3819774164549313
  0.4961986508602070  0.1046796286962063  0.3819801548858283
  0.9458615216859636  0.5018768055403503  0.3480476276916007
  0.5019455722806075  0.0542426309239780  0.3480350647388810
  0.8569091559713414  0.4573584950944988  0.4722188229021244
  0.4581979040159240  0.1434649301478816  0.4722826099447924
  0.8702007071510115  0.4267659459762939  0.5250896832843970
  0.4276943642876418  0.1302111188656527  0.5252118471631227
  0.8841983502506552  0.4431647570403503  0.4145689480093934
  0.4437736695041848  0.1161979802852991  0.4146552671425635
  0.9437926048898152  0.3807399583184252  0.5784277108643797
  0.3814030467083704  0.0566991588374522  0.5785976250833983
  0.0017240866241146  0.3674271053213877  0.5771782556102031
  0.3677570035646447  0.9987211395358679  0.5773826684431870
  0.9112561603105099  0.3809870370928713  0.5222027656699287
  0.3819712530642386  0.0891279412493402  0.5223639823845615
  0.0850581349085328  0.3792457138626643  0.5199564981960287
  0.3790113768165363  0.9152496107659869  0.5201308915216710
  0.1085787584761735  0.4010380918680104  0.4665388280871556
  0.4005534926005782  0.8916131885076349  0.4666739935295820
  0.0288665995945208  0.3538749918840182  0.5195259711347906
  0.3540160451931738  0.9716335727424561  0.5197364176288692
  0.0876957076046973  0.4523205186522926  0.3774480840480646
  0.4517224788004200  0.9123695361934226  0.3775264206372591
  0.0437453136744142  0.4796392427454694  0.3455029288814890
  0.4791911252384798  0.9562899416465227  0.3455393392247857
  0.9866836681735844  0.4553891289045341  0.3449969645194375
  0.4553042461458911  0.0135394762591013  0.3450717618197909
  0.0759957073691290  0.3999624330794231  0.4101910505943219
  0.3995635517715654  0.9242725293337736  0.4103596027286646
  0.9238621805009775  0.3988571123075799  0.4119265498673483
  0.3992831008970009  0.0766844834748765  0.4120559743859298
  0.9378933522352932  0.3680282001997351  0.4668794735374573
  0.3683794708042497  0.0627870319980985  0.4670676262486268
  0.9973138037250263  0.3538518214747616  0.4653825812379212
  0.3539673835060735  0.0032218435691835  0.4656043522885138
  0.9757246679010950  0.4046671070313873  0.3763923467544457
  0.4047641883421884  0.0247051031594948  0.3765620854257020
  0.0212677222547477  0.3765884416685941  0.4095889311060303
  0.3765194252463284  0.9791877418948819  0.4098062999971622
  0.7131163128855880  0.8485238251583771  0.5023433061407695
  0.2868836846571865  0.1514761738956044  0.4976566923273936
  0.8486785393240860  0.2874396785929253  0.5056339464168170
  0.1513214622891184  0.7125603221473449  0.4943660534777670
  0.7214276166500556  0.8157396803048746  0.5555332267928965
  0.2820431242813872  0.1760975367712004  0.5561424166931251
  0.8160696032841375  0.2776544017125153  0.5587096366924785
  0.1762865662710798  0.7163270403762274  0.5528748830182503
  0.7667600784829374  0.8445391020889509  0.5917389554007332
  0.2394582434050510  0.1420568597309255  0.5905623255231801
  0.8449373796725914  0.2317092216747391  0.5937716432927488
  0.1426645359902804  0.7584452578989205  0.5884196356568760
  0.7521844001869412  0.8981740665332792  0.5049978970065542
  0.2478155993239588  0.1018259305898994  0.4950021024874887
  0.8980148131849408  0.2479599455858040  0.5070459241354763
  0.1019851874852403  0.7520400557363699  0.4929540750163198
  0.7841464247111345  0.8954194866365297  0.5604495619239567
  0.2197776678526150  0.0963116346627077  0.5525348663255332
  0.8955285606616914  0.2149335300808730  0.5617543501814897
  0.0968766526920056  0.7789618483687676  0.5511572584190645
  0.7802223309967254  0.9036883638014500  0.4474651335387386
  0.2158535732956706  0.1045805107592834  0.4395504369275677
  0.9031233481964170  0.2210381517003233  0.4488427415755690
  0.1044714404651616  0.7850664704949465  0.4382456491935158
  0.7179568760803526  0.8239024620687890  0.4438575806586093
  0.2785723808852990  0.1842603192718554  0.4444667728930147
  0.8237134340480899  0.2836729604558216  0.4471251180338920
  0.1839303974809027  0.7223455985365095  0.4412903632181429
  0.7605417554330078  0.8579431397359099  0.4094376745970542
  0.2332399215411925  0.1554608980463484  0.4082610443169595
  0.8573354636727828  0.2415547416848592  0.4115803648314306
  0.1550626199380844  0.7682907793169459  0.4062283551119199
  0.7326451952039854  0.7658714757966865  0.4382567409353300
  0.2635414054944781  0.2423330761816187  0.4502227950431000
  0.7657119448191965  0.2688016406341884  0.4416445168404413
  0.2419337532385796  0.7371394659985295  0.4469049005734637
  0.7364585925212022  0.7576669217706680  0.5497772040992872
  0.2673548039057571  0.2341285220353152  0.5617432580016520
  0.7580662480926841  0.2628605349242649  0.5530950995106271
  0.2342880555475484  0.7311983604338058  0.5583554832582719
  0.7419276932001938  0.7326444349360973  0.4912833876668719
  0.2580723051446680  0.2673555632676756  0.5087166100748410
  0.7327867477014197  0.2584692751218083  0.4945980791939821
  0.2672132526236739  0.7415307264024684  0.5054019211653636
  0.8087431648358860  0.8031821420542731  0.6088609053704928
  0.1991881995114756  0.1801152228691932  0.6179739790295603
  0.8036575773339238  0.1893718849015928  0.6103276505756691
  0.1808510382525545  0.7983622021138839  0.6164548346978543
  0.7913892550555652  0.7498601899523958  0.5824853663963527
  0.2150637002398235  0.2368346538967570  0.5999432636291190
  0.7503003434386922  0.2072739677759133  0.5847580247171674
  0.2373186060153310  0.7828816395794924  0.5976402598667349
  0.8681272468330749  0.8190908716073081  0.6078247304360417
  0.1398196237631613  0.1641017319365778  0.6191718956864904
  0.8194629181244010  0.1299233044338114  0.6079081099471789
  0.1649755336997458  0.8577910455751157  0.6190333090251490
  0.8433786134813629  0.9110299691632908  0.5593223844904559
  0.1606048341935117  0.0805754755382632  0.5536992897036100
  0.9110821037269818  0.1556446598122166  0.5593062691072154
  0.0812990795587973  0.8381833169976303  0.5536830350853432
  0.8840608776414752  0.8756429257986305  0.5895571825632085
  0.1223898680724364  0.1108476181995987  0.5928638318162275
  0.8758480980466544  0.1143208346560020  0.5889654346815807
  0.1116877957927371  0.8757301887234508  0.5934702168959665
  0.8393951649956013  0.9194245247841297  0.4463007079998411
  0.1566213831026048  0.0889700304620274  0.4406776174817026
  0.9187009217675463  0.1618166831659554  0.4463169655047904
  0.0889178978456849  0.8443553395800723  0.4406937298937915
  0.8684580603239578  0.9288086927215617  0.5028177290696092
  0.1315419391431285  0.0711913071175709  0.4971822708887485
  0.9283647929965972  0.1316275512944342  0.5021545783582072
  0.0716352070532271  0.8683724482294245  0.4978454214869488
  0.8776101314209813  0.8891523804399382  0.4071361689394049
  0.1159391206304801  0.1243570726344353  0.4104428175023656
  0.8883122041564619  0.1242698118220359  0.4065297829705962
  0.1241519023462356  0.8856791651226900  0.4110345637943806
  0.8008117992895649  0.8198847748731577  0.3820260209750665
  0.1912568335601952  0.1968178571301995  0.3911390929189245
  0.8191489623444863  0.2016377981234851  0.3835451665143433
  0.1963424239791372  0.8106281154126523  0.3896723479231541
  0.7849362980843739  0.7631653452950755  0.4000567369379217
  0.2086107428193287  0.2501398087375825  0.4175146323003545
  0.7626813944308816  0.2171183599876186  0.4023597405069598
  0.2496996582559551  0.7927260325650145  0.4152419741457107
  0.8601803744284251  0.8358982665245689  0.3808281034102688
  0.1318727501398682  0.1809091274605178  0.3921752697059893
  0.8350244665023741  0.1422089543522622  0.3809666910807494
  0.1805370827520348  0.8700766951051673  0.3920918895794725
  0.8004933925535755  0.7094121918412685  0.4868023376481449
  0.1995066043350942  0.2905878079675943  0.5131976624720621
  0.7094745249154302  0.1998971163909145  0.4890663780324344
  0.2905254752163399  0.8001028832479196  0.5109336215816009
  0.8295627668374170  0.7196008590923160  0.5433016840017731
  0.1743843734089708  0.2724145531069173  0.5696244017985312
  0.7198638583572523  0.1697811415041507  0.5448865053129438
  0.2727803832036972  0.8242030398988384  0.5680334002532735
  0.8256156244891878  0.7275854467930414  0.4303755967537906
  0.1704372313694709  0.2803991405489471  0.4566983150657520
  0.7272196164259117  0.1757969599148932  0.4319665995529302
  0.2801361419563577  0.8302188588701306  0.4551134949900869
  0.9082517178877753  0.7811027045886234  0.5800858160931831
  0.0979535704265817  0.2055222641216250  0.6019918503899049
  0.7813005918432111  0.0902412219040121  0.5796652161823629
  0.2062872352185084  0.9000560830261366  0.6024109852346858
  0.8883502197196552  0.7359972999716781  0.5421627789673639
  0.1153842425170373  0.2560692717879847  0.5707141590117873
  0.7361172731605939  0.1109146599764372  0.5424226002720495
  0.2565732228533414  0.8832196504394629  0.5704628022019744
  0.9364231484051513  0.8728389614045046  0.5514108512189757
  0.0674342453000107  0.1188019658247932  0.5602197188647215
  0.8727400947423869  0.0626105447932783  0.5497093327045975
  0.1195695069456288  0.9313825512334639  0.5619128749693817
  0.9270225103390944  0.9058721031386217  0.4983923187546277
  0.0729774886384820  0.0941278950591360  0.5016076809209115
  0.9054196462470641  0.0730505525275506  0.4966297452107686
  0.0945803543891874  0.9269494471701007  0.5033702543644296
  0.9325657537486215  0.8811980329510792  0.4397802820185839
  0.0635768516705135  0.1271610378609070  0.4485891476050936
  0.8804304934551199  0.0686174489526564  0.4380871245939089
  0.1272599054918665  0.9373894554438609  0.4502906672264474
  0.9511757377802965  0.8147690826957225  0.5456591435427083
  0.0526016728853615  0.1769395963112061  0.5657509561603834
  0.8146925638267084  0.0479574533303722  0.5440276559308709
  0.1776389071148980  0.9461539622838510  0.5673675443680409
  0.9020464289977616  0.7944777352490336  0.3980081495945914
  0.0917482800057246  0.2188972949229571  0.4199141840556643
  0.7937127651401404  0.0999439169960202  0.3975890148590261
  0.2186994085234425  0.9097587778627911  0.4203347828018031
  0.8846157559768362  0.7439307271147719  0.4292858405113181
  0.1116497781649448  0.2640026995875867  0.4578372205578727
  0.7434267770076475  0.1167803495577638  0.4295371970839503
  0.2638827271728962  0.8890853398061784  0.4575773994204126
  0.9171577092355321  0.7408098123352518  0.4845969489713004
  0.0828422891499341  0.2591901877714594  0.5154030501418486
  0.7406227597291145  0.0832142594682806  0.4842298250501154
  0.2593772406488521  0.9167857408075103  0.5157701743241622
  0.9473983250508476  0.8230604040685555  0.4342490430583792
  0.0488242607930953  0.1852309166051230  0.4543408564205844
  0.8223610925777943  0.0538460382110206  0.4326324556224977
  0.1853074357801761  0.9520425471268482  0.4559723435095557
  0.9565492117487217  0.7900371050501186  0.4871913651302327
  0.0434507854215053  0.2099628939817303  0.5128086338926124
  0.7896875661176282  0.0437421676820201  0.4856528058784431
  0.2103124341800845  0.9562578327467235  0.5143471931058733
 
  0.00000000E+00  0.00000000E+00  0.00000000E+00
  0.00000000E+00  0.00000000E+00  0.00000000E+00
  0.00000000E+00  0.00000000E+00  0.00000000E+00
  0.00000000E+00  0.00000000E+00  0.00000000E+00
  0.00000000E+00  0.00000000E+00  0.00000000E+00
  0.00000000E+00  0.00000000E+00  0.00000000E+00
  0.00000000E+00  0.00000000E+00  0.00000000E+00
  0.00000000E+00  0.00000000E+00  0.00000000E+00
  0.00000000E+00  0.00000000E+00  0.00000000E+00
  0.00000000E+00  0.00000000E+00  0.00000000E+00
  0.00000000E+00  0.00000000E+00  0.00000000E+00
  0.00000000E+00  0.00000000E+00  0.00000000E+00
  0.00000000E+00  0.00000000E+00  0.00000000E+00
  0.00000000E+00  0.00000000E+00  0.00000000E+00
  0.00000000E+00  0.00000000E+00  0.00000000E+00
  0.00000000E+00  0.00000000E+00  0.00000000E+00
  0.00000000E+00  0.00000000E+00  0.00000000E+00
  0.00000000E+00  0.00000000E+00  0.00000000E+00
  0.00000000E+00  0.00000000E+00  0.00000000E+00
  0.00000000E+00  0.00000000E+00  0.00000000E+00
  0.00000000E+00  0.00000000E+00  0.00000000E+00
  0.00000000E+00  0.00000000E+00  0.00000000E+00
  0.00000000E+00  0.00000000E+00  0.00000000E+00
  0.00000000E+00  0.00000000E+00  0.00000000E+00
  0.00000000E+00  0.00000000E+00  0.00000000E+00
  0.00000000E+00  0.00000000E+00  0.00000000E+00
  0.00000000E+00  0.00000000E+00  0.00000000E+00
  0.00000000E+00  0.00000000E+00  0.00000000E+00
  0.00000000E+00  0.00000000E+00  0.00000000E+00
  0.00000000E+00  0.00000000E+00  0.00000000E+00
  0.00000000E+00  0.00000000E+00  0.00000000E+00
  0.00000000E+00  0.00000000E+00  0.00000000E+00
  0.00000000E+00  0.00000000E+00  0.00000000E+00
  0.00000000E+00  0.00000000E+00  0.00000000E+00
  0.00000000E+00  0.00000000E+00  0.00000000E+00
  0.00000000E+00  0.00000000E+00  0.00000000E+00
  0.00000000E+00  0.00000000E+00  0.00000000E+00
  0.00000000E+00  0.00000000E+00  0.00000000E+00
  0.00000000E+00  0.00000000E+00  0.00000000E+00
  0.00000000E+00  0.00000000E+00  0.00000000E+00
  0.00000000E+00  0.00000000E+00  0.00000000E+00
  0.00000000E+00  0.00000000E+00  0.00000000E+00
  0.00000000E+00  0.00000000E+00  0.00000000E+00
  0.00000000E+00  0.00000000E+00  0.00000000E+00
  0.00000000E+00  0.00000000E+00  0.00000000E+00
  0.00000000E+00  0.00000000E+00  0.00000000E+00
  0.00000000E+00  0.00000000E+00  0.00000000E+00
  0.00000000E+00  0.00000000E+00  0.00000000E+00
  0.00000000E+00  0.00000000E+00  0.00000000E+00
  0.00000000E+00  0.00000000E+00  0.00000000E+00
  0.00000000E+00  0.00000000E+00  0.00000000E+00
  0.00000000E+00  0.00000000E+00  0.00000000E+00
  0.00000000E+00  0.00000000E+00  0.00000000E+00
  0.00000000E+00  0.00000000E+00  0.00000000E+00
  0.00000000E+00  0.00000000E+00  0.00000000E+00
  0.00000000E+00  0.00000000E+00  0.00000000E+00
  0.00000000E+00  0.00000000E+00  0.00000000E+00
  0.00000000E+00  0.00000000E+00  0.00000000E+00
  0.00000000E+00  0.00000000E+00  0.00000000E+00
  0.00000000E+00  0.00000000E+00  0.00000000E+00
  0.00000000E+00  0.00000000E+00  0.00000000E+00
  0.00000000E+00  0.00000000E+00  0.00000000E+00
  0.00000000E+00  0.00000000E+00  0.00000000E+00
  0.00000000E+00  0.00000000E+00  0.00000000E+00
  0.00000000E+00  0.00000000E+00  0.00000000E+00
  0.00000000E+00  0.00000000E+00  0.00000000E+00
  0.00000000E+00  0.00000000E+00  0.00000000E+00
  0.00000000E+00  0.00000000E+00  0.00000000E+00
  0.00000000E+00  0.00000000E+00  0.00000000E+00
  0.00000000E+00  0.00000000E+00  0.00000000E+00
  0.00000000E+00  0.00000000E+00  0.00000000E+00
  0.00000000E+00  0.00000000E+00  0.00000000E+00
  0.00000000E+00  0.00000000E+00  0.00000000E+00
  0.00000000E+00  0.00000000E+00  0.00000000E+00
  0.00000000E+00  0.00000000E+00  0.00000000E+00
  0.00000000E+00  0.00000000E+00  0.00000000E+00
  0.00000000E+00  0.00000000E+00  0.00000000E+00
  0.00000000E+00  0.00000000E+00  0.00000000E+00
  0.00000000E+00  0.00000000E+00  0.00000000E+00
  0.00000000E+00  0.00000000E+00  0.00000000E+00
  0.00000000E+00  0.00000000E+00  0.00000000E+00
  0.00000000E+00  0.00000000E+00  0.00000000E+00
  0.00000000E+00  0.00000000E+00  0.00000000E+00
  0.00000000E+00  0.00000000E+00  0.00000000E+00
  0.00000000E+00  0.00000000E+00  0.00000000E+00
  0.00000000E+00  0.00000000E+00  0.00000000E+00
  0.00000000E+00  0.00000000E+00  0.00000000E+00
  0.00000000E+00  0.00000000E+00  0.00000000E+00
  0.00000000E+00  0.00000000E+00  0.00000000E+00
  0.00000000E+00  0.00000000E+00  0.00000000E+00
  0.00000000E+00  0.00000000E+00  0.00000000E+00
  0.00000000E+00  0.00000000E+00  0.00000000E+00
  0.00000000E+00  0.00000000E+00  0.00000000E+00
  0.00000000E+00  0.00000000E+00  0.00000000E+00
  0.00000000E+00  0.00000000E+00  0.00000000E+00
  0.00000000E+00  0.00000000E+00  0.00000000E+00
  0.00000000E+00  0.00000000E+00  0.00000000E+00
  0.00000000E+00  0.00000000E+00  0.00000000E+00
  0.00000000E+00  0.00000000E+00  0.00000000E+00
  0.00000000E+00  0.00000000E+00  0.00000000E+00
  0.00000000E+00  0.00000000E+00  0.00000000E+00
  0.00000000E+00  0.00000000E+00  0.00000000E+00
  0.00000000E+00  0.00000000E+00  0.00000000E+00
  0.00000000E+00  0.00000000E+00  0.00000000E+00
  0.00000000E+00  0.00000000E+00  0.00000000E+00
  0.00000000E+00  0.00000000E+00  0.00000000E+00
  0.00000000E+00  0.00000000E+00  0.00000000E+00
  0.00000000E+00  0.00000000E+00  0.00000000E+00
  0.00000000E+00  0.00000000E+00  0.00000000E+00
  0.00000000E+00  0.00000000E+00  0.00000000E+00
  0.00000000E+00  0.00000000E+00  0.00000000E+00
  0.00000000E+00  0.00000000E+00  0.00000000E+00
  0.00000000E+00  0.00000000E+00  0.00000000E+00
  0.00000000E+00  0.00000000E+00  0.00000000E+00
  0.00000000E+00  0.00000000E+00  0.00000000E+00
  0.00000000E+00  0.00000000E+00  0.00000000E+00
  0.00000000E+00  0.00000000E+00  0.00000000E+00
  0.00000000E+00  0.00000000E+00  0.00000000E+00
  0.00000000E+00  0.00000000E+00  0.00000000E+00
  0.00000000E+00  0.00000000E+00  0.00000000E+00
  0.00000000E+00  0.00000000E+00  0.00000000E+00
  0.00000000E+00  0.00000000E+00  0.00000000E+00
  0.00000000E+00  0.00000000E+00  0.00000000E+00
  0.00000000E+00  0.00000000E+00  0.00000000E+00
  0.00000000E+00  0.00000000E+00  0.00000000E+00
  0.00000000E+00  0.00000000E+00  0.00000000E+00
  0.00000000E+00  0.00000000E+00  0.00000000E+00
  0.00000000E+00  0.00000000E+00  0.00000000E+00
  0.00000000E+00  0.00000000E+00  0.00000000E+00
  0.00000000E+00  0.00000000E+00  0.00000000E+00
  0.00000000E+00  0.00000000E+00  0.00000000E+00
  0.00000000E+00  0.00000000E+00  0.00000000E+00
  0.00000000E+00  0.00000000E+00  0.00000000E+00
  0.00000000E+00  0.00000000E+00  0.00000000E+00
  0.00000000E+00  0.00000000E+00  0.00000000E+00
  0.00000000E+00  0.00000000E+00  0.00000000E+00
  0.00000000E+00  0.00000000E+00  0.00000000E+00
  0.00000000E+00  0.00000000E+00  0.00000000E+00
  0.00000000E+00  0.00000000E+00  0.00000000E+00
  0.00000000E+00  0.00000000E+00  0.00000000E+00
  0.00000000E+00  0.00000000E+00  0.00000000E+00
  0.00000000E+00  0.00000000E+00  0.00000000E+00
  0.00000000E+00  0.00000000E+00  0.00000000E+00
  0.00000000E+00  0.00000000E+00  0.00000000E+00
  0.00000000E+00  0.00000000E+00  0.00000000E+00
  0.00000000E+00  0.00000000E+00  0.00000000E+00
  0.00000000E+00  0.00000000E+00  0.00000000E+00
  0.00000000E+00  0.00000000E+00  0.00000000E+00
  0.00000000E+00  0.00000000E+00  0.00000000E+00
  0.00000000E+00  0.00000000E+00  0.00000000E+00
  0.00000000E+00  0.00000000E+00  0.00000000E+00
  0.00000000E+00  0.00000000E+00  0.00000000E+00
  0.00000000E+00  0.00000000E+00  0.00000000E+00
  0.00000000E+00  0.00000000E+00  0.00000000E+00
  0.00000000E+00  0.00000000E+00  0.00000000E+00
  0.00000000E+00  0.00000000E+00  0.00000000E+00
  0.00000000E+00  0.00000000E+00  0.00000000E+00
  0.00000000E+00  0.00000000E+00  0.00000000E+00
  0.00000000E+00  0.00000000E+00  0.00000000E+00
  0.00000000E+00  0.00000000E+00  0.00000000E+00
  0.00000000E+00  0.00000000E+00  0.00000000E+00
  0.00000000E+00  0.00000000E+00  0.00000000E+00
  0.00000000E+00  0.00000000E+00  0.00000000E+00
  0.00000000E+00  0.00000000E+00  0.00000000E+00
  0.00000000E+00  0.00000000E+00  0.00000000E+00
  0.00000000E+00  0.00000000E+00  0.00000000E+00
  0.00000000E+00  0.00000000E+00  0.00000000E+00
  0.00000000E+00  0.00000000E+00  0.00000000E+00
  0.00000000E+00  0.00000000E+00  0.00000000E+00
  0.00000000E+00  0.00000000E+00  0.00000000E+00
  0.00000000E+00  0.00000000E+00  0.00000000E+00
  0.00000000E+00  0.00000000E+00  0.00000000E+00
  0.00000000E+00  0.00000000E+00  0.00000000E+00
  0.00000000E+00  0.00000000E+00  0.00000000E+00
  0.00000000E+00  0.00000000E+00  0.00000000E+00
  0.00000000E+00  0.00000000E+00  0.00000000E+00
  0.00000000E+00  0.00000000E+00  0.00000000E+00
  0.00000000E+00  0.00000000E+00  0.00000000E+00
  0.00000000E+00  0.00000000E+00  0.00000000E+00
  0.00000000E+00  0.00000000E+00  0.00000000E+00
  0.00000000E+00  0.00000000E+00  0.00000000E+00
  0.00000000E+00  0.00000000E+00  0.00000000E+00
  0.00000000E+00  0.00000000E+00  0.00000000E+00
  0.00000000E+00  0.00000000E+00  0.00000000E+00
  0.00000000E+00  0.00000000E+00  0.00000000E+00
  0.00000000E+00  0.00000000E+00  0.00000000E+00
  0.00000000E+00  0.00000000E+00  0.00000000E+00
  0.00000000E+00  0.00000000E+00  0.00000000E+00
  0.00000000E+00  0.00000000E+00  0.00000000E+00
  0.00000000E+00  0.00000000E+00  0.00000000E+00
  0.00000000E+00  0.00000000E+00  0.00000000E+00
  0.00000000E+00  0.00000000E+00  0.00000000E+00
  0.00000000E+00  0.00000000E+00  0.00000000E+00
  0.00000000E+00  0.00000000E+00  0.00000000E+00
  0.00000000E+00  0.00000000E+00  0.00000000E+00
  0.00000000E+00  0.00000000E+00  0.00000000E+00
  0.00000000E+00  0.00000000E+00  0.00000000E+00
  0.00000000E+00  0.00000000E+00  0.00000000E+00
  0.00000000E+00  0.00000000E+00  0.00000000E+00
  0.00000000E+00  0.00000000E+00  0.00000000E+00
  0.00000000E+00  0.00000000E+00  0.00000000E+00
  0.00000000E+00  0.00000000E+00  0.00000000E+00
  0.00000000E+00  0.00000000E+00  0.00000000E+00
  0.00000000E+00  0.00000000E+00  0.00000000E+00
  0.00000000E+00  0.00000000E+00  0.00000000E+00
  0.00000000E+00  0.00000000E+00  0.00000000E+00
  0.00000000E+00  0.00000000E+00  0.00000000E+00
  0.00000000E+00  0.00000000E+00  0.00000000E+00
  0.00000000E+00  0.00000000E+00  0.00000000E+00
  0.00000000E+00  0.00000000E+00  0.00000000E+00
  0.00000000E+00  0.00000000E+00  0.00000000E+00
  0.00000000E+00  0.00000000E+00  0.00000000E+00
  0.00000000E+00  0.00000000E+00  0.00000000E+00
  0.00000000E+00  0.00000000E+00  0.00000000E+00
  0.00000000E+00  0.00000000E+00  0.00000000E+00
  0.00000000E+00  0.00000000E+00  0.00000000E+00
  0.00000000E+00  0.00000000E+00  0.00000000E+00
  0.00000000E+00  0.00000000E+00  0.00000000E+00
  0.00000000E+00  0.00000000E+00  0.00000000E+00
  0.00000000E+00  0.00000000E+00  0.00000000E+00
  0.00000000E+00  0.00000000E+00  0.00000000E+00
  0.00000000E+00  0.00000000E+00  0.00000000E+00
  0.00000000E+00  0.00000000E+00  0.00000000E+00
  0.00000000E+00  0.00000000E+00  0.00000000E+00
  0.00000000E+00  0.00000000E+00  0.00000000E+00
  0.00000000E+00  0.00000000E+00  0.00000000E+00
  0.00000000E+00  0.00000000E+00  0.00000000E+00
  0.00000000E+00  0.00000000E+00  0.00000000E+00
  0.00000000E+00  0.00000000E+00  0.00000000E+00
  0.00000000E+00  0.00000000E+00  0.00000000E+00
  0.00000000E+00  0.00000000E+00  0.00000000E+00
  0.00000000E+00  0.00000000E+00  0.00000000E+00
  0.00000000E+00  0.00000000E+00  0.00000000E+00
  0.00000000E+00  0.00000000E+00  0.00000000E+00
  0.00000000E+00  0.00000000E+00  0.00000000E+00
  0.00000000E+00  0.00000000E+00  0.00000000E+00
  0.00000000E+00  0.00000000E+00  0.00000000E+00
  0.00000000E+00  0.00000000E+00  0.00000000E+00
  0.00000000E+00  0.00000000E+00  0.00000000E+00
  0.00000000E+00  0.00000000E+00  0.00000000E+00
  0.00000000E+00  0.00000000E+00  0.00000000E+00
  0.00000000E+00  0.00000000E+00  0.00000000E+00
  0.00000000E+00  0.00000000E+00  0.00000000E+00
  0.00000000E+00  0.00000000E+00  0.00000000E+00
  0.00000000E+00  0.00000000E+00  0.00000000E+00
  0.00000000E+00  0.00000000E+00  0.00000000E+00
  0.00000000E+00  0.00000000E+00  0.00000000E+00
  0.00000000E+00  0.00000000E+00  0.00000000E+00
  0.00000000E+00  0.00000000E+00  0.00000000E+00
  0.00000000E+00  0.00000000E+00  0.00000000E+00
  0.00000000E+00  0.00000000E+00  0.00000000E+00
  0.00000000E+00  0.00000000E+00  0.00000000E+00
  0.00000000E+00  0.00000000E+00  0.00000000E+00
  0.00000000E+00  0.00000000E+00  0.00000000E+00
  0.00000000E+00  0.00000000E+00  0.00000000E+00
  0.00000000E+00  0.00000000E+00  0.00000000E+00
  0.00000000E+00  0.00000000E+00  0.00000000E+00
  0.00000000E+00  0.00000000E+00  0.00000000E+00
  0.00000000E+00  0.00000000E+00  0.00000000E+00
  0.00000000E+00  0.00000000E+00  0.00000000E+00
  0.00000000E+00  0.00000000E+00  0.00000000E+00
  0.00000000E+00  0.00000000E+00  0.00000000E+00
  0.00000000E+00  0.00000000E+00  0.00000000E+00
  0.00000000E+00  0.00000000E+00  0.00000000E+00
