Generated by VASPKIT code               
   1.00000000000000     
    27.8192691794928457    0.0000003431216713    0.0000000000000000
     0.0000003220241580   27.8192691682150404    0.0000000000000000
     0.0000000000000012    0.0000000000000012   21.9695046790355768
  C             
   408
Direct
  0.9598270000712373  0.5770964660950267  0.3815099581145351
  0.5770964645474536  0.0401730034536904  0.3815099631024808
  0.9228998694750566  0.5401705595836596  0.3815102029219605
  0.5401705577346586  0.0771001346092039  0.3815102113014406
  0.8930741858413411  0.5472070022682336  0.4350611916589566
  0.5472069991662926  0.1069258154031061  0.4350612032512651
  0.9527917066759635  0.6069240885097823  0.4350594152713513
  0.6069240868203492  0.0472082936646815  0.4350594212911204
  0.9115525866396362  0.5884467241173686  0.4681654593566539
  0.5884467217495478  0.0884474125838281  0.4681654688725773
  0.9925218221978411  0.6246941389634120  0.4669338360556786
  0.6246941389368492  0.0074781758506015  0.4669338376002378
  0.0408199779365910  0.6132585123989972  0.4464768482826197
  0.6132585142196749  0.9591800218082331  0.4464768433082921
  0.0063694088497067  0.5661241378919601  0.3617562630974318
  0.5661241388838357  0.9936305964203622  0.3617562622092296
  0.0476313421913582  0.5845526541775511  0.3949018324487744
  0.5845526568586856  0.9523686606188692  0.3949018258205140
  0.0177844441609681  0.5177788137554629  0.3412562296147386
  0.5177788151862116  0.9822155634395850  0.3412562270654625
  0.9338720503409363  0.4936278373251855  0.3617568656980938
  0.4936278361707813  0.0661279565760519  0.3617568727913254
  0.9822170797492954  0.4822120848018694  0.3412569262673271
  0.4822120853215122  0.0177829287294230  0.3412569296741713
  0.9154445020795714  0.4523662851937643  0.3949044650246980
  0.4523662842735554  0.0845555041571287  0.3949044746144368
  0.8753051008021585  0.5074777336747793  0.4669369605045061
  0.5074777301795017  0.1246949004333352  0.4669369737496590
  0.8867398807157599  0.4591787381375985  0.4464807073911906
  0.4591787356556503  0.1132601233848045  0.4464807191190562
  0.8753041594823184  0.5074796747558166  0.5330596381612306
  0.5074796711000219  0.1246958396718248  0.5330596514802214
  0.9115515613379501  0.5884495554156990  0.5318263019300965
  0.5884495527155026  0.0884484354807879  0.5318263116443250
  0.8930723619239725  0.5472116939796727  0.5649330002272781
  0.5472116907945676  0.1069276350555143  0.5649330113890784
  0.9925213238404245  0.6246963830486636  0.5330559676935150
  0.6246963823688199  0.0074786721514998  0.5330559693539737
  0.9527899275602452  0.6069287568111972  0.5649317359429792
  0.6069287556357592  0.0472100669883661  0.5649317415894637
  0.0706508383419358  0.6061847388605348  0.4999969407387639
  0.6061847405517830  0.9293491588224082  0.4999969326911658
  0.0408199216581681  0.6132617976745648  0.5535157249210506
  0.6132617975620239  0.9591800732748934  0.5535157199808453
  0.1061850654128523  0.5706500447157272  0.4999979915053255
  0.5706500473634637  0.8938149329969930  0.4999979807652334
  0.0845560226616560  0.5476273877920530  0.3949030197599234
  0.5476273914523724  0.9154439809407920  0.3949030105182562
  0.0661293089620172  0.5063642276360881  0.3617578074682182
  0.5063642301033318  0.9338706976937441  0.3617578012776945
  0.1132607028105618  0.5408180351777020  0.4464799591256234
  0.5408180385878056  0.8867392986269265  0.4464799472586949
  0.0771015879851418  0.4598220302440857  0.3815145015756741
  0.4598220325233667  0.9228984187410708  0.3815144935669045
  0.9936324962524267  0.4338665726940412  0.3617584743884001
  0.4338665733793718  0.0063675128032991  0.3617584758968259
  0.9523696825652079  0.4154407651748210  0.3949061085032468
  0.4154407655286761  0.0476303247386619  0.3949061158350943
  0.0401751625971303  0.4228954477282361  0.3815145861248684
  0.4228954488266910  0.9598248450185256  0.3815145814366676
  0.9591800787862731  0.3867382024304329  0.4464842749694843
  0.3867382021913542  0.0408199268194050  0.4464842800499973
  0.8938149349353237  0.4293499553356921  0.5000020084970922
  0.4293499523324654  0.1061850671040168  0.5000020192351955
  0.8867392975386805  0.4591819649495974  0.5535200409210845
  0.4591819610621958  0.1132607015017210  0.5535200526823025
  0.9293491620551423  0.3938152611718126  0.5000030592566715
  0.3938152591838424  0.0706508412211559  0.5000030673178240
  0.9154439777651210  0.4523726123248146  0.6050969803332676
  0.4523726082326724  0.0845560191154235  0.6050969894894190
  0.9228984124423038  0.5401779698341408  0.6184854985310109
  0.5401779671448115  0.0771015813822404  0.6184855064478115
  0.9598248378260982  0.5771045524395846  0.6184854138909585
  0.5771045508520020  0.0401751550417851  0.6184854186293700
  0.9338706914240631  0.4936357725721836  0.6382421925360225
  0.4936357695331963  0.0661293023804891  0.6382421986836756
  0.0476303178672049  0.5845592349295202  0.6050938914733240
  0.5845592341341354  0.9523696753490301  0.6050938842733038
  0.0063675042529586  0.5661334274040899  0.6382415256341168
  0.5661334263412090  0.9936324873742864  0.6382415241074326
  0.1132601196460406  0.5408212619758516  0.5535192925504152
  0.5408212639902893  0.8867398767400074  0.5535192809156995
  0.0845554983565080  0.5476337149330209  0.6050955348905100
  0.5476337154080616  0.9154444959159440  0.6050955253942145
  0.1246958408653521  0.4925203254297152  0.4669403618833936
  0.4925203285744379  0.8753041604625829  0.4669403485634483
  0.1069276384745315  0.4527883061801355  0.4350669997680873
  0.4527883088440281  0.8930723651074651  0.4350669886008519
  0.1246948995516496  0.4925222665035813  0.5330630394425570
  0.4925222694720893  0.8753050997103873  0.5330630262253686
  0.0472100729110603  0.3930712433492186  0.4350682640393717
  0.3930712441014362  0.9527899331492147  0.4350682583945659
  0.0074786766039575  0.3753036170364560  0.4669440323143945
  0.3753036174002026  0.9925213280018129  0.4669440307106573
  0.0884484390992453  0.4115504447603865  0.4681736980631321
  0.4115504469933596  0.9115515646984395  0.4681736883313989
  0.9591800225099970  0.3867414877124442  0.5535231518123939
  0.3867414855341732  0.0408199782726884  0.5535231566587990
  0.9523686582329950  0.4154473459286343  0.6050981675597916
  0.4154473428087365  0.0476313394668558  0.6050981741046405
  0.0074781782565023  0.3753058611264259  0.5330661639316796
  0.3753058608434303  0.9925218242785941  0.5330661623489606
  0.9822155562965410  0.4822211863854312  0.6587437704022330
  0.4822211844828574  0.0177844367132814  0.6587437728949098
  0.0177829207204337  0.5177879153517745  0.6587430737105128
  0.5177879143689434  0.9822170713873883  0.6587430703585585
  0.0661279500451283  0.5063721628746095  0.6382431342800600
  0.5063721634650382  0.9338720434962997  0.6382431272463657
  0.9936305916511787  0.4338758622061199  0.6382437368516775
  0.4338758608323349  0.0063694037284767  0.6382437377921228
  0.1069258145679598  0.4527929979013212  0.5649388083228175
  0.4527930004960620  0.8930741847539685  0.5649387967268759
  0.0884474137953521  0.4115532760552840  0.5318345406443442
  0.4115532779508388  0.9115525875867061  0.5318345311273238
  0.0472082937874188  0.3930759116566956  0.5649405847361313
  0.3930759129074068  0.9527917064758981  0.5649405786916676
  0.0771001309477411  0.4598294405183860  0.6184897969682348
  0.4598294419408883  0.9228998655085168  0.6184897886918351
  0.0401730003492836  0.4229035340767139  0.6184900418578645
  0.4229035351352360  0.9598269966177262  0.6184900368325232
  0.7752289635908634  0.2305622187131016  0.5701745833866844
  0.2247701582394657  0.7694375706368880  0.5701753813230253
  0.2305622203306908  0.2247710349122127  0.5701746057614606
  0.7694375700177042  0.7752298373879764  0.5701753608355061
  0.2752289685680345  0.2694377819945530  0.5701746032658607
  0.7247701689305216  0.7305624342893904  0.5701753638075898
  0.7305622200981212  0.2752289622375718  0.5701745837446452
  0.2694375700122307  0.7247701590385571  0.5701753814364080
  0.7585384613605375  0.1902430195994864  0.5310462519440100
  0.2414610515144179  0.8097571065472712  0.5310480239624096
  0.1902430222382185  0.2414615380545808  0.5310462736820354
  0.8097571067197669  0.7585389445980965  0.5310480030517677
  0.2585384641462483  0.3097569784665807  0.5310462715923812
  0.7414610592587547  0.6902428965816819  0.5310480049675642
  0.6902430220889321  0.2585384606899540  0.5310462517403156
  0.3097571062487482  0.7414610518317848  0.5310480240980023
  0.7756375801620384  0.1434042952324707  0.5519257695794052
  0.2243615693131633  0.8565958658694548  0.5519269002696420
  0.1434042971070705  0.2243624192489286  0.5519257891571102
  0.8565958656707034  0.7756384231802169  0.5519268803078142
  0.2756375848706047  0.3565957046303637  0.5519257846280525
  0.7243615819777812  0.6434041370266381  0.5519268839779190
  0.6434042974064322  0.2756375808875218  0.5519257684877021
  0.3565958668000387  0.7243615703141748  0.5519269004869370
  0.8140223389473168  0.2030808972803037  0.6078500200436133
  0.1859763444903303  0.7969191120069435  0.6078503295258189
  0.2030808993732996  0.1859776581378252  0.6078500395043736
  0.7969191115889039  0.8140236500164035  0.6078503128517293
  0.3140223487118859  0.2969191040277782  0.6078500336355454
  0.6859763579337977  0.7030808927414843  0.6078503176577168
  0.7030808995378912  0.3140223387328256  0.6078500199578548
  0.2969191130793405  0.6859763447231246  0.6078503282861386
  0.8103841144447615  0.1515796302981046  0.5983953559061403
  0.1896142148213630  0.8484201869117377  0.5983955847651429
  0.1515796326369816  0.1896158830894207  0.5983953769260095
  0.8484201867786462  0.8103857765032612  0.5983955657156784
  0.3103841220053234  0.3484203707879362  0.5983953710863388
  0.6896142314195737  0.6515798178282326  0.5983955730860482
  0.6515796331273961  0.3103841147006276  0.5983953583174466
  0.3484201883567769  0.6896142168367638  0.5983955835818812
  0.8609394206159063  0.2237463878443301  0.5981250273250834
  0.1390593540361116  0.7762529796255955  0.5981235425890747
  0.2237463908564851  0.1390605776830149  0.5981250434308203
  0.7762529784986836  0.8609406410101280  0.5981235284241143
  0.3609394284611636  0.2762536119228393  0.5981250320207168
  0.6390593670246253  0.7237470258235089  0.5981235419254151
  0.7237463906704947  0.3609394204247356  0.5981250287036208
  0.2762529809464831  0.6390593548495509  0.5981235430813302
  0.8066071568969609  0.2675131768686507  0.5351909251315629
  0.1933926883104074  0.7324865548288921  0.5351904795324184
  0.2675131792666391  0.1933928429401602  0.5351909466275089
  0.7324865557777491  0.8066073111737381  0.5351904593446957
  0.3066071581467306  0.2324868221248856  0.5351909425833193
  0.6933926923208100  0.7675134461284078  0.5351904636743526
  0.7675131776170498  0.3066071559051802  0.5351909259475216
  0.2324865547702691  0.6933926892247251  0.5351904791224125
  0.8576128795393869  0.2606191268612991  0.5531374122493136
  0.1423858714541617  0.7393804567519111  0.5531361681916549
  0.2606191309240636  0.1423871191252710  0.5531374305993328
  0.7393804577981059  0.8576141269200610  0.5531361526128215
  0.3576128831018399  0.2393808729118277  0.5531374199876490
  0.6423858772723063  0.7606195454835518  0.5531361625661186
  0.7606191281242045  0.3576128784731858  0.5531374121462436
  0.2393804579152219  0.6423858716377959  0.5531361675650799
  0.8066073116952640  0.2675134452741729  0.4648095206951073
  0.1933928431110268  0.7324868232333250  0.4648090746607124
  0.2675134442277061  0.1933926888294090  0.4648095406753183
  0.7324868207417049  0.8066071570622951  0.4648090533232199
  0.3066073077686219  0.2324865538910789  0.4648095363704002
  0.6933928419439080  0.7675131778992866  0.4648090573408301
  0.7675134453332663  0.3066073107433541  0.4648095210597318
  0.2324868224965780  0.6933928440695022  0.4648090739132628
  0.7585389485113736  0.1902428936251476  0.4689519751142199
  0.2414615386739695  0.8097569805677577  0.4689537489852859
  0.1902428932999302  0.2414610554422451  0.4689519969187468
  0.8097569777889976  0.7585384619963629  0.4689537263612334
  0.2585389409088308  0.3097571035113056  0.4689519950099836
  0.7414615360097412  0.6902430216262209  0.4689537284119338
  0.6902428939272138  0.2585389481553000  0.4689519749878596
  0.3097569780842671  0.7414615392941560  0.4689537492078277
  0.7752298413606233  0.2305624296174084  0.4298246187942662
  0.2247710360318470  0.7694377815249944  0.4298254165159149
  0.2305624300581018  0.2247701627286902  0.4298246392641250
  0.7694377797589919  0.7752289652002485  0.4298253941208940
  0.2752298311001314  0.2694375657392079  0.4298246362947519
  0.7247710314564370  0.7305622180253514  0.4298253966072035
  0.7305624302540829  0.2752298405628502  0.4298246186885278
  0.2694377801700957  0.7247710373720512  0.4298254161769050
  0.7846868367731804  0.1133977416782121  0.4999993449856039
  0.2153131623999248  0.8866022584248641  0.5000006550113335
  0.1133977430894054  0.2153131668469033  0.4999993642356765
  0.8866022570399406  0.7846868333062771  0.5000006357830497
  0.2846868320270288  0.3866022566011503  0.4999993582675148
  0.7153131681562840  0.6133977433867427  0.5000006417322078
  0.6133977420576061  0.2846868358600259  0.4999993459709683
  0.3866022580998164  0.7153131633254871  0.5000006540558682
  0.7756384301604444  0.1434041340245764  0.4480730995775489
  0.2243624193123745  0.8565957046584175  0.4480742305753024
  0.1434041342756215  0.2243615769839722  0.4480731196448657
  0.8565957028494995  0.7756375809105311  0.4480742109172328
  0.2756384182003853  0.3565958631282119  0.4480731159631522
  0.7243624153020676  0.6434042955198501  0.4480742154214075
  0.6434041331474855  0.2756384291850488  0.4480730994004393
  0.3565957025431291  0.7243624186057499  0.4480742316781789
  0.8266629582429146  0.0841269147700424  0.4999996339729102
  0.1733370411543861  0.9158730851063108  0.5000003660079267
  0.0841269160670369  0.1733370469191357  0.4999996530835490
  0.9158730838526081  0.8266629532579708  0.5000003469358179
  0.3266629521369580  0.4158730825517352  0.4999996422996874
  0.6733370481110295  0.5841269174816964  0.5000003576975913
  0.5841269162262757  0.3266629575166643  0.4999996384979821
  0.4158730837381054  0.6733370419294867  0.5000003615096905
  0.8522836960482156  0.1211349348417996  0.5983950732247764
  0.1477145681337527  0.8788648579090179  0.5983945347789411
  0.1211349373108950  0.1477163045505775  0.5983950904143197
  0.8788648570686702  0.8522854235190792  0.5983945184603070
  0.3522837037366773  0.3788650648553704  0.5983950796670129
  0.6477145860062365  0.6211351472976963  0.5983945283131967
  0.6211349395564609  0.3522836964641133  0.5983950739850549
  0.3788648602284048  0.6477145690801305  0.5983945326997274
  0.8571493778635736  0.0841843495590782  0.5527857782340013
  0.1428495902323674  0.9158158467453790  0.5527853941615098
  0.0841843524108003  0.1428506260135593  0.5527857967391975
  0.9158158460907005  0.8571504014010771  0.5527853766891210
  0.3571493778591140  0.4158156497097276  0.5527857836824456
  0.6428496040606626  0.5841841570347911  0.5527853901635789
  0.5841843527791607  0.3571493780483189  0.5527857838930712
  0.4158158489685957  0.6428495913174614  0.5527853887850821
  0.9033621343513308  0.1939068562778078  0.5981638125683928
  0.0966363124515696  0.8060927121000093  0.5981612628782959
  0.1939068590019004  0.0966378642699140  0.5981638300468556
  0.8060927111633942  0.9033636811575079  0.5981612478505995
  0.4033621427056835  0.3060931432934486  0.5981638098041077
  0.5966363269973168  0.6939072913156096  0.5981612688651551
  0.6939068598018249  0.4033621353899425  0.5981638138273337
  0.3060927153047475  0.5966363140567592  0.5981612620418858
  0.8987289621703793  0.1428123558111611  0.6053649629158071
  0.1012692679862381  0.8571871703779783  0.6053630530893138
  0.1428123580106073  0.1012710376308514  0.6053649807545839
  0.8571871695696917  0.8987307239338154  0.6053630359621668
  0.3987289715623478  0.3571876439570215  0.6053649625476667
  0.6012692865014143  0.6428128332974931  0.6053630550397736
  0.6428123596542601  0.3987289628123051  0.6053649660385385
  0.3571871731823589  0.6012692691736592  0.6053630507087807
  0.9396326494204873  0.2016585614699069  0.5526588614363933
  0.0603662696486050  0.7983417789453503  0.5526556790104977
  0.2016585659361951  0.0603673505590147  0.5526588769949073
  0.7983417777388855  0.9396337250978486  0.5526556626868084
  0.4396326523773736  0.2983414356317724  0.5526588488925441
  0.5603662783519220  0.7016582261422528  0.5526556897784993
  0.7016585649827730  0.4396326498888349  0.5526588614453211
  0.2983417800100609  0.5603662695267977  0.5526556782956403
  0.8876021463975430  0.2598317820648986  0.5000013230184522
  0.1123978537241280  0.7401682177135889  0.4999986769836293
  0.2598317837603181  0.1123978540827051  0.5000013370155968
  0.7401682161307014  0.8876021460521412  0.4999986629695423
  0.3876021455937180  0.2401682165638756  0.5000013244486031
  0.6123978543592042  0.7598317834875112  0.4999986755387241
  0.7598317818085416  0.3876021462963949  0.5000013234063391
  0.2401682180920949  0.6123978537660316  0.4999986766123805
  0.8576141289348754  0.2606195428521165  0.4468638318085750
  0.1423871208590353  0.7393808727296216  0.4468625877633570
  0.2606195421938775  0.1423858730568710  0.4468638473709837
  0.7393808690707223  0.8576128808506425  0.4468625693868469
  0.3576141228324710  0.2393804544615363  0.4468638374407279
  0.6423871170023534  0.7606191270383712  0.4468625799841759
  0.7606195417729961  0.3576141286730895  0.4468638324474185
  0.2393808715528151  0.6423871218499531  0.4468625878793236
  0.9296134834484291  0.2304889468218365  0.5000015683748982
  0.0703865170033769  0.7695110530983249  0.4999984316169258
  0.2304889484954140  0.0703865176027948  0.5000015840375795
  0.7695110514071177  0.9296134824276958  0.4999984159443000
  0.4296134814858009  0.2695110511812245  0.5000015598815347
  0.5703865186486869  0.7304889486881909  0.4999984401079078
  0.7304889470441669  0.4296134828150381  0.5000015687276737
  0.2695110529582526  0.5703865175861178  0.4999984312964696
  0.8140236552092716  0.2030808883502417  0.3921496704919875
  0.1859776607613306  0.7969191030541704  0.3921499799424771
  0.2030808883499586  0.1859763500466820  0.3921496871064406
  0.7969191005952632  0.8140223419258394  0.3921499605432068
  0.3140236422107093  0.2969191073442943  0.3921496822853820
  0.6859776514296007  0.7030808960490939  0.3921499664113912
  0.7030808873625918  0.3140236549273447  0.3921496717785923
  0.2969191008992977  0.6859776609291752  0.3921499800113380
  0.8103857850891719  0.1515798131320297  0.4016044155692271
  0.1896158854746029  0.8484203697189385  0.4016046437504850
  0.1515798133149878  0.1896142236151530  0.4016044343569838
  0.8484203674854039  0.8103841170177100  0.4016046230130362
  0.3103857687660376  0.3484201820881390  0.4016044269711757
  0.6896158781822308  0.6515796291236766  0.4016046288484281
  0.6515798117187226  0.3103857830473418  0.4016044167561529
  0.3484203669389261  0.6896158851940026  0.4016046413844642
  0.8609406460223902  0.2237470201701061  0.4018764570441233
  0.1390605794506007  0.7762536119187272  0.4018749730312745
  0.2237470213895705  0.1390593591256280  0.4018764716851162
  0.7762536090557224  0.8609394224439362  0.4018749564474580
  0.3609406330209283  0.2762529742211620  0.4018764581767265
  0.6390605715796259  0.7237463881210242  0.4018749678671579
  0.7237470189012299  0.3609406451478608  0.4018764565124591
  0.2762536091633820  0.6390605795833988  0.4018749717313766
  0.8571504088471502  0.0841841539511646  0.4472146060375300
  0.1428506212094490  0.9158156511286059  0.4472142215300297
  0.0841841539146173  0.1428495987724580  0.4472146233683958
  0.9158156476128373  0.8571493741601653  0.4472142032430198
  0.3571503962362972  0.4158158428969342  0.4472146098543924
  0.6428506224438801  0.5841843502122349  0.4472142162860274
  0.5841841518210721  0.3571504077954487  0.4472146114225386
  0.4158156479971842  0.6428506210725802  0.4472142159180775
  0.8522854313161260  0.1211351421941261  0.4016054650840263
  0.1477163034099443  0.8788650652506134  0.4016049268780545
  0.1211351428638393  0.1477145766311096  0.4016054814507451
  0.8788650626567915  0.8522836955872496  0.4016049096908151
  0.3522854142155095  0.3788648526840804  0.4016054715906092
  0.6477162964904274  0.6211349351201632  0.4016049204196860
  0.6211351400197408  0.3522854304013823  0.4016054672425656
  0.3788650606767754  0.6477163030254409  0.4016049260993790
  0.9078120107008731  0.0825673871220213  0.5322401886445450
  0.0921873111788375  0.9174326471150215  0.5322387820918891
  0.0825673878720918  0.0921879953187994  0.5322402053110846
  0.9174326429782972  0.9078126812619459  0.5322387639564092
  0.4078120081905257  0.4174326118268489  0.5322401849969759
  0.5921873246260536  0.5825673587034800  0.5322387841132959
  0.5825673873988164  0.4078120096416373  0.5322401948559446
  0.4174326454276101  0.5921873116010283  0.5322387758568564
  0.9332332042482142  0.1184171412296041  0.5646689186889733
  0.0667655000980506  0.8815825489721053  0.5646663670833127
  0.1184171442871729  0.0667667986281312  0.5646689336223700
  0.8815825468583517  0.9332344931458506  0.5646663494691528
  0.4332332074356395  0.3815828564800856  0.5646689082955286
  0.5667655145505748  0.6184174552448763  0.5646663741940069
  0.6184171441569631  0.4332332041511632  0.5646689226367315
  0.3815825505359030  0.5667655009483569  0.5646663625096987
  0.9584331435553791  0.1546817181716997  0.5321936138320066
  0.0415655348849272  0.8453185031753470  0.5321896487635176
  0.1546817218095933  0.0415668596535987  0.5321936267504368
  0.8453185007340778  0.9584344594656909  0.5321896342435174
  0.4584331421606421  0.3453182783360841  0.5321935987883756
  0.5415655444166178  0.6546815001884713  0.5321896626878542
  0.6546817195639054  0.4584331423947694  0.5321936151415518
  0.3453185035933821  0.5415655352283451  0.5321896479844272
  0.9078126876708411  0.0825673538538523  0.4677612181137664
  0.0921879881418885  0.9174326138378928  0.4677598110949637
  0.0825673570102879  0.0921873189930860  0.4677612360949738
  0.9174326121276405  0.9078120049332352  0.4677597946768671
  0.4078126755882350  0.4174326411225769  0.4677612159311648
  0.5921879920256049  0.5825673879986302  0.4677598149585352
  0.5825673556603331  0.4078126873357690  0.4677612243601716
  0.4174326136784404  0.5921879892947605  0.4677598049229076
  0.9396337297370301  0.2016582207960533  0.4473443210409263
  0.0603673499689770  0.7983414382585959  0.4473411384909270
  0.2016582220702025  0.0603662750230783  0.4473443373254814
  0.7983414338888734  0.9396326495619035  0.4473411229820199
  0.4396337217629874  0.2983417737729830  0.4473443102419292
  0.5603673477389869  0.7016585642739631  0.4473411510761733
  0.7016582199176735  0.4396337298567172  0.4473443217809676
  0.2983414349309579  0.5603673495015823  0.4473411385085473
  0.9033636877140693  0.1939072878192568  0.4018387365152658
  0.0966378658265082  0.8060931436144897  0.4018361880196639
  0.1939072887007190  0.0966363189464835  0.4018387520625600
  0.8060931408945611  0.9033621358222020  0.4018361700554211
  0.4033636731225051  0.3060927086368884  0.4018387310527179
  0.5966378574189775  0.6939068566527393  0.4018361902644383
  0.6939072847236045  0.4033636861242560  0.4018387374044126
  0.3060931402082490  0.5966378648052209  0.4018361867534480
  0.8987307315447531  0.1428128294472688  0.3946369468158774
  0.1012710373758073  0.8571876439848154  0.3946350371420236
  0.1428128303251411  0.1012692762389247  0.3946369640050180
  0.8571876419156662  0.8987289625277608  0.3946350193121049
  0.3987307136904017  0.3571871666297555  0.3946369449733437
  0.6012710286352420  0.6428123559749390  0.3946350374415041
  0.6428128267770920  0.3987307303877561  0.3946369491736876
  0.3571876402842235  0.6012710367662601  0.3946350340956092
  0.9584344643922698  0.1546814962517186  0.4678103512594698
  0.0415668557277036  0.8453182812498286  0.4678063861101772
  0.1546814991283822  0.0415655407340915  0.4678103658565865
  0.8453182780640496  0.9584331405458500  0.4678063731510321
  0.4584344556703394  0.3453184996375958  0.4678103373847517
  0.5415668579239177  0.6546817214909693  0.4678064011382743
  0.6546814959911680  0.4584344640642557  0.4678103519950995
  0.3453182800146836  0.5415668569055032  0.4678063848886751
  0.9332344997331781  0.1184174506617377  0.4353336324053874
  0.0667667955915628  0.8815828583896677  0.4353310817696691
  0.1184174530028687  0.0667655069960964  0.4353336503303817
  0.8815828556016317  0.9332332015071630  0.4353310666014698
  0.4332344857319959  0.3815825446809295  0.4353336255991683
  0.5667667928563379  0.6184171434375979  0.4353310919093107
  0.6184174492847934  0.4332344989371765  0.4353336370162734
  0.3815828556465676  0.5667667957430073  0.4353310778349062
 
  0.00000000E+00  0.00000000E+00  0.00000000E+00
  0.00000000E+00  0.00000000E+00  0.00000000E+00
  0.00000000E+00  0.00000000E+00  0.00000000E+00
  0.00000000E+00  0.00000000E+00  0.00000000E+00
  0.00000000E+00  0.00000000E+00  0.00000000E+00
  0.00000000E+00  0.00000000E+00  0.00000000E+00
  0.00000000E+00  0.00000000E+00  0.00000000E+00
  0.00000000E+00  0.00000000E+00  0.00000000E+00
  0.00000000E+00  0.00000000E+00  0.00000000E+00
  0.00000000E+00  0.00000000E+00  0.00000000E+00
  0.00000000E+00  0.00000000E+00  0.00000000E+00
  0.00000000E+00  0.00000000E+00  0.00000000E+00
  0.00000000E+00  0.00000000E+00  0.00000000E+00
  0.00000000E+00  0.00000000E+00  0.00000000E+00
  0.00000000E+00  0.00000000E+00  0.00000000E+00
  0.00000000E+00  0.00000000E+00  0.00000000E+00
  0.00000000E+00  0.00000000E+00  0.00000000E+00
  0.00000000E+00  0.00000000E+00  0.00000000E+00
  0.00000000E+00  0.00000000E+00  0.00000000E+00
  0.00000000E+00  0.00000000E+00  0.00000000E+00
  0.00000000E+00  0.00000000E+00  0.00000000E+00
  0.00000000E+00  0.00000000E+00  0.00000000E+00
  0.00000000E+00  0.00000000E+00  0.00000000E+00
  0.00000000E+00  0.00000000E+00  0.00000000E+00
  0.00000000E+00  0.00000000E+00  0.00000000E+00
  0.00000000E+00  0.00000000E+00  0.00000000E+00
  0.00000000E+00  0.00000000E+00  0.00000000E+00
  0.00000000E+00  0.00000000E+00  0.00000000E+00
  0.00000000E+00  0.00000000E+00  0.00000000E+00
  0.00000000E+00  0.00000000E+00  0.00000000E+00
  0.00000000E+00  0.00000000E+00  0.00000000E+00
  0.00000000E+00  0.00000000E+00  0.00000000E+00
  0.00000000E+00  0.00000000E+00  0.00000000E+00
  0.00000000E+00  0.00000000E+00  0.00000000E+00
  0.00000000E+00  0.00000000E+00  0.00000000E+00
  0.00000000E+00  0.00000000E+00  0.00000000E+00
  0.00000000E+00  0.00000000E+00  0.00000000E+00
  0.00000000E+00  0.00000000E+00  0.00000000E+00
  0.00000000E+00  0.00000000E+00  0.00000000E+00
  0.00000000E+00  0.00000000E+00  0.00000000E+00
  0.00000000E+00  0.00000000E+00  0.00000000E+00
  0.00000000E+00  0.00000000E+00  0.00000000E+00
  0.00000000E+00  0.00000000E+00  0.00000000E+00
  0.00000000E+00  0.00000000E+00  0.00000000E+00
  0.00000000E+00  0.00000000E+00  0.00000000E+00
  0.00000000E+00  0.00000000E+00  0.00000000E+00
  0.00000000E+00  0.00000000E+00  0.00000000E+00
  0.00000000E+00  0.00000000E+00  0.00000000E+00
  0.00000000E+00  0.00000000E+00  0.00000000E+00
  0.00000000E+00  0.00000000E+00  0.00000000E+00
  0.00000000E+00  0.00000000E+00  0.00000000E+00
  0.00000000E+00  0.00000000E+00  0.00000000E+00
  0.00000000E+00  0.00000000E+00  0.00000000E+00
  0.00000000E+00  0.00000000E+00  0.00000000E+00
  0.00000000E+00  0.00000000E+00  0.00000000E+00
  0.00000000E+00  0.00000000E+00  0.00000000E+00
  0.00000000E+00  0.00000000E+00  0.00000000E+00
  0.00000000E+00  0.00000000E+00  0.00000000E+00
  0.00000000E+00  0.00000000E+00  0.00000000E+00
  0.00000000E+00  0.00000000E+00  0.00000000E+00
  0.00000000E+00  0.00000000E+00  0.00000000E+00
  0.00000000E+00  0.00000000E+00  0.00000000E+00
  0.00000000E+00  0.00000000E+00  0.00000000E+00
  0.00000000E+00  0.00000000E+00  0.00000000E+00
  0.00000000E+00  0.00000000E+00  0.00000000E+00
  0.00000000E+00  0.00000000E+00  0.00000000E+00
  0.00000000E+00  0.00000000E+00  0.00000000E+00
  0.00000000E+00  0.00000000E+00  0.00000000E+00
  0.00000000E+00  0.00000000E+00  0.00000000E+00
  0.00000000E+00  0.00000000E+00  0.00000000E+00
  0.00000000E+00  0.00000000E+00  0.00000000E+00
  0.00000000E+00  0.00000000E+00  0.00000000E+00
  0.00000000E+00  0.00000000E+00  0.00000000E+00
  0.00000000E+00  0.00000000E+00  0.00000000E+00
  0.00000000E+00  0.00000000E+00  0.00000000E+00
  0.00000000E+00  0.00000000E+00  0.00000000E+00
  0.00000000E+00  0.00000000E+00  0.00000000E+00
  0.00000000E+00  0.00000000E+00  0.00000000E+00
  0.00000000E+00  0.00000000E+00  0.00000000E+00
  0.00000000E+00  0.00000000E+00  0.00000000E+00
  0.00000000E+00  0.00000000E+00  0.00000000E+00
  0.00000000E+00  0.00000000E+00  0.00000000E+00
  0.00000000E+00  0.00000000E+00  0.00000000E+00
  0.00000000E+00  0.00000000E+00  0.00000000E+00
  0.00000000E+00  0.00000000E+00  0.00000000E+00
  0.00000000E+00  0.00000000E+00  0.00000000E+00
  0.00000000E+00  0.00000000E+00  0.00000000E+00
  0.00000000E+00  0.00000000E+00  0.00000000E+00
  0.00000000E+00  0.00000000E+00  0.00000000E+00
  0.00000000E+00  0.00000000E+00  0.00000000E+00
  0.00000000E+00  0.00000000E+00  0.00000000E+00
  0.00000000E+00  0.00000000E+00  0.00000000E+00
  0.00000000E+00  0.00000000E+00  0.00000000E+00
  0.00000000E+00  0.00000000E+00  0.00000000E+00
  0.00000000E+00  0.00000000E+00  0.00000000E+00
  0.00000000E+00  0.00000000E+00  0.00000000E+00
  0.00000000E+00  0.00000000E+00  0.00000000E+00
  0.00000000E+00  0.00000000E+00  0.00000000E+00
  0.00000000E+00  0.00000000E+00  0.00000000E+00
  0.00000000E+00  0.00000000E+00  0.00000000E+00
  0.00000000E+00  0.00000000E+00  0.00000000E+00
  0.00000000E+00  0.00000000E+00  0.00000000E+00
  0.00000000E+00  0.00000000E+00  0.00000000E+00
  0.00000000E+00  0.00000000E+00  0.00000000E+00
  0.00000000E+00  0.00000000E+00  0.00000000E+00
  0.00000000E+00  0.00000000E+00  0.00000000E+00
  0.00000000E+00  0.00000000E+00  0.00000000E+00
  0.00000000E+00  0.00000000E+00  0.00000000E+00
  0.00000000E+00  0.00000000E+00  0.00000000E+00
  0.00000000E+00  0.00000000E+00  0.00000000E+00
  0.00000000E+00  0.00000000E+00  0.00000000E+00
  0.00000000E+00  0.00000000E+00  0.00000000E+00
  0.00000000E+00  0.00000000E+00  0.00000000E+00
  0.00000000E+00  0.00000000E+00  0.00000000E+00
  0.00000000E+00  0.00000000E+00  0.00000000E+00
  0.00000000E+00  0.00000000E+00  0.00000000E+00
  0.00000000E+00  0.00000000E+00  0.00000000E+00
  0.00000000E+00  0.00000000E+00  0.00000000E+00
  0.00000000E+00  0.00000000E+00  0.00000000E+00
  0.00000000E+00  0.00000000E+00  0.00000000E+00
  0.00000000E+00  0.00000000E+00  0.00000000E+00
  0.00000000E+00  0.00000000E+00  0.00000000E+00
  0.00000000E+00  0.00000000E+00  0.00000000E+00
  0.00000000E+00  0.00000000E+00  0.00000000E+00
  0.00000000E+00  0.00000000E+00  0.00000000E+00
  0.00000000E+00  0.00000000E+00  0.00000000E+00
  0.00000000E+00  0.00000000E+00  0.00000000E+00
  0.00000000E+00  0.00000000E+00  0.00000000E+00
  0.00000000E+00  0.00000000E+00  0.00000000E+00
  0.00000000E+00  0.00000000E+00  0.00000000E+00
  0.00000000E+00  0.00000000E+00  0.00000000E+00
  0.00000000E+00  0.00000000E+00  0.00000000E+00
  0.00000000E+00  0.00000000E+00  0.00000000E+00
  0.00000000E+00  0.00000000E+00  0.00000000E+00
  0.00000000E+00  0.00000000E+00  0.00000000E+00
  0.00000000E+00  0.00000000E+00  0.00000000E+00
  0.00000000E+00  0.00000000E+00  0.00000000E+00
  0.00000000E+00  0.00000000E+00  0.00000000E+00
  0.00000000E+00  0.00000000E+00  0.00000000E+00
  0.00000000E+00  0.00000000E+00  0.00000000E+00
  0.00000000E+00  0.00000000E+00  0.00000000E+00
  0.00000000E+00  0.00000000E+00  0.00000000E+00
  0.00000000E+00  0.00000000E+00  0.00000000E+00
  0.00000000E+00  0.00000000E+00  0.00000000E+00
  0.00000000E+00  0.00000000E+00  0.00000000E+00
  0.00000000E+00  0.00000000E+00  0.00000000E+00
  0.00000000E+00  0.00000000E+00  0.00000000E+00
  0.00000000E+00  0.00000000E+00  0.00000000E+00
  0.00000000E+00  0.00000000E+00  0.00000000E+00
  0.00000000E+00  0.00000000E+00  0.00000000E+00
  0.00000000E+00  0.00000000E+00  0.00000000E+00
  0.00000000E+00  0.00000000E+00  0.00000000E+00
  0.00000000E+00  0.00000000E+00  0.00000000E+00
  0.00000000E+00  0.00000000E+00  0.00000000E+00
  0.00000000E+00  0.00000000E+00  0.00000000E+00
  0.00000000E+00  0.00000000E+00  0.00000000E+00
  0.00000000E+00  0.00000000E+00  0.00000000E+00
  0.00000000E+00  0.00000000E+00  0.00000000E+00
  0.00000000E+00  0.00000000E+00  0.00000000E+00
  0.00000000E+00  0.00000000E+00  0.00000000E+00
  0.00000000E+00  0.00000000E+00  0.00000000E+00
  0.00000000E+00  0.00000000E+00  0.00000000E+00
  0.00000000E+00  0.00000000E+00  0.00000000E+00
  0.00000000E+00  0.00000000E+00  0.00000000E+00
  0.00000000E+00  0.00000000E+00  0.00000000E+00
  0.00000000E+00  0.00000000E+00  0.00000000E+00
  0.00000000E+00  0.00000000E+00  0.00000000E+00
  0.00000000E+00  0.00000000E+00  0.00000000E+00
  0.00000000E+00  0.00000000E+00  0.00000000E+00
  0.00000000E+00  0.00000000E+00  0.00000000E+00
  0.00000000E+00  0.00000000E+00  0.00000000E+00
  0.00000000E+00  0.00000000E+00  0.00000000E+00
  0.00000000E+00  0.00000000E+00  0.00000000E+00
  0.00000000E+00  0.00000000E+00  0.00000000E+00
  0.00000000E+00  0.00000000E+00  0.00000000E+00
  0.00000000E+00  0.00000000E+00  0.00000000E+00
  0.00000000E+00  0.00000000E+00  0.00000000E+00
  0.00000000E+00  0.00000000E+00  0.00000000E+00
  0.00000000E+00  0.00000000E+00  0.00000000E+00
  0.00000000E+00  0.00000000E+00  0.00000000E+00
  0.00000000E+00  0.00000000E+00  0.00000000E+00
  0.00000000E+00  0.00000000E+00  0.00000000E+00
  0.00000000E+00  0.00000000E+00  0.00000000E+00
  0.00000000E+00  0.00000000E+00  0.00000000E+00
  0.00000000E+00  0.00000000E+00  0.00000000E+00
  0.00000000E+00  0.00000000E+00  0.00000000E+00
  0.00000000E+00  0.00000000E+00  0.00000000E+00
  0.00000000E+00  0.00000000E+00  0.00000000E+00
  0.00000000E+00  0.00000000E+00  0.00000000E+00
  0.00000000E+00  0.00000000E+00  0.00000000E+00
  0.00000000E+00  0.00000000E+00  0.00000000E+00
  0.00000000E+00  0.00000000E+00  0.00000000E+00
  0.00000000E+00  0.00000000E+00  0.00000000E+00
  0.00000000E+00  0.00000000E+00  0.00000000E+00
  0.00000000E+00  0.00000000E+00  0.00000000E+00
  0.00000000E+00  0.00000000E+00  0.00000000E+00
  0.00000000E+00  0.00000000E+00  0.00000000E+00
  0.00000000E+00  0.00000000E+00  0.00000000E+00
  0.00000000E+00  0.00000000E+00  0.00000000E+00
  0.00000000E+00  0.00000000E+00  0.00000000E+00
  0.00000000E+00  0.00000000E+00  0.00000000E+00
  0.00000000E+00  0.00000000E+00  0.00000000E+00
  0.00000000E+00  0.00000000E+00  0.00000000E+00
  0.00000000E+00  0.00000000E+00  0.00000000E+00
  0.00000000E+00  0.00000000E+00  0.00000000E+00
  0.00000000E+00  0.00000000E+00  0.00000000E+00
  0.00000000E+00  0.00000000E+00  0.00000000E+00
  0.00000000E+00  0.00000000E+00  0.00000000E+00
  0.00000000E+00  0.00000000E+00  0.00000000E+00
  0.00000000E+00  0.00000000E+00  0.00000000E+00
  0.00000000E+00  0.00000000E+00  0.00000000E+00
  0.00000000E+00  0.00000000E+00  0.00000000E+00
  0.00000000E+00  0.00000000E+00  0.00000000E+00
  0.00000000E+00  0.00000000E+00  0.00000000E+00
  0.00000000E+00  0.00000000E+00  0.00000000E+00
  0.00000000E+00  0.00000000E+00  0.00000000E+00
  0.00000000E+00  0.00000000E+00  0.00000000E+00
  0.00000000E+00  0.00000000E+00  0.00000000E+00
  0.00000000E+00  0.00000000E+00  0.00000000E+00
  0.00000000E+00  0.00000000E+00  0.00000000E+00
  0.00000000E+00  0.00000000E+00  0.00000000E+00
  0.00000000E+00  0.00000000E+00  0.00000000E+00
  0.00000000E+00  0.00000000E+00  0.00000000E+00
  0.00000000E+00  0.00000000E+00  0.00000000E+00
  0.00000000E+00  0.00000000E+00  0.00000000E+00
  0.00000000E+00  0.00000000E+00  0.00000000E+00
  0.00000000E+00  0.00000000E+00  0.00000000E+00
  0.00000000E+00  0.00000000E+00  0.00000000E+00
  0.00000000E+00  0.00000000E+00  0.00000000E+00
  0.00000000E+00  0.00000000E+00  0.00000000E+00
  0.00000000E+00  0.00000000E+00  0.00000000E+00
  0.00000000E+00  0.00000000E+00  0.00000000E+00
  0.00000000E+00  0.00000000E+00  0.00000000E+00
  0.00000000E+00  0.00000000E+00  0.00000000E+00
  0.00000000E+00  0.00000000E+00  0.00000000E+00
  0.00000000E+00  0.00000000E+00  0.00000000E+00
  0.00000000E+00  0.00000000E+00  0.00000000E+00
  0.00000000E+00  0.00000000E+00  0.00000000E+00
  0.00000000E+00  0.00000000E+00  0.00000000E+00
  0.00000000E+00  0.00000000E+00  0.00000000E+00
  0.00000000E+00  0.00000000E+00  0.00000000E+00
  0.00000000E+00  0.00000000E+00  0.00000000E+00
  0.00000000E+00  0.00000000E+00  0.00000000E+00
  0.00000000E+00  0.00000000E+00  0.00000000E+00
  0.00000000E+00  0.00000000E+00  0.00000000E+00
  0.00000000E+00  0.00000000E+00  0.00000000E+00
  0.00000000E+00  0.00000000E+00  0.00000000E+00
  0.00000000E+00  0.00000000E+00  0.00000000E+00
  0.00000000E+00  0.00000000E+00  0.00000000E+00
  0.00000000E+00  0.00000000E+00  0.00000000E+00
  0.00000000E+00  0.00000000E+00  0.00000000E+00
  0.00000000E+00  0.00000000E+00  0.00000000E+00
  0.00000000E+00  0.00000000E+00  0.00000000E+00
  0.00000000E+00  0.00000000E+00  0.00000000E+00
  0.00000000E+00  0.00000000E+00  0.00000000E+00
  0.00000000E+00  0.00000000E+00  0.00000000E+00
  0.00000000E+00  0.00000000E+00  0.00000000E+00
  0.00000000E+00  0.00000000E+00  0.00000000E+00
  0.00000000E+00  0.00000000E+00  0.00000000E+00
  0.00000000E+00  0.00000000E+00  0.00000000E+00
  0.00000000E+00  0.00000000E+00  0.00000000E+00
  0.00000000E+00  0.00000000E+00  0.00000000E+00
  0.00000000E+00  0.00000000E+00  0.00000000E+00
  0.00000000E+00  0.00000000E+00  0.00000000E+00
  0.00000000E+00  0.00000000E+00  0.00000000E+00
  0.00000000E+00  0.00000000E+00  0.00000000E+00
  0.00000000E+00  0.00000000E+00  0.00000000E+00
  0.00000000E+00  0.00000000E+00  0.00000000E+00
  0.00000000E+00  0.00000000E+00  0.00000000E+00
  0.00000000E+00  0.00000000E+00  0.00000000E+00
  0.00000000E+00  0.00000000E+00  0.00000000E+00
  0.00000000E+00  0.00000000E+00  0.00000000E+00
  0.00000000E+00  0.00000000E+00  0.00000000E+00
  0.00000000E+00  0.00000000E+00  0.00000000E+00
  0.00000000E+00  0.00000000E+00  0.00000000E+00
  0.00000000E+00  0.00000000E+00  0.00000000E+00
  0.00000000E+00  0.00000000E+00  0.00000000E+00
  0.00000000E+00  0.00000000E+00  0.00000000E+00
  0.00000000E+00  0.00000000E+00  0.00000000E+00
  0.00000000E+00  0.00000000E+00  0.00000000E+00
  0.00000000E+00  0.00000000E+00  0.00000000E+00
  0.00000000E+00  0.00000000E+00  0.00000000E+00
  0.00000000E+00  0.00000000E+00  0.00000000E+00
  0.00000000E+00  0.00000000E+00  0.00000000E+00
  0.00000000E+00  0.00000000E+00  0.00000000E+00
  0.00000000E+00  0.00000000E+00  0.00000000E+00
  0.00000000E+00  0.00000000E+00  0.00000000E+00
  0.00000000E+00  0.00000000E+00  0.00000000E+00
  0.00000000E+00  0.00000000E+00  0.00000000E+00
  0.00000000E+00  0.00000000E+00  0.00000000E+00
  0.00000000E+00  0.00000000E+00  0.00000000E+00
  0.00000000E+00  0.00000000E+00  0.00000000E+00
  0.00000000E+00  0.00000000E+00  0.00000000E+00
  0.00000000E+00  0.00000000E+00  0.00000000E+00
  0.00000000E+00  0.00000000E+00  0.00000000E+00
  0.00000000E+00  0.00000000E+00  0.00000000E+00
  0.00000000E+00  0.00000000E+00  0.00000000E+00
  0.00000000E+00  0.00000000E+00  0.00000000E+00
  0.00000000E+00  0.00000000E+00  0.00000000E+00
  0.00000000E+00  0.00000000E+00  0.00000000E+00
  0.00000000E+00  0.00000000E+00  0.00000000E+00
  0.00000000E+00  0.00000000E+00  0.00000000E+00
  0.00000000E+00  0.00000000E+00  0.00000000E+00
  0.00000000E+00  0.00000000E+00  0.00000000E+00
  0.00000000E+00  0.00000000E+00  0.00000000E+00
  0.00000000E+00  0.00000000E+00  0.00000000E+00
  0.00000000E+00  0.00000000E+00  0.00000000E+00
  0.00000000E+00  0.00000000E+00  0.00000000E+00
  0.00000000E+00  0.00000000E+00  0.00000000E+00
  0.00000000E+00  0.00000000E+00  0.00000000E+00
  0.00000000E+00  0.00000000E+00  0.00000000E+00
  0.00000000E+00  0.00000000E+00  0.00000000E+00
  0.00000000E+00  0.00000000E+00  0.00000000E+00
  0.00000000E+00  0.00000000E+00  0.00000000E+00
  0.00000000E+00  0.00000000E+00  0.00000000E+00
  0.00000000E+00  0.00000000E+00  0.00000000E+00
  0.00000000E+00  0.00000000E+00  0.00000000E+00
  0.00000000E+00  0.00000000E+00  0.00000000E+00
  0.00000000E+00  0.00000000E+00  0.00000000E+00
  0.00000000E+00  0.00000000E+00  0.00000000E+00
  0.00000000E+00  0.00000000E+00  0.00000000E+00
  0.00000000E+00  0.00000000E+00  0.00000000E+00
  0.00000000E+00  0.00000000E+00  0.00000000E+00
  0.00000000E+00  0.00000000E+00  0.00000000E+00
  0.00000000E+00  0.00000000E+00  0.00000000E+00
  0.00000000E+00  0.00000000E+00  0.00000000E+00
  0.00000000E+00  0.00000000E+00  0.00000000E+00
  0.00000000E+00  0.00000000E+00  0.00000000E+00
  0.00000000E+00  0.00000000E+00  0.00000000E+00
  0.00000000E+00  0.00000000E+00  0.00000000E+00
  0.00000000E+00  0.00000000E+00  0.00000000E+00
  0.00000000E+00  0.00000000E+00  0.00000000E+00
  0.00000000E+00  0.00000000E+00  0.00000000E+00
  0.00000000E+00  0.00000000E+00  0.00000000E+00
  0.00000000E+00  0.00000000E+00  0.00000000E+00
  0.00000000E+00  0.00000000E+00  0.00000000E+00
  0.00000000E+00  0.00000000E+00  0.00000000E+00
  0.00000000E+00  0.00000000E+00  0.00000000E+00
  0.00000000E+00  0.00000000E+00  0.00000000E+00
  0.00000000E+00  0.00000000E+00  0.00000000E+00
  0.00000000E+00  0.00000000E+00  0.00000000E+00
  0.00000000E+00  0.00000000E+00  0.00000000E+00
  0.00000000E+00  0.00000000E+00  0.00000000E+00
  0.00000000E+00  0.00000000E+00  0.00000000E+00
  0.00000000E+00  0.00000000E+00  0.00000000E+00
  0.00000000E+00  0.00000000E+00  0.00000000E+00
  0.00000000E+00  0.00000000E+00  0.00000000E+00
  0.00000000E+00  0.00000000E+00  0.00000000E+00
  0.00000000E+00  0.00000000E+00  0.00000000E+00
  0.00000000E+00  0.00000000E+00  0.00000000E+00
  0.00000000E+00  0.00000000E+00  0.00000000E+00
  0.00000000E+00  0.00000000E+00  0.00000000E+00
  0.00000000E+00  0.00000000E+00  0.00000000E+00
  0.00000000E+00  0.00000000E+00  0.00000000E+00
  0.00000000E+00  0.00000000E+00  0.00000000E+00
  0.00000000E+00  0.00000000E+00  0.00000000E+00
  0.00000000E+00  0.00000000E+00  0.00000000E+00
  0.00000000E+00  0.00000000E+00  0.00000000E+00
  0.00000000E+00  0.00000000E+00  0.00000000E+00
  0.00000000E+00  0.00000000E+00  0.00000000E+00
  0.00000000E+00  0.00000000E+00  0.00000000E+00
  0.00000000E+00  0.00000000E+00  0.00000000E+00
  0.00000000E+00  0.00000000E+00  0.00000000E+00
  0.00000000E+00  0.00000000E+00  0.00000000E+00
  0.00000000E+00  0.00000000E+00  0.00000000E+00
  0.00000000E+00  0.00000000E+00  0.00000000E+00
  0.00000000E+00  0.00000000E+00  0.00000000E+00
  0.00000000E+00  0.00000000E+00  0.00000000E+00
  0.00000000E+00  0.00000000E+00  0.00000000E+00
  0.00000000E+00  0.00000000E+00  0.00000000E+00
  0.00000000E+00  0.00000000E+00  0.00000000E+00
  0.00000000E+00  0.00000000E+00  0.00000000E+00
  0.00000000E+00  0.00000000E+00  0.00000000E+00
  0.00000000E+00  0.00000000E+00  0.00000000E+00
  0.00000000E+00  0.00000000E+00  0.00000000E+00
  0.00000000E+00  0.00000000E+00  0.00000000E+00
  0.00000000E+00  0.00000000E+00  0.00000000E+00
  0.00000000E+00  0.00000000E+00  0.00000000E+00
  0.00000000E+00  0.00000000E+00  0.00000000E+00
  0.00000000E+00  0.00000000E+00  0.00000000E+00
  0.00000000E+00  0.00000000E+00  0.00000000E+00
  0.00000000E+00  0.00000000E+00  0.00000000E+00
  0.00000000E+00  0.00000000E+00  0.00000000E+00
  0.00000000E+00  0.00000000E+00  0.00000000E+00
  0.00000000E+00  0.00000000E+00  0.00000000E+00
  0.00000000E+00  0.00000000E+00  0.00000000E+00
  0.00000000E+00  0.00000000E+00  0.00000000E+00
  0.00000000E+00  0.00000000E+00  0.00000000E+00
  0.00000000E+00  0.00000000E+00  0.00000000E+00
  0.00000000E+00  0.00000000E+00  0.00000000E+00
  0.00000000E+00  0.00000000E+00  0.00000000E+00
  0.00000000E+00  0.00000000E+00  0.00000000E+00
  0.00000000E+00  0.00000000E+00  0.00000000E+00
  0.00000000E+00  0.00000000E+00  0.00000000E+00
  0.00000000E+00  0.00000000E+00  0.00000000E+00
  0.00000000E+00  0.00000000E+00  0.00000000E+00
  0.00000000E+00  0.00000000E+00  0.00000000E+00
  0.00000000E+00  0.00000000E+00  0.00000000E+00
  0.00000000E+00  0.00000000E+00  0.00000000E+00
  0.00000000E+00  0.00000000E+00  0.00000000E+00
  0.00000000E+00  0.00000000E+00  0.00000000E+00
  0.00000000E+00  0.00000000E+00  0.00000000E+00
  0.00000000E+00  0.00000000E+00  0.00000000E+00
  0.00000000E+00  0.00000000E+00  0.00000000E+00
  0.00000000E+00  0.00000000E+00  0.00000000E+00
  0.00000000E+00  0.00000000E+00  0.00000000E+00
  0.00000000E+00  0.00000000E+00  0.00000000E+00
  0.00000000E+00  0.00000000E+00  0.00000000E+00
