Generated by VASPKIT code               
   1.00000000000000     
    19.2054103200579398   -0.1375087176235904    0.0000000000000000
    -9.7216815978581188   17.0594624920624618    0.0000000000000000
     0.0000000000000014    0.0000000000000025   21.9379081342872908
  C             
   228
Direct
  0.8665905314450213  0.9132894360624508  0.3799846970831869
  0.4789137079787101  0.3372353223722428  0.5267090870858425
  0.8214605661087632  0.9399383063070078  0.4154074505794078
  0.5441522971659725  0.4167601007446506  0.5281856848360281
  0.7827539453632416  0.8855757513474107  0.4697664098053788
  0.5869384012086063  0.4321646171140151  0.5851544138643058
  0.8685492762469599  0.8505018847163701  0.4131262606037960
  0.4833281203493583  0.3009647989437457  0.5831909918942796
  0.8279474394988879  0.8400464598031315  0.4695991160545478
  0.5502439300014902  0.3597449378502986  0.6194024179138105
  0.9344953643766786  0.8385802558750448  0.4097996345038725
  0.4690725243824437  0.2242852773266724  0.5813118270134016
  0.0043402979620612  0.8938188238001286  0.3750403122485121
  0.4499673974712354  0.1833946078743132  0.5232048025613848
  0.9337309414202190  0.9654930016622096  0.3454873238581158
  0.4583185752031069  0.2969876982348545  0.4708011061880079
  0.0041717390578635  0.9560482414028950  0.3437823984271640
  0.4431233979776914  0.2174001013398380  0.4690349926246138
  0.9606172716439114  0.0485342926799271  0.3482562769367843
  0.5006512309434319  0.3357169700252813  0.4148995442399779
  0.8480331117188186  0.0195762618855322  0.4188164903168208
  0.5855871765689472  0.4524262576915647  0.4749184806871106
  0.9186581709711354  0.0747398190719440  0.3848207175825983
  0.5633604146911774  0.4133439927570770  0.4170350407542655
  0.8479978467254563  0.0567771696298285  0.4773170922635799
  0.6703586061991409  0.5068567526798472  0.4757310345122948
  0.7984911039513687  0.9301091615918722  0.5288945077248177
  0.6698214460776096  0.4838548910506600  0.5863719565312328
  0.8236938050532249  0.0100914126340294  0.5315253822993589
  0.7122495370070870  0.5224044085293614  0.5305175226056088
  0.8262018424301941  0.9085477484686011  0.5830345955695582
  0.7206958392878887  0.4639639136060270  0.6214618287045872
  0.8521562146054310  0.8187835018193286  0.5218759564324369
  0.5995451220923925  0.3399149029929427  0.6529575038995442
  0.8514583768155434  0.8534032845506471  0.5806446319992529
  0.6860389459851686  0.3926289266066703  0.6537844822788573
  0.9612172478887316  0.8175174272515459  0.4645744099756247
  0.5207666628034080  0.2036639191151538  0.6156842850213659
  0.9205618817101465  0.8076435484082118  0.5200364910307653
  0.5843670991985469  0.2596395379014352  0.6511339114340707
  0.0747889563607118  0.9074924027575542  0.4090363455356903
  0.4910030410939811  0.1394381677751151  0.5219595660196648
  0.0477733710658076  0.8606416761605313  0.4643037590983081
  0.5334906564395607  0.1502572030223272  0.5786816196901763
  0.1425004234002139  0.9827189784883944  0.4106867311486418
  0.5229176891200218  0.1304950802643366  0.4678107003302251
  0.0746522953986822  0.0338650239940640  0.3454941025361946
  0.4760382355153454  0.2073087903444514  0.4121121537198075
  0.0474680598645187  0.0907867166531924  0.3483997377900465
  0.5112741704375240  0.2803334860482801  0.3782757683355509
  0.1428183204178257  0.0471650781446198  0.3784725832468426
  0.5151021385317178  0.1637401401061595  0.4115463595291235
  0.0889924981417247  0.1576814960193108  0.3853600608434475
  0.5827962633844980  0.3056228628262591  0.3449869300093634
  0.9624807424170565  0.1442222685805547  0.4217449886696760
  0.6362580035469592  0.4410754009970050  0.3818969074159674
  0.9172959821494577  0.1316035337136587  0.4788080744643488
  0.7025933241257254  0.4997585106466811  0.4182843791856486
  0.0458840801618412  0.1851732924136084  0.4211172603408173
  0.6462468249339219  0.3875969276462864  0.3464505824526001
  0.9615270619856543  0.1589471863837250  0.5340085138324244
  0.7771997300335300  0.5044506212105954  0.4179281602047464
  0.8669712055800908  0.0406663183865772  0.5894676514395463
  0.7895022586503415  0.5275212579956674  0.5306964804004077
  0.8678359586616716  0.9767149515154052  0.6216194701459702
  0.7942928582172480  0.4903340392064967  0.5867519368053618
  0.9346354411840344  0.1143624086506921  0.5908192546746643
  0.8202339649298839  0.5173579394243187  0.4753125551422698
  0.9356483786619437  0.9888591799412507  0.6547940433821019
  0.8288648187984684  0.4428148212379497  0.5852798143754067
  0.9204822054622999  0.8649314502378863  0.6145860940187916
  0.7238418662911301  0.3444367670595466  0.6527016409597082
  0.9635207892255985  0.8369426479463929  0.5770469108681611
  0.6611987334501046  0.2622368354478378  0.6510491874013198
  0.9628083714819153  0.9322106238334370  0.6511478372196922
  0.7941989025628582  0.3694618766548128  0.6189379788963729
  0.0889108964252746  0.8914973580481171  0.5191299182110714
  0.6062868371507431  0.1507256363104307  0.5791979702176189
  0.0473167804397829  0.8784448207758124  0.5767624905175288
  0.6718294687868364  0.2082636119751557  0.6158644902159683
  0.1857008168321181  0.0137011824129486  0.4675042554314492
  0.5978918444851867  0.1305073538332404  0.4675775231127546
  0.1581240840564350  0.9690380196097201  0.5205595029721772
  0.6391654708751284  0.1407216110945682  0.5223265081929319
  0.1870769462091815  0.1175271274991823  0.4154716747237750
  0.5876472337295305  0.1878991994806968  0.3766169914428216
  0.1601332755455518  0.1719258159438367  0.4193526690430081
  0.6214269307728975  0.2583232311347169  0.3438584203707400
  0.2141463965239510  0.0969730622535602  0.4700997883579963
  0.6386819779596998  0.1667678764960963  0.4113077680428269
  0.0949360297033025  0.2283588846699983  0.4772303012835849
  0.7235729443788153  0.3908769268204910  0.3465016294369936
  0.0447112204424607  0.1953763625074224  0.5332003778835750
  0.7873115685416111  0.4479833776777269  0.3816743537060119
  0.1622715047437934  0.2088604232182183  0.4762419087793253
  0.7081934974640234  0.3107942341682124  0.3449172710386904
  0.0053386016966283  0.1277852000536460  0.6247620081605323
  0.8555483514053772  0.4680487447432440  0.4742989816580603
  0.0064374933503571  0.0666541954775869  0.6563169756215324
  0.8579842360404213  0.4310483816132645  0.5278913523934842
  0.0742107955959535  0.1796834236655894  0.5881363968969761
  0.8361515581390542  0.4258086266666974  0.4167942609606070
  0.0501549222173997  0.9748976422033079  0.6503653880096532
  0.8038753721687069  0.3132798496334216  0.5823481200077754
  0.0917480539216048  0.9481515618779985  0.6141487601426575
  0.7451992987183360  0.2339300415080926  0.5811832922126209
  0.1605523573715930  0.0041749136997703  0.5789710860350158
  0.7250746890990863  0.1917709134149667  0.5234027748013076
  0.0773356242540101  0.0582047437962796  0.6533148685384881
  0.8424333936583202  0.3514912483228076  0.5261804400507127
  0.2138950448394021  0.1312395524593712  0.5262301473572026
  0.7218544508643441  0.2161980362903606  0.4121015285825695
  0.1872462864673309  0.1879475120783687  0.5289280672733597
  0.7569756674489935  0.2900525188651615  0.3785260251448782
  0.1440808928882746  0.1752402221740731  0.5869173729349876
  0.8213742189800218  0.3487365806169286  0.4151409630440686
  0.1880768719727502  0.0846190896357762  0.5817466733887527
  0.7651366294365128  0.2290702508593404  0.4691980017734915
  0.1451049210838103  0.1120658355055613  0.6194867815133945
  0.8258008724182109  0.3111633159712275  0.4710764095185005
  0.0953479360253818  0.5179135179580826  0.6275821440532653
  0.4991101394620504  0.5770918965667888  0.6030224598919183
  0.4222803651557947  0.8960765568865826  0.6203857792635722
  0.0467749025952301  0.4348089394212769  0.6316247227012804
  0.5841359555694418  0.6193603637235884  0.6060259498644557
  0.3790573646696429  0.9368852290674168  0.6219840996147687
  0.9935157949870032  0.4084875227890105  0.5776525929557029
  0.6139260588844820  0.6010463263433471  0.5501019705397315
  0.4026042608981471  0.9890093953124579  0.5679692832874884
  0.0700159250376453  0.5418865818523176  0.5718952551729054
  0.4758305096126998  0.5307716217978957  0.5454534434702252
  0.4742377876122966  0.9252555265272270  0.5658665962801044
  0.0064274998764072  0.4743622927983456  0.5423256336993868
  0.5464192682910877  0.5473276907995945  0.5136043365076916
  0.4618412714545269  0.9821350955894301  0.5346278040076828
  0.1365659144062969  0.5928697003727823  0.5379816245276148
  0.4186908341325422  0.5421644752006047  0.5128190457343559
  0.4673426460190625  0.8625182818927764  0.5325979245031166
  0.1804135305342189  0.5572820489067828  0.6283047985759441
  0.4570194315589752  0.6191830568584532  0.6055509310365148
  0.3831763004123671  0.8124681360372855  0.6204655447053785
  0.2141083884120862  0.6158134112010745  0.5731820708635448
  0.4120137249965991  0.5999934630304705  0.5483809512095538
  0.4170457140672886  0.7851384006300681  0.5670641335391782
  0.2146870243020321  0.5077353405431051  0.6283329877991809
  0.4956987388266565  0.7024017083541360  0.6137167376530781
  0.2979648692569900  0.7698947687859045  0.6210679511839413
  0.0842910650504838  0.3883946908053778  0.6337490969872641
  0.6246476883863326  0.7021466053499595  0.6123797838863332
  0.2938846630755228  0.8939233353250856  0.6228448050595539
  0.1690455614411083  0.4246528116567692  0.6336520538127595
  0.5803398874333492  0.7422452887253548  0.6151491848671415
  0.2546194121706109  0.8110379563366658  0.6218003519507285
  0.9983001684763698  0.3461745962160561  0.5476543087903100
  0.6734836570488378  0.6710525629085092  0.5223497238877832
  0.3328063080952533  0.9798164082846651  0.5369011429294279
  0.0550033665258828  0.3348216793244519  0.5809511425245955
  0.6799067607541458  0.7346578957713109  0.5598303846500907
  0.2654117691239495  0.9200108596412349  0.5697750382661848
  0.9981007654149268  0.3428518356914459  0.4819981321633310
  0.6770213073298292  0.6785833286863451  0.4573483325391108
  0.3311861984252662  0.9802195948243394  0.4712978150312925
  0.0056204276325237  0.4710371927743075  0.4768179619972845
  0.5504593630046684  0.5538129231064912  0.4481009664101870
  0.4604172093541696  0.9832637822769269  0.4696844838108443
  0.9911574433174096  0.4017325424713896  0.4466238105865057
  0.6210638699717568  0.6144392046310058  0.4200644769636335
  0.3994853334329697  0.9900811171330616  0.4382405243606929
  0.1355661724720428  0.5898764998683950  0.4731892715337079
  0.4226997491962358  0.5490702590657324  0.4477257331466505
  0.4658675180557452  0.8644215988669721  0.4681334714767770
  0.0672840597910983  0.5350912518963611  0.4426213186985493
  0.4829447093979581  0.5446275245504508  0.4140912187067179
  0.4722052507216434  0.9275828344577310  0.4361180658045063
  0.2118353470443267  0.6108601741881532  0.4365860647689822
  0.4188905836539945  0.6142989984079695  0.4205241939139577
  0.4169140808354705  0.7894360865089325  0.4321079828672834
  0.2560915353498129  0.5806613395474578  0.5381431749702043
  0.4247927553515957  0.6694359578337198  0.5212939582558708
  0.3401742305314638  0.7394674802020529  0.5310613799469113
  0.2628342442280684  0.5239328950861150  0.5728047419107825
  0.4672318993118984  0.7401345503447013  0.5635711669515432
  0.2644803756895724  0.7088560509206574  0.5693710488076004
  0.2551207653167878  0.5784840282588926  0.4747144420284630
  0.4297356006034966  0.6754828095851712  0.4579473806649985
  0.3402163396234110  0.7396084815140552  0.4695068379475789
  0.1907195357711099  0.3914342891446745  0.5803668034617923
  0.6101772619289390  0.7991422765913249  0.5640466979158443
  0.2000909064735230  0.7860095208636760  0.5685175051637824
  0.1207267402123741  0.3368104751281165  0.5497415535292693
  0.6715081943215727  0.7936241968342709  0.5322201807012744
  0.2069947206419778  0.8533028038361187  0.5371641331778054
  0.2507530764393056  0.4536235754479578  0.5446603665193691
  0.5468873412760868  0.7954596981233538  0.5316530731778547
  0.2108237810101881  0.7325439696599435  0.5351371677337425
  0.0513341724048211  0.3267600776998608  0.4508338632030323
  0.6872981311460630  0.7482920699445726  0.4297334741646323
  0.2625087054907084  0.9202438209686920  0.4390358191089340
  0.1172886417413727  0.3175224423098690  0.4814281635632009
  0.6910257081838375  0.8161288508545255  0.4658055792741381
  0.2056101488565011  0.8531654809747320  0.4715677850160659
  0.0412913421623701  0.4213080770638757  0.3919306437673616
  0.5979671323586269  0.6459388814513892  0.3682181302720627
  0.3742350986601361  0.9390182499573205  0.3837280547071403
  0.0902232185631472  0.5049991275587006  0.3893466481327869
  0.5134097185461686  0.6043918987239485  0.3642343157343368
  0.4178754529035118  0.8988235650117520  0.3826663729112644
  0.1749012214441568  0.5441488405751510  0.3864766811410518
  0.4723815035887970  0.6477570721110461  0.3684570819545371
  0.3790810510786979  0.8153924050828207  0.3816151197020447
  0.0795169330640760  0.3753119354874819  0.3960941187394449
  0.6390587785904295  0.7298276377222037  0.3756019450671869
  0.2891540472920975  0.8950338027320348  0.3842963401286142
  0.2588989146745633  0.5175446836581730  0.4450717234206633
  0.4752079503522614  0.7536202921973527  0.4271118395109307
  0.2621894507457879  0.7073922652632271  0.4342039654479476
  0.2471662562912319  0.4487960742743606  0.4790548616561280
  0.5518437684083366  0.8021148240341104  0.4662219361002419
  0.2099822333842211  0.7321737329666407  0.4702946435235981
  0.1890308583420134  0.3832166462327220  0.4478667283501879
  0.6203265849332199  0.8179119689676628  0.4350588077212746
  0.1981020578883279  0.7861847652077677  0.4387488708192367
  0.2107713751932226  0.4952531841195660  0.3899971146592196
  0.5106065520612824  0.7317923512396599  0.3713359035627787
  0.2936129020117976  0.7704567384074784  0.3823963318612512
  0.1639495855256235  0.4115056768045675  0.3941081867131803
  0.5950616230913787  0.7705223766380196  0.3786466089376969
  0.2503463648754460  0.8118907933154235  0.3843111885632721
 
  0.00000000E+00  0.00000000E+00  0.00000000E+00
  0.00000000E+00  0.00000000E+00  0.00000000E+00
  0.00000000E+00  0.00000000E+00  0.00000000E+00
  0.00000000E+00  0.00000000E+00  0.00000000E+00
  0.00000000E+00  0.00000000E+00  0.00000000E+00
  0.00000000E+00  0.00000000E+00  0.00000000E+00
  0.00000000E+00  0.00000000E+00  0.00000000E+00
  0.00000000E+00  0.00000000E+00  0.00000000E+00
  0.00000000E+00  0.00000000E+00  0.00000000E+00
  0.00000000E+00  0.00000000E+00  0.00000000E+00
  0.00000000E+00  0.00000000E+00  0.00000000E+00
  0.00000000E+00  0.00000000E+00  0.00000000E+00
  0.00000000E+00  0.00000000E+00  0.00000000E+00
  0.00000000E+00  0.00000000E+00  0.00000000E+00
  0.00000000E+00  0.00000000E+00  0.00000000E+00
  0.00000000E+00  0.00000000E+00  0.00000000E+00
  0.00000000E+00  0.00000000E+00  0.00000000E+00
  0.00000000E+00  0.00000000E+00  0.00000000E+00
  0.00000000E+00  0.00000000E+00  0.00000000E+00
  0.00000000E+00  0.00000000E+00  0.00000000E+00
  0.00000000E+00  0.00000000E+00  0.00000000E+00
  0.00000000E+00  0.00000000E+00  0.00000000E+00
  0.00000000E+00  0.00000000E+00  0.00000000E+00
  0.00000000E+00  0.00000000E+00  0.00000000E+00
  0.00000000E+00  0.00000000E+00  0.00000000E+00
  0.00000000E+00  0.00000000E+00  0.00000000E+00
  0.00000000E+00  0.00000000E+00  0.00000000E+00
  0.00000000E+00  0.00000000E+00  0.00000000E+00
  0.00000000E+00  0.00000000E+00  0.00000000E+00
  0.00000000E+00  0.00000000E+00  0.00000000E+00
  0.00000000E+00  0.00000000E+00  0.00000000E+00
  0.00000000E+00  0.00000000E+00  0.00000000E+00
  0.00000000E+00  0.00000000E+00  0.00000000E+00
  0.00000000E+00  0.00000000E+00  0.00000000E+00
  0.00000000E+00  0.00000000E+00  0.00000000E+00
  0.00000000E+00  0.00000000E+00  0.00000000E+00
  0.00000000E+00  0.00000000E+00  0.00000000E+00
  0.00000000E+00  0.00000000E+00  0.00000000E+00
  0.00000000E+00  0.00000000E+00  0.00000000E+00
  0.00000000E+00  0.00000000E+00  0.00000000E+00
  0.00000000E+00  0.00000000E+00  0.00000000E+00
  0.00000000E+00  0.00000000E+00  0.00000000E+00
  0.00000000E+00  0.00000000E+00  0.00000000E+00
  0.00000000E+00  0.00000000E+00  0.00000000E+00
  0.00000000E+00  0.00000000E+00  0.00000000E+00
  0.00000000E+00  0.00000000E+00  0.00000000E+00
  0.00000000E+00  0.00000000E+00  0.00000000E+00
  0.00000000E+00  0.00000000E+00  0.00000000E+00
  0.00000000E+00  0.00000000E+00  0.00000000E+00
  0.00000000E+00  0.00000000E+00  0.00000000E+00
  0.00000000E+00  0.00000000E+00  0.00000000E+00
  0.00000000E+00  0.00000000E+00  0.00000000E+00
  0.00000000E+00  0.00000000E+00  0.00000000E+00
  0.00000000E+00  0.00000000E+00  0.00000000E+00
  0.00000000E+00  0.00000000E+00  0.00000000E+00
  0.00000000E+00  0.00000000E+00  0.00000000E+00
  0.00000000E+00  0.00000000E+00  0.00000000E+00
  0.00000000E+00  0.00000000E+00  0.00000000E+00
  0.00000000E+00  0.00000000E+00  0.00000000E+00
  0.00000000E+00  0.00000000E+00  0.00000000E+00
  0.00000000E+00  0.00000000E+00  0.00000000E+00
  0.00000000E+00  0.00000000E+00  0.00000000E+00
  0.00000000E+00  0.00000000E+00  0.00000000E+00
  0.00000000E+00  0.00000000E+00  0.00000000E+00
  0.00000000E+00  0.00000000E+00  0.00000000E+00
  0.00000000E+00  0.00000000E+00  0.00000000E+00
  0.00000000E+00  0.00000000E+00  0.00000000E+00
  0.00000000E+00  0.00000000E+00  0.00000000E+00
  0.00000000E+00  0.00000000E+00  0.00000000E+00
  0.00000000E+00  0.00000000E+00  0.00000000E+00
  0.00000000E+00  0.00000000E+00  0.00000000E+00
  0.00000000E+00  0.00000000E+00  0.00000000E+00
  0.00000000E+00  0.00000000E+00  0.00000000E+00
  0.00000000E+00  0.00000000E+00  0.00000000E+00
  0.00000000E+00  0.00000000E+00  0.00000000E+00
  0.00000000E+00  0.00000000E+00  0.00000000E+00
  0.00000000E+00  0.00000000E+00  0.00000000E+00
  0.00000000E+00  0.00000000E+00  0.00000000E+00
  0.00000000E+00  0.00000000E+00  0.00000000E+00
  0.00000000E+00  0.00000000E+00  0.00000000E+00
  0.00000000E+00  0.00000000E+00  0.00000000E+00
  0.00000000E+00  0.00000000E+00  0.00000000E+00
  0.00000000E+00  0.00000000E+00  0.00000000E+00
  0.00000000E+00  0.00000000E+00  0.00000000E+00
  0.00000000E+00  0.00000000E+00  0.00000000E+00
  0.00000000E+00  0.00000000E+00  0.00000000E+00
  0.00000000E+00  0.00000000E+00  0.00000000E+00
  0.00000000E+00  0.00000000E+00  0.00000000E+00
  0.00000000E+00  0.00000000E+00  0.00000000E+00
  0.00000000E+00  0.00000000E+00  0.00000000E+00
  0.00000000E+00  0.00000000E+00  0.00000000E+00
  0.00000000E+00  0.00000000E+00  0.00000000E+00
  0.00000000E+00  0.00000000E+00  0.00000000E+00
  0.00000000E+00  0.00000000E+00  0.00000000E+00
  0.00000000E+00  0.00000000E+00  0.00000000E+00
  0.00000000E+00  0.00000000E+00  0.00000000E+00
  0.00000000E+00  0.00000000E+00  0.00000000E+00
  0.00000000E+00  0.00000000E+00  0.00000000E+00
  0.00000000E+00  0.00000000E+00  0.00000000E+00
  0.00000000E+00  0.00000000E+00  0.00000000E+00
  0.00000000E+00  0.00000000E+00  0.00000000E+00
  0.00000000E+00  0.00000000E+00  0.00000000E+00
  0.00000000E+00  0.00000000E+00  0.00000000E+00
  0.00000000E+00  0.00000000E+00  0.00000000E+00
  0.00000000E+00  0.00000000E+00  0.00000000E+00
  0.00000000E+00  0.00000000E+00  0.00000000E+00
  0.00000000E+00  0.00000000E+00  0.00000000E+00
  0.00000000E+00  0.00000000E+00  0.00000000E+00
  0.00000000E+00  0.00000000E+00  0.00000000E+00
  0.00000000E+00  0.00000000E+00  0.00000000E+00
  0.00000000E+00  0.00000000E+00  0.00000000E+00
  0.00000000E+00  0.00000000E+00  0.00000000E+00
  0.00000000E+00  0.00000000E+00  0.00000000E+00
  0.00000000E+00  0.00000000E+00  0.00000000E+00
  0.00000000E+00  0.00000000E+00  0.00000000E+00
  0.00000000E+00  0.00000000E+00  0.00000000E+00
  0.00000000E+00  0.00000000E+00  0.00000000E+00
  0.00000000E+00  0.00000000E+00  0.00000000E+00
  0.00000000E+00  0.00000000E+00  0.00000000E+00
  0.00000000E+00  0.00000000E+00  0.00000000E+00
  0.00000000E+00  0.00000000E+00  0.00000000E+00
  0.00000000E+00  0.00000000E+00  0.00000000E+00
  0.00000000E+00  0.00000000E+00  0.00000000E+00
  0.00000000E+00  0.00000000E+00  0.00000000E+00
  0.00000000E+00  0.00000000E+00  0.00000000E+00
  0.00000000E+00  0.00000000E+00  0.00000000E+00
  0.00000000E+00  0.00000000E+00  0.00000000E+00
  0.00000000E+00  0.00000000E+00  0.00000000E+00
  0.00000000E+00  0.00000000E+00  0.00000000E+00
  0.00000000E+00  0.00000000E+00  0.00000000E+00
  0.00000000E+00  0.00000000E+00  0.00000000E+00
  0.00000000E+00  0.00000000E+00  0.00000000E+00
  0.00000000E+00  0.00000000E+00  0.00000000E+00
  0.00000000E+00  0.00000000E+00  0.00000000E+00
  0.00000000E+00  0.00000000E+00  0.00000000E+00
  0.00000000E+00  0.00000000E+00  0.00000000E+00
  0.00000000E+00  0.00000000E+00  0.00000000E+00
  0.00000000E+00  0.00000000E+00  0.00000000E+00
  0.00000000E+00  0.00000000E+00  0.00000000E+00
  0.00000000E+00  0.00000000E+00  0.00000000E+00
  0.00000000E+00  0.00000000E+00  0.00000000E+00
  0.00000000E+00  0.00000000E+00  0.00000000E+00
  0.00000000E+00  0.00000000E+00  0.00000000E+00
  0.00000000E+00  0.00000000E+00  0.00000000E+00
  0.00000000E+00  0.00000000E+00  0.00000000E+00
  0.00000000E+00  0.00000000E+00  0.00000000E+00
  0.00000000E+00  0.00000000E+00  0.00000000E+00
  0.00000000E+00  0.00000000E+00  0.00000000E+00
  0.00000000E+00  0.00000000E+00  0.00000000E+00
  0.00000000E+00  0.00000000E+00  0.00000000E+00
  0.00000000E+00  0.00000000E+00  0.00000000E+00
  0.00000000E+00  0.00000000E+00  0.00000000E+00
  0.00000000E+00  0.00000000E+00  0.00000000E+00
  0.00000000E+00  0.00000000E+00  0.00000000E+00
  0.00000000E+00  0.00000000E+00  0.00000000E+00
  0.00000000E+00  0.00000000E+00  0.00000000E+00
  0.00000000E+00  0.00000000E+00  0.00000000E+00
  0.00000000E+00  0.00000000E+00  0.00000000E+00
  0.00000000E+00  0.00000000E+00  0.00000000E+00
  0.00000000E+00  0.00000000E+00  0.00000000E+00
  0.00000000E+00  0.00000000E+00  0.00000000E+00
  0.00000000E+00  0.00000000E+00  0.00000000E+00
  0.00000000E+00  0.00000000E+00  0.00000000E+00
  0.00000000E+00  0.00000000E+00  0.00000000E+00
  0.00000000E+00  0.00000000E+00  0.00000000E+00
  0.00000000E+00  0.00000000E+00  0.00000000E+00
  0.00000000E+00  0.00000000E+00  0.00000000E+00
  0.00000000E+00  0.00000000E+00  0.00000000E+00
  0.00000000E+00  0.00000000E+00  0.00000000E+00
  0.00000000E+00  0.00000000E+00  0.00000000E+00
  0.00000000E+00  0.00000000E+00  0.00000000E+00
  0.00000000E+00  0.00000000E+00  0.00000000E+00
  0.00000000E+00  0.00000000E+00  0.00000000E+00
  0.00000000E+00  0.00000000E+00  0.00000000E+00
  0.00000000E+00  0.00000000E+00  0.00000000E+00
  0.00000000E+00  0.00000000E+00  0.00000000E+00
  0.00000000E+00  0.00000000E+00  0.00000000E+00
  0.00000000E+00  0.00000000E+00  0.00000000E+00
  0.00000000E+00  0.00000000E+00  0.00000000E+00
  0.00000000E+00  0.00000000E+00  0.00000000E+00
  0.00000000E+00  0.00000000E+00  0.00000000E+00
  0.00000000E+00  0.00000000E+00  0.00000000E+00
  0.00000000E+00  0.00000000E+00  0.00000000E+00
  0.00000000E+00  0.00000000E+00  0.00000000E+00
  0.00000000E+00  0.00000000E+00  0.00000000E+00
  0.00000000E+00  0.00000000E+00  0.00000000E+00
  0.00000000E+00  0.00000000E+00  0.00000000E+00
  0.00000000E+00  0.00000000E+00  0.00000000E+00
  0.00000000E+00  0.00000000E+00  0.00000000E+00
  0.00000000E+00  0.00000000E+00  0.00000000E+00
  0.00000000E+00  0.00000000E+00  0.00000000E+00
  0.00000000E+00  0.00000000E+00  0.00000000E+00
  0.00000000E+00  0.00000000E+00  0.00000000E+00
  0.00000000E+00  0.00000000E+00  0.00000000E+00
  0.00000000E+00  0.00000000E+00  0.00000000E+00
  0.00000000E+00  0.00000000E+00  0.00000000E+00
  0.00000000E+00  0.00000000E+00  0.00000000E+00
  0.00000000E+00  0.00000000E+00  0.00000000E+00
  0.00000000E+00  0.00000000E+00  0.00000000E+00
  0.00000000E+00  0.00000000E+00  0.00000000E+00
  0.00000000E+00  0.00000000E+00  0.00000000E+00
  0.00000000E+00  0.00000000E+00  0.00000000E+00
  0.00000000E+00  0.00000000E+00  0.00000000E+00
  0.00000000E+00  0.00000000E+00  0.00000000E+00
  0.00000000E+00  0.00000000E+00  0.00000000E+00
  0.00000000E+00  0.00000000E+00  0.00000000E+00
  0.00000000E+00  0.00000000E+00  0.00000000E+00
  0.00000000E+00  0.00000000E+00  0.00000000E+00
  0.00000000E+00  0.00000000E+00  0.00000000E+00
  0.00000000E+00  0.00000000E+00  0.00000000E+00
  0.00000000E+00  0.00000000E+00  0.00000000E+00
  0.00000000E+00  0.00000000E+00  0.00000000E+00
  0.00000000E+00  0.00000000E+00  0.00000000E+00
  0.00000000E+00  0.00000000E+00  0.00000000E+00
  0.00000000E+00  0.00000000E+00  0.00000000E+00
  0.00000000E+00  0.00000000E+00  0.00000000E+00
  0.00000000E+00  0.00000000E+00  0.00000000E+00
  0.00000000E+00  0.00000000E+00  0.00000000E+00
  0.00000000E+00  0.00000000E+00  0.00000000E+00
  0.00000000E+00  0.00000000E+00  0.00000000E+00
  0.00000000E+00  0.00000000E+00  0.00000000E+00
  0.00000000E+00  0.00000000E+00  0.00000000E+00
  0.00000000E+00  0.00000000E+00  0.00000000E+00
  0.00000000E+00  0.00000000E+00  0.00000000E+00
  0.00000000E+00  0.00000000E+00  0.00000000E+00
  0.00000000E+00  0.00000000E+00  0.00000000E+00
  0.00000000E+00  0.00000000E+00  0.00000000E+00
  0.00000000E+00  0.00000000E+00  0.00000000E+00
