Generated by VASPKIT code               
   1.00000000000000     
    17.2114158603655731   -0.0663922883474229    0.0000000000000000
    -8.6632881393317458   14.9221573993448278    0.0000000000000000
     0.0000000000000014    0.0000000000000025   21.9325070743565931
  C             
   168
Direct
  0.0917307086179569  0.8719268755608939  0.5553449790352055
  0.0252530196957680  0.8533424269731236  0.6020795704847902
  0.0573051280200372  0.9328238378233363  0.6400234910143369
  0.1643894038537800  0.9623028827550092  0.5643015606253518
  0.1447612417681524  0.0001200738679937  0.6167994699797884
  0.2064358249881191  0.0145932285127943  0.5133244974418141
  0.1824257835935513  0.9799347210383557  0.4520547963403023
  0.0666002440398766  0.8400160791806770  0.4957945935454830
  0.1131440353254186  0.8927906030393891  0.4429318084009451
  0.9732242089007056  0.7891837467629308  0.4802254786896603
  0.9343535761312357  0.8032706732978787  0.5867382955704812
  0.9093002927645357  0.7718562257742061  0.5248583576497791
  0.8717305993976195  0.8293639416286068  0.6089113344222780
  0.9969184737832688  0.9586645241883218  0.6612640355836590
  0.9020415258980815  0.9056159406364976  0.6455887355728823
  0.0221449735235646  0.0527805205183182  0.6600744805559270
  0.1691661757883150  0.0905567598188645  0.6156131739381281
  0.1069082874295489  0.1174608056681232  0.6378750233521849
  0.2336062994584893  0.1074207328837751  0.5122808434683884
  0.2143554202904889  0.1443401678954599  0.5624354991255972
  0.1930261154236582  0.0513295678479948  0.4123381255346798
  0.2244383298052437  0.1299731386124457  0.4500447710159773
  0.1312544655794041  0.0333386171047948  0.3652957656127073
  0.0488428921924711  0.8735322334470629  0.3943443578816871
  0.9616176601427651  0.8081839581347415  0.4177833220888545
  0.0571023774856815  0.9423563154811793  0.3561875019039794
  0.8853667878650044  0.8117741726665929  0.4017729784535311
  0.8321940417161426  0.7771556206199742  0.5083388695454236
  0.8087597821162669  0.8129192084854875  0.5600722644481727
  0.8202383014662148  0.7963454639468370  0.4486111670302414
  0.7755533161524909  0.8700192634597131  0.5499590126096685
  0.8687375755461049  0.9666551053200837  0.6347082146377095
  0.9428900539395813  0.0576377709710106  0.6438137817978384
  0.8069672799160806  0.9486645891123492  0.5876655150322839
  0.9511522876412833  0.1264646627636581  0.6056572781883874
  0.1146247943731048  0.1882183513094799  0.5982274207838070
  0.1797542163095998  0.2036480292821302  0.5513904133253767
  0.0383765747165111  0.1918132035650005  0.5822181321555788
  0.1912300251912624  0.1870718975423638  0.4399319092792836
  0.1677981065890389  0.2228386569983883  0.4916635641613711
  0.0979498117687128  0.0943762475392643  0.3544175843754009
  0.1282614541535359  0.1706284326798221  0.3910939714645809
  0.9778471684894643  0.9472121089195357  0.3399254903201640
  0.8930810994595763  0.8825305029417922  0.3621222150040037
  0.0030740835569389  0.0413279861097078  0.3387395160158295
  0.7856385987226709  0.8556545951890345  0.4375651812668046
  0.7663880606193155  0.8925736712980087  0.4877208251496730
  0.8308239078937267  0.9094351112677660  0.3843849794904902
  0.8175738639312710  0.0200609026830557  0.5479477231164830
  0.8868531551807936  0.1072058432122565  0.5570699690705161
  0.7935644930934153  0.9854024377385532  0.4866783250126329
  0.0267708701274687  0.2108174213721463  0.5197763359707263
  0.0906942463984964  0.2281422817026341  0.4751433638377389
  0.0656399992594711  0.1967241544192606  0.4132646699839740
  0.9333944015836129  0.1599825496580441  0.5042067834075370
  0.9426880538447562  0.0671699225556172  0.3599783989531514
  0.8552323430997960  0.9998723448686305  0.3832005526614050
  0.8356061025988017  0.0376908270137419  0.4356997262763963
  0.9747415750399369  0.1466530393850800  0.3979215261062586
  0.9082656884417598  0.1280679600844063  0.4446565229907467
  0.5995593774766610  0.9059242413425755  0.5245779905849731
  0.1078468117955937  0.6937887262904763  0.5269486014020420
  0.3095854587444971  0.4299772133716657  0.5353309644580211
  0.5955279881646558  0.9070936699069660  0.4601304324527469
  0.1083533240950712  0.6904627895149199  0.4625112157187845
  0.3074503834518186  0.4282371149434776  0.4706860704449665
  0.4992173449982971  0.8602103473159031  0.4426682144808401
  0.1484436941886976  0.6353184027021500  0.4447071737673216
  0.3678929082664951  0.5212041501961091  0.4487455413119634
  0.5062589689744090  0.8585472997324186  0.5481034272472181
  0.1471390142401277  0.6410452805824081  0.5501757384211561
  0.3716704925344561  0.5240950086070110  0.5543034299971351
  0.4458272884212498  0.8295185169605805  0.4971358267883142
  0.1736275058020808  0.6074258540101112  0.4991051528634149
  0.4048155941207355  0.5790465933309623  0.5006974915984277
  0.4992711436943130  0.9114093178488548  0.5960400500072247
  0.0897578085006092  0.5818882293128891  0.5975094961633058
  0.4327103320120509  0.5249961568870942  0.5994377754580662
  0.6469402042866513  0.9873272351944768  0.5569235127857769
  0.0261553544647411  0.6646873911853473  0.5589477569621272
  0.3357498098126631  0.3759996562367922  0.5673274927432358
  0.5850812949669898  0.9919299063030131  0.6013515055179662
  0.0139441566573904  0.5942379173445268  0.6027782196366093
  0.4128668428165963  0.4343937386819923  0.6068095481737353
  0.6903726346185590  0.0697454395175064  0.5250925544140678
  0.9454682873095206  0.6304347515948505  0.5260480672351106
  0.3595982433429247  0.3201408833658541  0.5350943666450370
  0.6392833267405728  0.9894340368804071  0.4284567868173016
  0.0267767315641063  0.6569712222054083  0.4298285233078157
  0.3318398615733221  0.3728458824294105  0.4388066877166777
  0.6872791638780547  0.0711495735015569  0.4611020345536058
  0.9456371295392764  0.6268787994271315  0.4617336908958351
  0.3579038702921490  0.3189975843270606  0.4711267150551239
  0.4860687417532497  0.9144479197822929  0.3990364484494867
  0.0912076934863340  0.5704013468957271  0.4000821434310272
  0.4258666505045667  0.5194404509165939  0.4021895481644874
  0.5711811816220645  0.9953160358518587  0.3909473366119062
  0.0150589417071450  0.5815569534120890  0.3911276831942717
  0.4056536112584081  0.4285605796228263  0.3963976742457054
  0.4065529077667400  0.9210921088504442  0.4032666249345866
  0.0763005421126249  0.4808310783770098  0.4032229070097947
  0.5185001009836415  0.5892308399658500  0.4007479700135297
  0.3661121093224969  0.8358016188588544  0.5011410678884138
  0.1582686737228883  0.5179718935255787  0.5022790676894798
  0.4974887892682389  0.6489403544847817  0.4990211183838166
  0.3427581864422563  0.8725794222700782  0.4505717373591776
  0.1195069122552624  0.4597498812573529  0.4508046780161312
  0.5497369469750536  0.6588190439409861  0.4455041111999226
  0.4196337458237013  0.9179686030791623  0.5998942927299473
  0.0750137069050611  0.4925684397529393  0.6008292874411248
  0.5252924990538844  0.5947368121161752  0.5975265621562760
  0.3497506031028199  0.8710450188344866  0.5558767793001150
  0.1181284357206693  0.4659373735628028  0.5564501154550442
  0.5533046687005079  0.6617647635106696  0.5510492409505258
  0.4288302112765750  0.0046861366353627  0.6090498477812663
  0.9849531633121192  0.4184657069940330  0.6088616808388040
  0.5943483479033227  0.5714355810154940  0.6036061596950245
  0.5934571592270882  0.0789042600079904  0.5967334535178467
  0.9237186420395345  0.5191965157990934  0.5967643884540351
  0.4815006293839694  0.4107666743974217  0.5992432650775381
  0.6572631406577877  0.1274378329239692  0.5494408320163773
  0.8804938702262289  0.5402705841084503  0.5491956650588969
  0.4502630067392807  0.3411907147406292  0.5544826533872135
  0.5139485266442740  0.0855633351616653  0.6009766696301898
  0.9087970620015782  0.4296211460437638  0.5999231522990804
  0.5741339807209883  0.4805531245237081  0.5978038935889625
  0.6502726308176526  0.1289745374994455  0.4441219314708569
  0.8818700214599928  0.5340777653515528  0.4435438355130624
  0.4466940286959874  0.3382417399662107  0.4489499997866971
  0.5803752387025179  0.0820261189840294  0.4001225256674845
  0.9250084054749534  0.5074571559346611  0.3991785569552141
  0.4747105755406905  0.4052581695497394  0.4024666554445405
  0.6338922944951624  0.1641877748399305  0.4988656178806589
  0.8417593718819472  0.4820556295674990  0.4977173940796843
  0.5025162152843832  0.3510561987503249  0.5009704550018856
  0.4149296834739095  0.0080712410754094  0.3986651706521622
  0.9860689668717540  0.4057849807910923  0.3972264355685838
  0.5871329130209866  0.5656034470847668  0.3931712201509370
  0.5007445832297660  0.0886018677350381  0.4039583788083138
  0.9102465575104723  0.4181300650988488  0.4024754216714004
  0.5672917727712579  0.4750000316123897  0.4005542180277641
  0.3096164661412041  0.9302627724976374  0.4749167432674310
  0.0545435371156078  0.3695667822128070  0.4739471926360677
  0.6403833094867353  0.6798464898436845  0.4648974382464995
  0.3127106422607168  0.9288596935882817  0.5389067227439786
  0.0543774173065145  0.3731183893636416  0.5382685364224358
  0.6420786675826241  0.6809854625548575  0.5288682662912838
  0.3607029717892999  0.0105700744062438  0.5715519974506733
  0.9732327808913981  0.3430277654229312  0.5701751352053297
  0.6681452732039670  0.6271362638656437  0.5611901577995034
  0.3530427399193067  0.0126765367022306  0.4430823129629912
  0.9738507490842204  0.3353114482841840  0.4410448333591464
  0.6642334773288424  0.6239850326302712  0.4326598214369794
  0.5007821069960532  0.1397728186788099  0.5573328851949169
  0.8515799684451129  0.3647104350535167  0.5552852109369115
  0.6321135211935658  0.4787811099323246  0.5512511276287864
  0.5541897174354616  0.1704938929494940  0.5028724954720047
  0.8263632853373909  0.3925894184058760  0.5008921291077761
  0.5951909102030245  0.4209467138250049  0.4992934065832175
  0.4937430369985545  0.1414366396721298  0.4519113061529862
  0.8528850739173025  0.3589841199674143  0.4498245391045523
  0.6283379220439057  0.4758920347281121  0.4456820153129209
  0.4044581626206475  0.0929052432365384  0.5398749082053641
  0.8916510352374186  0.3095359797279708  0.5374888169670352
  0.6925341544986284  0.5717390650412318  0.5293083889938235
  0.4004283141234221  0.0940770155491876  0.4754311235915435
  0.8921555821735657  0.3062125395553810  0.4730482755220411
  0.6904009927684359  0.5700015210574239  0.4646582343705482
 
  0.00000000E+00  0.00000000E+00  0.00000000E+00
  0.00000000E+00  0.00000000E+00  0.00000000E+00
  0.00000000E+00  0.00000000E+00  0.00000000E+00
  0.00000000E+00  0.00000000E+00  0.00000000E+00
  0.00000000E+00  0.00000000E+00  0.00000000E+00
  0.00000000E+00  0.00000000E+00  0.00000000E+00
  0.00000000E+00  0.00000000E+00  0.00000000E+00
  0.00000000E+00  0.00000000E+00  0.00000000E+00
  0.00000000E+00  0.00000000E+00  0.00000000E+00
  0.00000000E+00  0.00000000E+00  0.00000000E+00
  0.00000000E+00  0.00000000E+00  0.00000000E+00
  0.00000000E+00  0.00000000E+00  0.00000000E+00
  0.00000000E+00  0.00000000E+00  0.00000000E+00
  0.00000000E+00  0.00000000E+00  0.00000000E+00
  0.00000000E+00  0.00000000E+00  0.00000000E+00
  0.00000000E+00  0.00000000E+00  0.00000000E+00
  0.00000000E+00  0.00000000E+00  0.00000000E+00
  0.00000000E+00  0.00000000E+00  0.00000000E+00
  0.00000000E+00  0.00000000E+00  0.00000000E+00
  0.00000000E+00  0.00000000E+00  0.00000000E+00
  0.00000000E+00  0.00000000E+00  0.00000000E+00
  0.00000000E+00  0.00000000E+00  0.00000000E+00
  0.00000000E+00  0.00000000E+00  0.00000000E+00
  0.00000000E+00  0.00000000E+00  0.00000000E+00
  0.00000000E+00  0.00000000E+00  0.00000000E+00
  0.00000000E+00  0.00000000E+00  0.00000000E+00
  0.00000000E+00  0.00000000E+00  0.00000000E+00
  0.00000000E+00  0.00000000E+00  0.00000000E+00
  0.00000000E+00  0.00000000E+00  0.00000000E+00
  0.00000000E+00  0.00000000E+00  0.00000000E+00
  0.00000000E+00  0.00000000E+00  0.00000000E+00
  0.00000000E+00  0.00000000E+00  0.00000000E+00
  0.00000000E+00  0.00000000E+00  0.00000000E+00
  0.00000000E+00  0.00000000E+00  0.00000000E+00
  0.00000000E+00  0.00000000E+00  0.00000000E+00
  0.00000000E+00  0.00000000E+00  0.00000000E+00
  0.00000000E+00  0.00000000E+00  0.00000000E+00
  0.00000000E+00  0.00000000E+00  0.00000000E+00
  0.00000000E+00  0.00000000E+00  0.00000000E+00
  0.00000000E+00  0.00000000E+00  0.00000000E+00
  0.00000000E+00  0.00000000E+00  0.00000000E+00
  0.00000000E+00  0.00000000E+00  0.00000000E+00
  0.00000000E+00  0.00000000E+00  0.00000000E+00
  0.00000000E+00  0.00000000E+00  0.00000000E+00
  0.00000000E+00  0.00000000E+00  0.00000000E+00
  0.00000000E+00  0.00000000E+00  0.00000000E+00
  0.00000000E+00  0.00000000E+00  0.00000000E+00
  0.00000000E+00  0.00000000E+00  0.00000000E+00
  0.00000000E+00  0.00000000E+00  0.00000000E+00
  0.00000000E+00  0.00000000E+00  0.00000000E+00
  0.00000000E+00  0.00000000E+00  0.00000000E+00
  0.00000000E+00  0.00000000E+00  0.00000000E+00
  0.00000000E+00  0.00000000E+00  0.00000000E+00
  0.00000000E+00  0.00000000E+00  0.00000000E+00
  0.00000000E+00  0.00000000E+00  0.00000000E+00
  0.00000000E+00  0.00000000E+00  0.00000000E+00
  0.00000000E+00  0.00000000E+00  0.00000000E+00
  0.00000000E+00  0.00000000E+00  0.00000000E+00
  0.00000000E+00  0.00000000E+00  0.00000000E+00
  0.00000000E+00  0.00000000E+00  0.00000000E+00
  0.00000000E+00  0.00000000E+00  0.00000000E+00
  0.00000000E+00  0.00000000E+00  0.00000000E+00
  0.00000000E+00  0.00000000E+00  0.00000000E+00
  0.00000000E+00  0.00000000E+00  0.00000000E+00
  0.00000000E+00  0.00000000E+00  0.00000000E+00
  0.00000000E+00  0.00000000E+00  0.00000000E+00
  0.00000000E+00  0.00000000E+00  0.00000000E+00
  0.00000000E+00  0.00000000E+00  0.00000000E+00
  0.00000000E+00  0.00000000E+00  0.00000000E+00
  0.00000000E+00  0.00000000E+00  0.00000000E+00
  0.00000000E+00  0.00000000E+00  0.00000000E+00
  0.00000000E+00  0.00000000E+00  0.00000000E+00
  0.00000000E+00  0.00000000E+00  0.00000000E+00
  0.00000000E+00  0.00000000E+00  0.00000000E+00
  0.00000000E+00  0.00000000E+00  0.00000000E+00
  0.00000000E+00  0.00000000E+00  0.00000000E+00
  0.00000000E+00  0.00000000E+00  0.00000000E+00
  0.00000000E+00  0.00000000E+00  0.00000000E+00
  0.00000000E+00  0.00000000E+00  0.00000000E+00
  0.00000000E+00  0.00000000E+00  0.00000000E+00
  0.00000000E+00  0.00000000E+00  0.00000000E+00
  0.00000000E+00  0.00000000E+00  0.00000000E+00
  0.00000000E+00  0.00000000E+00  0.00000000E+00
  0.00000000E+00  0.00000000E+00  0.00000000E+00
  0.00000000E+00  0.00000000E+00  0.00000000E+00
  0.00000000E+00  0.00000000E+00  0.00000000E+00
  0.00000000E+00  0.00000000E+00  0.00000000E+00
  0.00000000E+00  0.00000000E+00  0.00000000E+00
  0.00000000E+00  0.00000000E+00  0.00000000E+00
  0.00000000E+00  0.00000000E+00  0.00000000E+00
  0.00000000E+00  0.00000000E+00  0.00000000E+00
  0.00000000E+00  0.00000000E+00  0.00000000E+00
  0.00000000E+00  0.00000000E+00  0.00000000E+00
  0.00000000E+00  0.00000000E+00  0.00000000E+00
  0.00000000E+00  0.00000000E+00  0.00000000E+00
  0.00000000E+00  0.00000000E+00  0.00000000E+00
  0.00000000E+00  0.00000000E+00  0.00000000E+00
  0.00000000E+00  0.00000000E+00  0.00000000E+00
  0.00000000E+00  0.00000000E+00  0.00000000E+00
  0.00000000E+00  0.00000000E+00  0.00000000E+00
  0.00000000E+00  0.00000000E+00  0.00000000E+00
  0.00000000E+00  0.00000000E+00  0.00000000E+00
  0.00000000E+00  0.00000000E+00  0.00000000E+00
  0.00000000E+00  0.00000000E+00  0.00000000E+00
  0.00000000E+00  0.00000000E+00  0.00000000E+00
  0.00000000E+00  0.00000000E+00  0.00000000E+00
  0.00000000E+00  0.00000000E+00  0.00000000E+00
  0.00000000E+00  0.00000000E+00  0.00000000E+00
  0.00000000E+00  0.00000000E+00  0.00000000E+00
  0.00000000E+00  0.00000000E+00  0.00000000E+00
  0.00000000E+00  0.00000000E+00  0.00000000E+00
  0.00000000E+00  0.00000000E+00  0.00000000E+00
  0.00000000E+00  0.00000000E+00  0.00000000E+00
  0.00000000E+00  0.00000000E+00  0.00000000E+00
  0.00000000E+00  0.00000000E+00  0.00000000E+00
  0.00000000E+00  0.00000000E+00  0.00000000E+00
  0.00000000E+00  0.00000000E+00  0.00000000E+00
  0.00000000E+00  0.00000000E+00  0.00000000E+00
  0.00000000E+00  0.00000000E+00  0.00000000E+00
  0.00000000E+00  0.00000000E+00  0.00000000E+00
  0.00000000E+00  0.00000000E+00  0.00000000E+00
  0.00000000E+00  0.00000000E+00  0.00000000E+00
  0.00000000E+00  0.00000000E+00  0.00000000E+00
  0.00000000E+00  0.00000000E+00  0.00000000E+00
  0.00000000E+00  0.00000000E+00  0.00000000E+00
  0.00000000E+00  0.00000000E+00  0.00000000E+00
  0.00000000E+00  0.00000000E+00  0.00000000E+00
  0.00000000E+00  0.00000000E+00  0.00000000E+00
  0.00000000E+00  0.00000000E+00  0.00000000E+00
  0.00000000E+00  0.00000000E+00  0.00000000E+00
  0.00000000E+00  0.00000000E+00  0.00000000E+00
  0.00000000E+00  0.00000000E+00  0.00000000E+00
  0.00000000E+00  0.00000000E+00  0.00000000E+00
  0.00000000E+00  0.00000000E+00  0.00000000E+00
  0.00000000E+00  0.00000000E+00  0.00000000E+00
  0.00000000E+00  0.00000000E+00  0.00000000E+00
  0.00000000E+00  0.00000000E+00  0.00000000E+00
  0.00000000E+00  0.00000000E+00  0.00000000E+00
  0.00000000E+00  0.00000000E+00  0.00000000E+00
  0.00000000E+00  0.00000000E+00  0.00000000E+00
  0.00000000E+00  0.00000000E+00  0.00000000E+00
  0.00000000E+00  0.00000000E+00  0.00000000E+00
  0.00000000E+00  0.00000000E+00  0.00000000E+00
  0.00000000E+00  0.00000000E+00  0.00000000E+00
  0.00000000E+00  0.00000000E+00  0.00000000E+00
  0.00000000E+00  0.00000000E+00  0.00000000E+00
  0.00000000E+00  0.00000000E+00  0.00000000E+00
  0.00000000E+00  0.00000000E+00  0.00000000E+00
  0.00000000E+00  0.00000000E+00  0.00000000E+00
  0.00000000E+00  0.00000000E+00  0.00000000E+00
  0.00000000E+00  0.00000000E+00  0.00000000E+00
  0.00000000E+00  0.00000000E+00  0.00000000E+00
  0.00000000E+00  0.00000000E+00  0.00000000E+00
  0.00000000E+00  0.00000000E+00  0.00000000E+00
  0.00000000E+00  0.00000000E+00  0.00000000E+00
  0.00000000E+00  0.00000000E+00  0.00000000E+00
  0.00000000E+00  0.00000000E+00  0.00000000E+00
  0.00000000E+00  0.00000000E+00  0.00000000E+00
  0.00000000E+00  0.00000000E+00  0.00000000E+00
  0.00000000E+00  0.00000000E+00  0.00000000E+00
  0.00000000E+00  0.00000000E+00  0.00000000E+00
  0.00000000E+00  0.00000000E+00  0.00000000E+00
  0.00000000E+00  0.00000000E+00  0.00000000E+00
  0.00000000E+00  0.00000000E+00  0.00000000E+00
  0.00000000E+00  0.00000000E+00  0.00000000E+00
  0.00000000E+00  0.00000000E+00  0.00000000E+00
  0.00000000E+00  0.00000000E+00  0.00000000E+00
  0.00000000E+00  0.00000000E+00  0.00000000E+00
