Generated by VASPKIT code               
   1.00000000000000     
    15.9632568608723009    0.0000096368207991    0.0000000000000000
     0.0001147535247355   16.4103925289695169    0.0000000000000000
     0.0000000000000013    0.0000000000000014   21.9535760637481125
   C 
   192
Direct
  0.3955087252388211  0.1665850068141244  0.5633442249916355
  0.8954844209917738  0.3334221206239806  0.5633386164357846
  0.4654125162930974  0.1611139367130436  0.6052595462735233
  0.9653839129977924  0.3388899202411594  0.6052559539306538
  0.5382943279283758  0.1889789832461152  0.5731123375504867
  0.0382656546609807  0.3110190813995851  0.5731108690390452
  0.4237781129593355  0.1952785596688333  0.5062526289968665
  0.9237482515063563  0.3047107264498127  0.5062474909847804
  0.5134644671018951  0.2227550344730252  0.5113785013467091
  0.0134424759596138  0.2772418975688364  0.5113763122653551
  0.3900269172265704  0.1698464051066021  0.4517307494674119
  0.8900065197292726  0.3301599050959290  0.4517241431510376
  0.3255088985399568  0.1099787538641793  0.4527399118391374
  0.8255042842816047  0.3900441349566338  0.4527305058141318
  0.3320362996162731  0.1079495506572637  0.5644719186242623
  0.8320288217988245  0.3920751629465456  0.5644635782238856
  0.2981349406342934  0.0803444134892883  0.5083882406237331
  0.7981447148561621  0.4196846946421968  0.5083788119266707
  0.3382167087016401  0.0408368058344112  0.6072658626479038
  0.8382112559264189  0.4591896247176588  0.6072563570257774
  0.4706007446459939  0.0971831462735638  0.6473178763360228
  0.9705790590951980  0.4028240996556139  0.6473130807478735
  0.4052662961219168  0.0351618332241944  0.6481987700267473
  0.9052539955750503  0.4648552832069848  0.6481934346141566
  0.5502578783727740  0.0568257018008263  0.6562379763010744
  0.0502420594243866  0.4431677364583386  0.6562347852698545
  0.6138903749161675  0.1517477273533980  0.5815131911447757
  0.1138658984821992  0.3482370734718258  0.5815107988993393
  0.6202741934139615  0.0840187532144513  0.6234907537958376
  0.1202573690635175  0.4159651859825652  0.6234884891850662
  0.6655770368863552  0.1336926165879347  0.5276133786523987
  0.1655559692755449  0.3662856476135021  0.5276119249595589
  0.5646556259015202  0.1938085614441994  0.4590912406034304
  0.0646280403428655  0.3061929515826568  0.4590889071276055
  0.6410626910259680  0.1577179468663406  0.4673437300111645
  0.1410403535380262  0.3422632301169595  0.4673415976775119
  0.4423459614995929  0.1558860958498813  0.3975639972612664
  0.9423260056983449  0.3441180789590951  0.3975575017708998
  0.5280428234361935  0.1676938308123200  0.4019646969557438
  0.0280227503473967  0.3323020939332941  0.4019596260289427
  0.3380976485490194  0.0574752417646488  0.3990871246195077
  0.8380957247718733  0.4425483150637709  0.3990796487145982
  0.4099342873246707  0.0860952674564401  0.3653799392723697
  0.9099259667496089  0.4139155746749990  0.3653732700686391
  0.3253205517684458  0.9745640446760002  0.4053871203937835
  0.8253228723606140  0.5254604482495090  0.4053757724691939
  0.2707173703899510  0.9931454218022935  0.5154596993417593
  0.7707221067272582  0.5068761468796528  0.5154472200919420
  0.3076913225697991  0.9698254773852973  0.5765836029699408
  0.8076928135111185  0.5302040595997767  0.5765723979098389
  0.3011998596469085  0.9422544021948421  0.4637826488084597
  0.8011936143460783  0.5577767261369763  0.4637687787419070
  0.3437331252013624  0.8952804909176506  0.5857104860106013
  0.8437431016974128  0.6047425308489667  0.5856987188177085
  0.4450120359577392  0.9568906699901745  0.6576870952445453
  0.9450086984054382  0.5431207235159965  0.6576829508322785
  0.5346575853305979  0.9700470544506821  0.6622777993251557
  0.0346537072234057  0.5299507212139589  0.6622746023467070
  0.4143390136150984  0.8883381488800258  0.6266385046643297
  0.9143467639531448  0.6116764116595881  0.6266295693312739
  0.5900684396856427  0.9139071396806376  0.6346257709677962
  0.0900709322189721  0.5860812131185045  0.6346201747821306
  0.6746811789819779  0.0254385133525860  0.5946185093948174
  0.1746747301691632  0.4745366378229851  0.5946179294883724
  0.6988039034892743  0.0577473979618322  0.5362234188309050
  0.1988036900328776  0.4422206526924364  0.5362248827070046
  0.6619047283565324  0.9425277225070948  0.6009188981086784
  0.1619016103746501  0.5574485643783477  0.6009139662994316
  0.7292835718662687  0.0068562228331186  0.4845462210640671
  0.2292750637860981  0.4931214520920778  0.4845473566757877
  0.6562680110119012  0.1047212406071858  0.4142967506011697
  0.1562551732012469  0.3952546123797828  0.4142949214397974
  0.5856626167584611  0.1116634410612125  0.3733690797934495
  0.0856511061600798  0.3883205445496106  0.3733640577170190
  0.6923087359944946  0.0301767363194584  0.4234232304861252
  0.1923066236897597  0.4697928307509011  0.4234213360849296
  0.4653440737929517  0.0299556790958982  0.3377272323596987
  0.9653439462424607  0.4700457059360632  0.3377191578686934
  0.5549900522597030  0.0431113923761580  0.3423189672194566
  0.0549891571390343  0.4568757808756951  0.3423108455072554
  0.3797275665047043  0.9159837603913568  0.3765151194158510
  0.8797400182632585  0.5840318929916315  0.3765052365494340
  0.4497441792740469  0.9431762224614919  0.3437668795566887
  0.9497555386969013  0.5568283914255044  0.3437589640823902
  0.3344256836515657  0.8663107086635439  0.4723930929245902
  0.8344403027591565  0.6337118172589495  0.4723811596783056
  0.3589391091834497  0.8422849929693006  0.5326632134980818
  0.8589574258025000  0.6577337920298464  0.5326515212712155
  0.3861118168445561  0.8482551974430234  0.4184926917208232
  0.8861317642837091  0.6517602921410097  0.4184828238856455
  0.4719595935261733  0.8323080782021697  0.5980423056826664
  0.9719744663210844  0.6676952844350276  0.5980339138614479
  0.5576561283066183  0.8441158622344057  0.6024425346627933
  0.0576709427507988  0.6558790086811052  0.6024360830879810
  0.4353469222855947  0.8061932892018732  0.5409158450278095
  0.9353696810896451  0.6938044515801189  0.5409042285095091
  0.6744939081367574  0.8900229547111183  0.5472665560786359
  0.1744926289131027  0.6099526401866523  0.5472632388342785
  0.7018678189705877  0.9196565727640628  0.4916180587254650
  0.2018508424759013  0.5803120730210277  0.4916149125271131
  0.6099754455211022  0.8301550834407329  0.5482753997456599
  0.1099906650813139  0.6698366091040963  0.5482693184161459
  0.6617838298999420  0.9591651547327336  0.3927411811235171
  0.1617874133020077  0.5408066858267074  0.3927373742247436
  0.5947349805874604  0.9648400502036669  0.3518072622068912
  0.0947438437731514  0.5351409654200552  0.3518003275342723
  0.5294010579604457  0.9028187532953978  0.3526877612551335
  0.0294185216637302  0.5971723357658429  0.3526808364111361
  0.6679657094237332  0.8920522506522781  0.4355349176297439
  0.1679681866735919  0.6079210604628269  0.4355296037820202
  0.4617078232994011  0.8110240690150664  0.4268941592196394
  0.9617313368183401  0.6889798394308287  0.4268828435565784
  0.4865370762103592  0.7772484114211856  0.4886275391139784
  0.9865560523304699  0.7227574361868920  0.4886179197466962
  0.5762241780028878  0.8047233196207098  0.4937544392731071
  0.0762494988871773  0.6952852358600220  0.4937457132847533
  0.5345896979793977  0.8388890273588551  0.3947466047672261
  0.0346128451412349  0.6611069982643395  0.3947371660611489
  0.6044929034917549  0.8334170828868485  0.4366624450670865
  0.1045128348961905  0.6665742553228245  0.4366544219075941
  0.4605166229810838  0.3484625875505545  0.5610150564509452
  0.8827565899378684  0.1177287029450086  0.5514807660613440
  0.5108130459044693  0.3156230171748450  0.5091948248789201
  0.8514019247934441  0.1057038748009799  0.4916631610353921
  0.5917413911874768  0.3630050616922494  0.5139169351457550
  0.8238215770438176  0.0175710785077139  0.4857173865104387
  0.5109988086210620  0.4004288722099236  0.5982854217858968
  0.8844966873709674  0.0387972431575648  0.5842071660303507
  0.5913268518569026  0.4093817388692019  0.5689913284821866
  0.8570780651467484  0.9799898547817306  0.5443134505118687
  0.4631141103113860  0.4703766714755249  0.6175669236406176
  0.9631242183989285  0.0296360979571716  0.6175683632976045
  0.3827315104432471  0.3823016588440461  0.5514841373881441
  0.9605567622840107  0.1515365727157731  0.5610071246341108
  0.3844851877957886  0.4612367832227449  0.5842055471909745
  0.0110276287028176  0.0995648425455956  0.5982775132876346
  0.3513960044782349  0.3943362430216231  0.4916638833813977
  0.0108532047651033  0.1843733904980841  0.5091902327436268
  0.4778587386263444  0.3399605209303431  0.4475008973874229
  0.8990816326959122  0.1259729888768185  0.4404031450228514
  0.3990532838811087  0.3740480859906875  0.4404007639154461
  0.9778969526307822  0.1600355170401608  0.4475002144191378
  0.6067896159002251  0.4014693780794320  0.4571751772084672
  0.8706666528846613  0.9874707522232249  0.4296135420313032
  0.5379746746563308  0.3868610599573269  0.4158965660240320
  0.9111960577654898  0.0521838792412936  0.4019479549764557
  0.6429213377049866  0.4799546073842457  0.4556875023718751
  0.9086482065229976  0.9093987352989021  0.4310155766436558
  0.6293348982470585  0.4874409585277874  0.5703920189647272
  0.8931847395521354  0.9014923238642704  0.5428260129941361
  0.6761768951421323  0.5175352998913151  0.5142828839016409
  0.9082174694680065  0.8630105349607096  0.4860863317540164
  0.5018854391758953  0.5472943216205459  0.6174374318342652
  0.0018741621563215  0.9527087187989784  0.6174338519510164
  0.5888183691301647  0.5521652334364681  0.5980556524818404
  0.9619963673727088  0.8868744155100474  0.5841043298173434
  0.4620268155349647  0.6131374593843210  0.5841027875260132
  0.0888052007106199  0.9478143010151886  0.5980508417306898
  0.3570761060763153  0.5200492047697028  0.5443118514149338
  0.0913529368195578  0.0906008223478953  0.5689835044174424
  0.3238215172504776  0.4824664904648743  0.4857169732204201
  0.0917824515660075  0.1369874997813304  0.5139127682509018
  0.3932085703044444  0.5985336112879426  0.5428248418620346
  0.1293323666676023  0.0125270015882475  0.5703842312531026
  0.4111843968111499  0.4478385442449701  0.4019484765266036
  0.0380027091611443  0.1131216370331014  0.4158961079789810
  0.4981158069628280  0.4527075543723433  0.3825659807944554
  0.9981267135485519  0.0472912433583068  0.3825620982501194
  0.3706662362958942  0.5125612501464943  0.4296100266174408
  0.1068162928205093  0.0985062178191192  0.4571728188200084
  0.6155164122156458  0.5387675822555560  0.4157924011114691
  0.9889728397785583  0.9004332530674095  0.4017202555527563
  0.5368867853535075  0.5296263305738355  0.3824318408370751
  0.0368766059034615  0.9703635120031384  0.3824342069739092
  0.6486055296788894  0.6056667955518733  0.5083369871066737
  0.9891476052198480  0.8156268538032709  0.4908078271345981
  0.6009468330272006  0.6259519857020305  0.5596000931021718
  0.0221040906781921  0.8399653610915709  0.5524983163069772
  0.5221411413049035  0.6600403353480626  0.5525002537362677
  0.1009229177290646  0.8740218663733361  0.5595988754070544
  0.6172683102119052  0.6177004009757181  0.4485170750348547
  0.0394444694710568  0.8484640352291517  0.4389922196717616
  0.4082571981649368  0.6370001330062284  0.4860844904890957
  0.1761793709286403  0.9824289125125996  0.5142826107588601
  0.4086719244281000  0.5906227721198799  0.4310103589841832
  0.1429251300604515  0.0200099796547006  0.4556857640484772
  0.4890005812038544  0.5995718353180497  0.4017171556318015
  0.1155057861924387  0.9612021998506902  0.4157928631306382
  0.4891862847874530  0.6843793344562790  0.4908071558312569
  0.1485940024956730  0.8942974405167915  0.5083357617357729
  0.5394819391966229  0.6515402376069441  0.4389867312586515
  0.1172473275959952  0.8822688040309928  0.4485167815286797
 
  0.00000000E+00  0.00000000E+00  0.00000000E+00
  0.00000000E+00  0.00000000E+00  0.00000000E+00
  0.00000000E+00  0.00000000E+00  0.00000000E+00
  0.00000000E+00  0.00000000E+00  0.00000000E+00
  0.00000000E+00  0.00000000E+00  0.00000000E+00
  0.00000000E+00  0.00000000E+00  0.00000000E+00
  0.00000000E+00  0.00000000E+00  0.00000000E+00
  0.00000000E+00  0.00000000E+00  0.00000000E+00
  0.00000000E+00  0.00000000E+00  0.00000000E+00
  0.00000000E+00  0.00000000E+00  0.00000000E+00
  0.00000000E+00  0.00000000E+00  0.00000000E+00
  0.00000000E+00  0.00000000E+00  0.00000000E+00
  0.00000000E+00  0.00000000E+00  0.00000000E+00
  0.00000000E+00  0.00000000E+00  0.00000000E+00
  0.00000000E+00  0.00000000E+00  0.00000000E+00
  0.00000000E+00  0.00000000E+00  0.00000000E+00
  0.00000000E+00  0.00000000E+00  0.00000000E+00
  0.00000000E+00  0.00000000E+00  0.00000000E+00
  0.00000000E+00  0.00000000E+00  0.00000000E+00
  0.00000000E+00  0.00000000E+00  0.00000000E+00
  0.00000000E+00  0.00000000E+00  0.00000000E+00
  0.00000000E+00  0.00000000E+00  0.00000000E+00
  0.00000000E+00  0.00000000E+00  0.00000000E+00
  0.00000000E+00  0.00000000E+00  0.00000000E+00
  0.00000000E+00  0.00000000E+00  0.00000000E+00
  0.00000000E+00  0.00000000E+00  0.00000000E+00
  0.00000000E+00  0.00000000E+00  0.00000000E+00
  0.00000000E+00  0.00000000E+00  0.00000000E+00
  0.00000000E+00  0.00000000E+00  0.00000000E+00
  0.00000000E+00  0.00000000E+00  0.00000000E+00
  0.00000000E+00  0.00000000E+00  0.00000000E+00
  0.00000000E+00  0.00000000E+00  0.00000000E+00
  0.00000000E+00  0.00000000E+00  0.00000000E+00
  0.00000000E+00  0.00000000E+00  0.00000000E+00
  0.00000000E+00  0.00000000E+00  0.00000000E+00
  0.00000000E+00  0.00000000E+00  0.00000000E+00
  0.00000000E+00  0.00000000E+00  0.00000000E+00
  0.00000000E+00  0.00000000E+00  0.00000000E+00
  0.00000000E+00  0.00000000E+00  0.00000000E+00
  0.00000000E+00  0.00000000E+00  0.00000000E+00
  0.00000000E+00  0.00000000E+00  0.00000000E+00
  0.00000000E+00  0.00000000E+00  0.00000000E+00
  0.00000000E+00  0.00000000E+00  0.00000000E+00
  0.00000000E+00  0.00000000E+00  0.00000000E+00
  0.00000000E+00  0.00000000E+00  0.00000000E+00
  0.00000000E+00  0.00000000E+00  0.00000000E+00
  0.00000000E+00  0.00000000E+00  0.00000000E+00
  0.00000000E+00  0.00000000E+00  0.00000000E+00
  0.00000000E+00  0.00000000E+00  0.00000000E+00
  0.00000000E+00  0.00000000E+00  0.00000000E+00
  0.00000000E+00  0.00000000E+00  0.00000000E+00
  0.00000000E+00  0.00000000E+00  0.00000000E+00
  0.00000000E+00  0.00000000E+00  0.00000000E+00
  0.00000000E+00  0.00000000E+00  0.00000000E+00
  0.00000000E+00  0.00000000E+00  0.00000000E+00
  0.00000000E+00  0.00000000E+00  0.00000000E+00
  0.00000000E+00  0.00000000E+00  0.00000000E+00
  0.00000000E+00  0.00000000E+00  0.00000000E+00
  0.00000000E+00  0.00000000E+00  0.00000000E+00
  0.00000000E+00  0.00000000E+00  0.00000000E+00
  0.00000000E+00  0.00000000E+00  0.00000000E+00
  0.00000000E+00  0.00000000E+00  0.00000000E+00
  0.00000000E+00  0.00000000E+00  0.00000000E+00
  0.00000000E+00  0.00000000E+00  0.00000000E+00
  0.00000000E+00  0.00000000E+00  0.00000000E+00
  0.00000000E+00  0.00000000E+00  0.00000000E+00
  0.00000000E+00  0.00000000E+00  0.00000000E+00
  0.00000000E+00  0.00000000E+00  0.00000000E+00
  0.00000000E+00  0.00000000E+00  0.00000000E+00
  0.00000000E+00  0.00000000E+00  0.00000000E+00
  0.00000000E+00  0.00000000E+00  0.00000000E+00
  0.00000000E+00  0.00000000E+00  0.00000000E+00
  0.00000000E+00  0.00000000E+00  0.00000000E+00
  0.00000000E+00  0.00000000E+00  0.00000000E+00
  0.00000000E+00  0.00000000E+00  0.00000000E+00
  0.00000000E+00  0.00000000E+00  0.00000000E+00
  0.00000000E+00  0.00000000E+00  0.00000000E+00
  0.00000000E+00  0.00000000E+00  0.00000000E+00
  0.00000000E+00  0.00000000E+00  0.00000000E+00
  0.00000000E+00  0.00000000E+00  0.00000000E+00
  0.00000000E+00  0.00000000E+00  0.00000000E+00
  0.00000000E+00  0.00000000E+00  0.00000000E+00
  0.00000000E+00  0.00000000E+00  0.00000000E+00
  0.00000000E+00  0.00000000E+00  0.00000000E+00
  0.00000000E+00  0.00000000E+00  0.00000000E+00
  0.00000000E+00  0.00000000E+00  0.00000000E+00
  0.00000000E+00  0.00000000E+00  0.00000000E+00
  0.00000000E+00  0.00000000E+00  0.00000000E+00
  0.00000000E+00  0.00000000E+00  0.00000000E+00
  0.00000000E+00  0.00000000E+00  0.00000000E+00
  0.00000000E+00  0.00000000E+00  0.00000000E+00
  0.00000000E+00  0.00000000E+00  0.00000000E+00
  0.00000000E+00  0.00000000E+00  0.00000000E+00
  0.00000000E+00  0.00000000E+00  0.00000000E+00
  0.00000000E+00  0.00000000E+00  0.00000000E+00
  0.00000000E+00  0.00000000E+00  0.00000000E+00
  0.00000000E+00  0.00000000E+00  0.00000000E+00
  0.00000000E+00  0.00000000E+00  0.00000000E+00
  0.00000000E+00  0.00000000E+00  0.00000000E+00
  0.00000000E+00  0.00000000E+00  0.00000000E+00
  0.00000000E+00  0.00000000E+00  0.00000000E+00
  0.00000000E+00  0.00000000E+00  0.00000000E+00
  0.00000000E+00  0.00000000E+00  0.00000000E+00
  0.00000000E+00  0.00000000E+00  0.00000000E+00
  0.00000000E+00  0.00000000E+00  0.00000000E+00
  0.00000000E+00  0.00000000E+00  0.00000000E+00
  0.00000000E+00  0.00000000E+00  0.00000000E+00
  0.00000000E+00  0.00000000E+00  0.00000000E+00
  0.00000000E+00  0.00000000E+00  0.00000000E+00
  0.00000000E+00  0.00000000E+00  0.00000000E+00
  0.00000000E+00  0.00000000E+00  0.00000000E+00
  0.00000000E+00  0.00000000E+00  0.00000000E+00
  0.00000000E+00  0.00000000E+00  0.00000000E+00
  0.00000000E+00  0.00000000E+00  0.00000000E+00
  0.00000000E+00  0.00000000E+00  0.00000000E+00
  0.00000000E+00  0.00000000E+00  0.00000000E+00
  0.00000000E+00  0.00000000E+00  0.00000000E+00
  0.00000000E+00  0.00000000E+00  0.00000000E+00
  0.00000000E+00  0.00000000E+00  0.00000000E+00
  0.00000000E+00  0.00000000E+00  0.00000000E+00
  0.00000000E+00  0.00000000E+00  0.00000000E+00
  0.00000000E+00  0.00000000E+00  0.00000000E+00
  0.00000000E+00  0.00000000E+00  0.00000000E+00
  0.00000000E+00  0.00000000E+00  0.00000000E+00
  0.00000000E+00  0.00000000E+00  0.00000000E+00
  0.00000000E+00  0.00000000E+00  0.00000000E+00
  0.00000000E+00  0.00000000E+00  0.00000000E+00
  0.00000000E+00  0.00000000E+00  0.00000000E+00
  0.00000000E+00  0.00000000E+00  0.00000000E+00
  0.00000000E+00  0.00000000E+00  0.00000000E+00
  0.00000000E+00  0.00000000E+00  0.00000000E+00
  0.00000000E+00  0.00000000E+00  0.00000000E+00
  0.00000000E+00  0.00000000E+00  0.00000000E+00
  0.00000000E+00  0.00000000E+00  0.00000000E+00
  0.00000000E+00  0.00000000E+00  0.00000000E+00
  0.00000000E+00  0.00000000E+00  0.00000000E+00
  0.00000000E+00  0.00000000E+00  0.00000000E+00
  0.00000000E+00  0.00000000E+00  0.00000000E+00
  0.00000000E+00  0.00000000E+00  0.00000000E+00
  0.00000000E+00  0.00000000E+00  0.00000000E+00
  0.00000000E+00  0.00000000E+00  0.00000000E+00
  0.00000000E+00  0.00000000E+00  0.00000000E+00
  0.00000000E+00  0.00000000E+00  0.00000000E+00
  0.00000000E+00  0.00000000E+00  0.00000000E+00
  0.00000000E+00  0.00000000E+00  0.00000000E+00
  0.00000000E+00  0.00000000E+00  0.00000000E+00
  0.00000000E+00  0.00000000E+00  0.00000000E+00
  0.00000000E+00  0.00000000E+00  0.00000000E+00
  0.00000000E+00  0.00000000E+00  0.00000000E+00
  0.00000000E+00  0.00000000E+00  0.00000000E+00
  0.00000000E+00  0.00000000E+00  0.00000000E+00
  0.00000000E+00  0.00000000E+00  0.00000000E+00
  0.00000000E+00  0.00000000E+00  0.00000000E+00
  0.00000000E+00  0.00000000E+00  0.00000000E+00
  0.00000000E+00  0.00000000E+00  0.00000000E+00
  0.00000000E+00  0.00000000E+00  0.00000000E+00
  0.00000000E+00  0.00000000E+00  0.00000000E+00
  0.00000000E+00  0.00000000E+00  0.00000000E+00
  0.00000000E+00  0.00000000E+00  0.00000000E+00
  0.00000000E+00  0.00000000E+00  0.00000000E+00
  0.00000000E+00  0.00000000E+00  0.00000000E+00
  0.00000000E+00  0.00000000E+00  0.00000000E+00
  0.00000000E+00  0.00000000E+00  0.00000000E+00
  0.00000000E+00  0.00000000E+00  0.00000000E+00
  0.00000000E+00  0.00000000E+00  0.00000000E+00
  0.00000000E+00  0.00000000E+00  0.00000000E+00
  0.00000000E+00  0.00000000E+00  0.00000000E+00
  0.00000000E+00  0.00000000E+00  0.00000000E+00
  0.00000000E+00  0.00000000E+00  0.00000000E+00
  0.00000000E+00  0.00000000E+00  0.00000000E+00
  0.00000000E+00  0.00000000E+00  0.00000000E+00
  0.00000000E+00  0.00000000E+00  0.00000000E+00
  0.00000000E+00  0.00000000E+00  0.00000000E+00
  0.00000000E+00  0.00000000E+00  0.00000000E+00
  0.00000000E+00  0.00000000E+00  0.00000000E+00
  0.00000000E+00  0.00000000E+00  0.00000000E+00
  0.00000000E+00  0.00000000E+00  0.00000000E+00
  0.00000000E+00  0.00000000E+00  0.00000000E+00
  0.00000000E+00  0.00000000E+00  0.00000000E+00
  0.00000000E+00  0.00000000E+00  0.00000000E+00
  0.00000000E+00  0.00000000E+00  0.00000000E+00
  0.00000000E+00  0.00000000E+00  0.00000000E+00
  0.00000000E+00  0.00000000E+00  0.00000000E+00
  0.00000000E+00  0.00000000E+00  0.00000000E+00
  0.00000000E+00  0.00000000E+00  0.00000000E+00
  0.00000000E+00  0.00000000E+00  0.00000000E+00
  0.00000000E+00  0.00000000E+00  0.00000000E+00
  0.00000000E+00  0.00000000E+00  0.00000000E+00
  0.00000000E+00  0.00000000E+00  0.00000000E+00
  0.00000000E+00  0.00000000E+00  0.00000000E+00
  0.00000000E+00  0.00000000E+00  0.00000000E+00
  0.00000000E+00  0.00000000E+00  0.00000000E+00
