Generated by VASPKIT code               
   1.00000000000000     
    27.1215171551528371   -0.0870118129302370    0.0000000000000000
   -13.6390107882916958   23.5073068387393782    0.0000000000000000
     0.0000000000000012    0.0000000000000022   21.9475646548525560
  C             
   336
Direct
  0.2267051176269153  0.5236477438581151  0.5330788734646922
  0.7733481272998459  0.4763822856151385  0.5331786938165768
  0.2266773832295036  0.5236890519827712  0.4669467178253886
  0.7733723319354636  0.4763828440460995  0.4670456275532012
  0.2781889102042007  0.5250935227111979  0.4463885425155881
  0.7218887194479023  0.4750305010748241  0.4465124112285854
  0.2782212456706203  0.5250142274395830  0.5535354455982954
  0.7218484347111671  0.4750261876691485  0.5536618924761800
  0.3101447511901279  0.5260560945247429  0.4999305926531588
  0.6899399770299980  0.4740384908308132  0.5000736564567748
  0.3068605081811672  0.5566230345750863  0.6052777296859769
  0.6931962872884406  0.4433931463252443  0.6053796520030915
  0.2848970838131348  0.5877675866390131  0.6384580753967521
  0.7151368240267616  0.4122028760797422  0.6385168752951175
  0.2053102588600211  0.5533091536746919  0.5650743228202747
  0.7947246335354720  0.4466818130889424  0.5651249117890841
  0.2349960392585328  0.5860776698343844  0.6187211882342804
  0.7650241851591976  0.4138693464924245  0.6187468967568192
  0.1830964420833603  0.5842606388678359  0.5320198567714354
  0.8169185406979509  0.4157310723172341  0.5320237723904164
  0.2052732011284702  0.5534099743033061  0.4350935412238331
  0.7947589591872081  0.4466656031975568  0.4351465878752902
  0.1830739403734646  0.5843041882717320  0.4682707965554673
  0.8169395186265974  0.4157295135089196  0.4682735881876779
  0.2349214171234243  0.5862570075595021  0.3814792990256409
  0.7651063131545900  0.4138643340212922  0.3815087440528203
  0.3067985569548461  0.5567766486329352  0.3946759068102546
  0.6932694469959695  0.4433831832363418  0.3947882237923729
  0.2848093008481319  0.5879690853034496  0.3616320644700850
  0.7152293330031666  0.4121899578571774  0.3616898993330173
  0.3687333965292738  0.5909422133817461  0.3946425973525391
  0.6313324759300447  0.4092458744580912  0.3947326359955777
  0.3697165990094307  0.5589091258483406  0.4999159339875068
  0.6303669552656199  0.4412177594237653  0.5000466387138157
  0.3994380408213560  0.5919667628439790  0.4463468312970763
  0.6006389705638094  0.4081991450207190  0.4464476827385530
  0.3687938437194321  0.5907851194045312  0.6052872828457843
  0.6312603520056843  0.4092542481808307  0.6053813128536998
  0.3994656143338124  0.5918831535385086  0.5535304425187655
  0.6005985346534087  0.4081990525204705  0.5536332492527436
  0.3332572065556976  0.6411878437921726  0.6589558376711782
  0.6667548145621754  0.3587791905157151  0.6589792928652815
  0.3851203038227243  0.6430707708918695  0.6384721667686942
  0.6149127161997873  0.3569394222219789  0.6385074153529147
  0.3298745281777307  0.6908857971121538  0.6590370647697720
  0.6701166981039520  0.3090689133913366  0.6589994086478326
  0.2313378159300719  0.6375571708741670  0.6188362131687221
  0.7686539840122075  0.3623787712809350  0.6188016031499237
  0.1992324841011736  0.6363925367506718  0.5652911573725347
  0.8007567144847352  0.3635718760877054  0.5652485553571120
  0.2779834435969982  0.6890017819489945  0.6386073522634943
  0.7219964882821898  0.3109376678841022  0.6385457997282017
  0.2149393368052131  0.6867140945336664  0.5333507474703553
  0.7850372749843779  0.3132719990207581  0.5332612716983482
  0.1991913986462673  0.6364910386451513  0.4351053972200997
  0.8008054336471087  0.3635686770681461  0.4350523823955822
  0.2312813718840326  0.6377420085243745  0.3815045745104625
  0.7687273997582356  0.3623690357079647  0.3814723162642344
  0.2149175628443541  0.6867714231466541  0.4671382362600204
  0.7850617194346164  0.3132650887391865  0.4670524005264862
  0.2779148264464279  0.6892148337943305  0.3617798362543965
  0.7220782973405243  0.3109187095700652  0.3617194082111234
  0.3331726334045811  0.6414218055032567  0.3411897021892530
  0.6668569987724016  0.3587631027191569  0.3412035556076711
  0.3850395891181815  0.6432713687505772  0.3615873914586040
  0.6150033260039630  0.3569229485244926  0.3616290605521401
  0.3297974965642442  0.6911238551348097  0.3412529240195041
  0.6702158772896147  0.3090510762472424  0.3412162048533766
  0.4315548788112704  0.6947757842141141  0.3814225683049637
  0.5684729493038256  0.3054218574158804  0.3814393730529910
  0.4474565955661380  0.6454236396662770  0.4669010709537844
  0.5525978102098773  0.3547393588693754  0.4669647498180873
  0.4474748242200323  0.6453716669307713  0.5330298015599536
  0.5525861281127098  0.3547428708930154  0.5330960946907453
  0.4633181963403691  0.6957973395493675  0.4350580459920886
  0.5367178473598035  0.3043781905394992  0.4350877858028516
  0.4316184299457948  0.6946003556177586  0.6186665964751095
  0.5684038835267129  0.3054346457125331  0.6186761325583061
  0.4633473796758948  0.6957009386035156  0.5649738815561083
  0.5366863608093483  0.3043950604281274  0.5650030748495799
  0.3782611623849549  0.7443745549985958  0.6385815524414791
  0.6217253342819515  0.2556032689782766  0.6385109183136056
  0.4282235114100166  0.7462437897672286  0.6187908297885891
  0.5717710684668809  0.2537733291314249  0.6187424789720828
  0.2943199631243812  0.7412707530429136  0.6054858031435200
  0.7056463853981459  0.2586904733616372  0.6053849410059030
  0.2635000626606598  0.7399295210396397  0.5538071518499942
  0.7364533415209834  0.2600502832127941  0.5536809718095925
  0.3563006362021010  0.7755011661061046  0.6054594649883288
  0.6436656005478034  0.2244805796877699  0.6053480499398303
  0.2634803431499017  0.7400162207496159  0.4467335634008164
  0.7364903593855986  0.2600440828719119  0.4466088454571902
  0.2942662332598967  0.7414317782388611  0.3949937250904568
  0.7057116342246502  0.2586745107026084  0.3948793754467576
  0.2934372421806067  0.7726284689643071  0.5002850191905306
  0.7065171521856523  0.2273948440249374  0.5001384829829819
  0.3781851141868332  0.7445824460935146  0.3617447974315763
  0.6218044496214944  0.2555857600775143  0.3616809801114644
  0.4281606556478978  0.7464128619142809  0.3814401400743235
  0.5718414292879643  0.2537657489984770  0.3814014615149057
  0.3562460054358034  0.7756582490620521  0.3949945923844890
  0.6437313050551959  0.2244656534560585  0.3948870622209246
  0.4798086097861603  0.7481045690066016  0.4681925794878245
  0.5202056159741286  0.2520424075618563  0.4681726864111302
  0.4798156821808565  0.7480487737548193  0.5319548005516967
  0.5201901912066674  0.2520532949622041  0.5319307642909994
  0.4580894903632602  0.7792767207515355  0.5652323374273553
  0.5418964513177632  0.2207807256558173  0.5651641114620933
  0.4580581171447583  0.7793793218165639  0.4350243636745773
  0.5419330629472011  0.2207692521637623  0.4349656351973625
  0.3850408049611990  0.8070977039840231  0.5537923250501572
  0.6149205882264042  0.1929283740948065  0.5536613184410141
  0.3529526630358919  0.8056405700549817  0.5002747611920787
  0.6469973410455325  0.1944009621372033  0.5001297932593897
  0.3850114479931062  0.8071700568722358  0.4466947508190738
  0.6149561797992704  0.1929219329782191  0.4465693155178506
  0.4369289309052637  0.8092369956975508  0.5332924335324224
  0.5630419982719426  0.1908282206562877  0.5331840092227244
  0.4369090737678636  0.8092801155560623  0.4670963665251178
  0.5630657321151882  0.1908259826258009  0.4669905284551489
  0.8144568266333486  0.0663384822618386  0.4449424169396463
  0.9724077177266411  0.7950903405389317  0.4434441734072948
  0.2368298466912708  0.1744479503635241  0.4451876292632829
  0.1855950382945580  0.9337219646771256  0.4448718591507742
  0.0275005115403484  0.2047920428765964  0.4435147698535792
  0.7628134521484611  0.8250351590288714  0.4446375780860062
  0.8163943515192126  0.0414618812776773  0.5008244421909723
  0.0017874200626810  0.8158145014024677  0.4992441166724501
  0.2107033205351402  0.1742433906012697  0.5010459952299054
  0.1836291682052518  0.9586099229488617  0.5007386993795029
  0.9981180305612912  0.1841009748071007  0.4993265884329393
  0.7893625086602082  0.8255729682431288  0.5003105265946457
  0.7682115083359420  0.9814939502439094  0.5007751761191684
  0.0502952766751408  0.8050726803178323  0.4990131290489588
  0.2029513867674076  0.2246641011184631  0.5007601010305791
  0.2318310953449803  0.0185690212124946  0.5007020820064322
  0.9496526812513725  0.1949202051065311  0.4990857061904588
  0.7969892030251478  0.7750810661241270  0.5001881681285264
  0.7651701242430335  0.0221583970310986  0.4094667739799125
  0.0026344640172696  0.7715795270473043  0.4078951462024938
  0.2450654384061150  0.2246711426707521  0.4094908494415943
  0.2349275956339490  0.9778786913915383  0.4094268595077393
  0.9973151740416033  0.2283596902604230  0.4079785105574805
  0.7541812074982390  0.7745250501919391  0.4092169272532669
  0.7381234916882009  0.9704007897793521  0.4441246932502022
  0.0508328323571441  0.7791757633460242  0.4423667962450097
  0.2231158451316770  0.2541210475644658  0.4439443373921014
  0.2619656227443285  0.0296387676330562  0.4440960690616110
  0.9491473735682023  0.2208273425430327  0.4424549784879916
  0.7763342014608106  0.7452258866117073  0.4436434939910707
  0.7320633016082425  0.0460854029525938  0.3870956340770100
  0.9616834209235029  0.7161364976748297  0.3856218498818651
  0.3024713178167483  0.2551597668334115  0.3868448383890231
  0.2680223479457378  0.9539096995007325  0.3871246182836742
  0.0383127857905782  0.2837827569391977  0.3857047452216684
  0.6966101104511404  0.7440023635662457  0.3870960873180598
  0.8102223361163285  0.1160740256162687  0.4448468538829414
  0.9137976996392591  0.7533650651237085  0.4435438460141958
  0.2894392623748619  0.1755361259800834  0.4449853583970690
  0.1897971383113885  0.8839631100223388  0.4448171124151230
  0.0861154721257008  0.2464562717039711  0.4436271594273133
  0.7102569701511823  0.8240569405533462  0.4447891901529493
  0.7584669912338233  0.1034534019041188  0.4092439332801058
  0.9068846135873602  0.7036215902698432  0.4080810692361962
  0.3308033335788016  0.2262745861777211  0.4092723202816871
  0.2415733954818748  0.8965535904323462  0.4092793847746458
  0.0931069860973884  0.2962354276082235  0.4081638002854311
  0.6685403647691081  0.7731175151212254  0.4095783689341649
  0.8078352922713169  0.1407343763135710  0.5006215767725258
  0.8847572362035310  0.7324906237383170  0.4994209640121790
  0.3159907181694372  0.1765044176158603  0.5007915858497005
  0.1921211978968748  0.8592988609924777  0.5006264564142688
  0.1151840961331330  0.2673188549280124  0.4994882384024761
  0.6841855946496868  0.8235454436169509  0.5007861083767406
  0.8142427688582234  0.0663539761110755  0.5566093900924339
  0.9726290172424604  0.7949264922927829  0.5551378955909898
  0.2373530402848459  0.1751608670026912  0.5567741248558392
  0.1857165698449357  0.9337191027063936  0.5565488189680243
  0.0272795606185641  0.2049620409757807  0.5552288262622284
  0.7631844395402387  0.8250967699147544  0.5562274836884129
  0.8099821812727547  0.1160770103157626  0.5565029083181769
  0.9140532844551170  0.7532134628859978  0.5551960549746749
  0.2899645176222657  0.1762341007016439  0.5567347720803270
  0.1899423244797570  0.8839733205982779  0.5564891089351695
  0.0858910814374433  0.2466312363134916  0.5552715504285660
  0.7106397484344595  0.8241535357199370  0.5565449023816487
  0.7378792514141296  0.9703721983467922  0.5572704056165688
  0.0510613138261585  0.7790306607099631  0.5554396077902171
  0.2236330789396843  0.2548384191062650  0.5571082506868553
  0.2621158190673762  0.0296767101131010  0.5572292120023936
  0.9489381117710322  0.2210012036031588  0.5555307063629574
  0.7767109825848203  0.7452988456602493  0.5568175668612667
  0.7647919946085453  0.0221526289284850  0.5919150452701565
  0.0030056595635218  0.7713306535531441  0.5902702984904088
  0.2459491256560690  0.2258285572726552  0.5918156939133996
  0.2351478488205425  0.9779026430513084  0.5918859733674250
  0.9969745241373297  0.2286360105758115  0.5903400867752271
  0.7547678978585143  0.7746080152388238  0.5915405526902073
  0.6765179528554863  0.9361154960959083  0.5570865687567096
  0.0654511156011826  0.7347601900470202  0.5551940135695556
  0.2537325528363133  0.3161161842302058  0.5567065026808566
  0.3234651576695964  0.0638986858371972  0.5571110861174291
  0.9346235895578286  0.2653177417976242  0.5552771915536963
  0.7465073835389628  0.6840040589267342  0.5568752503674945
  0.6767817426868153  0.9361538349717767  0.4440234218992516
  0.0652303561926313  0.7349140952343468  0.4421531972381889
  0.2532097705278551  0.3154157650682203  0.4434940657040491
  0.3233166923126601  0.0638548155527130  0.4440462727294001
  0.9348210475149157  0.2651449823237303  0.4422452730558273
  0.7461251792205628  0.6839364422347393  0.4436508672531578
  0.6472953302063910  0.9136467360048731  0.5004902680915068
  0.0789619859427191  0.7180257360880630  0.4985633549852002
  0.2619314898952543  0.3456242356767248  0.4998891071990670
  0.3527474967397175  0.0863460269620048  0.5005338108756314
  0.9211234541815322  0.2820646597252042  0.4986413901890845
  0.7377945765751822  0.6540991699821589  0.5002656424809471
  0.6706323426928740  0.0116062026825799  0.3869573647623633
  0.9760880285746649  0.6718255967163511  0.3853978285094806
  0.3326504870466199  0.3165824282858146  0.3864118305908831
  0.3294537461906088  0.9883681042592615  0.3870377339239575
  0.0239952055019405  0.3281532072995338  0.3854838987260012
  0.6663251535571491  0.6825520472536977  0.3871278925089380
  0.6441449294671434  0.9542512381226897  0.4093431065605740
  0.0309541592379315  0.6841777955576099  0.4074991645490530
  0.3044672243901944  0.3456644369247309  0.4086271748600235
  0.3559616106852069  0.0457301046332988  0.4094266427948134
  0.9691620565464178  0.3158740243439879  0.4075860097256416
  0.6945729875991820  0.6535147523254681  0.4092858585889639
  0.6374183546158041  0.0354262907159744  0.4090120291390644
  0.9351951092886571  0.6163377852929125  0.4076383349169026
  0.3902735525679376  0.3473643864641541  0.4083440230409051
  0.3626231892865380  0.9645230100120724  0.4091602162155564
  0.0649179145631334  0.3836090075387503  0.4077003867383273
  0.6088652697348698  0.6520180720311249  0.4095819783174262
  0.7255994508866027  0.1216069691891676  0.4437364631615789
  0.8725843959793762  0.6527890126859891  0.4425332899190603
  0.3825497514757274  0.2570347719989550  0.4435379687538762
  0.2743877814751925  0.8783820264063384  0.4438356597545600
  0.1274513616211670  0.3470585612964593  0.4426167009107249
  0.6170541120061991  0.7426779879620957  0.4443359468958026
  0.7546190400796828  0.1435983474705430  0.5004268017175595
  0.8588207080881797  0.6693957909627741  0.4992811947940300
  0.3740406337069553  0.2278070724912435  0.5003492755448730
  0.2453112080543182  0.8564039245948926  0.5005208216127840
  0.1411937703581310  0.3304156652876609  0.4993573383892247
  0.6260817283773847  0.7723141827337510  0.5009754643888266
  0.6643549027551442  0.0871574142223286  0.4436015925110525
  0.8871318839094724  0.6087114149597358  0.4423500568958301
  0.4125042796312083  0.3183670382564392  0.4430797625184001
  0.3356350838040054  0.9127991563405270  0.4437660092652834
  0.1129853987053188  0.3911815858051406  0.4424100039904445
  0.5870114321924756  0.6813331424778506  0.4443534785043995
  0.7580746735981526  0.1034409422090352  0.5917898108290828
  0.9072612717912093  0.7033617390563627  0.5903127529108388
  0.3316660530959353  0.2274407989788235  0.5916323347571246
  0.2418063933020725  0.8965774886822249  0.5918313155275468
  0.0927486261044504  0.2965135751596578  0.5903961837458017
  0.6691391639286817  0.7732044757058462  0.5919447331472441
  0.7315884406451586  0.0460685080976760  0.6139526099461478
  0.9621602036878242  0.7158264156311706  0.6124738328072512
  0.3035310475935441  0.2565724738295160  0.6138144505567725
  0.2683000655275500  0.9539587409273388  0.6139913166146426
  0.0378752212561562  0.2841172637975937  0.6125499104958723
  0.6973405489660843  0.7441176612434177  0.6140672892820381
  0.7253801526101489  0.1216087706364937  0.5570201349607593
  0.8728452564371828  0.6526353326571233  0.5557850665955753
  0.3831012158315610  0.2577663861065154  0.5567669599990822
  0.2745041398371779  0.8783842679510946  0.5571188758162895
  0.1272142432543515  0.3472186937812674  0.5558627113378936
  0.6174112371218097  0.7427194909380451  0.5575703798158329
  0.6437520336931613  0.9542339099597503  0.5915015915785123
  0.0313304127595608  0.6839296875156853  0.5897733561927115
  0.3053402435010705  0.3468333543248491  0.5909545548945805
  0.3561797976385687  0.0457659798107218  0.5915951889271818
  0.9688088547202026  0.3161468388735112  0.5898340724918653
  0.6951716766619471  0.6536191571311526  0.5916132700306312
  0.6701557802773082  0.0115900533669164  0.6138268505576798
  0.9765424648075596  0.6715001376308611  0.6122399917909197
  0.3337267250861686  0.3180303788255204  0.6133898654274879
  0.3297465566928417  0.9884029750121975  0.6139337059979827
  0.0235638177571240  0.3284974877358434  0.6123065344366362
  0.6670619503923686  0.6826694031135735  0.6140944391943515
  0.5939377665253913  0.9165223715057845  0.5003048608275086
  0.0537677113397213  0.6550740089175957  0.4984211186674237
  0.3201153204338849  0.3969620455483060  0.4994550726440034
  0.4060961896361956  0.0834345600331353  0.5004300654852876
  0.9464109191447887  0.3450413986089285  0.4985004438857739
  0.6795625007629640  0.6028362305387364  0.5004285481621662
  0.5919938073450318  0.9414104877421853  0.4444475024909197
  0.0243455159154909  0.6343077417178318  0.4426120722926627
  0.3461470102712094  0.3969827629029347  0.4435698654328521
  0.4080704623409785  0.0585305273295804  0.4445964056204032
  0.9758333284019181  0.3657773424284129  0.4426867129980457
  0.6531130414253167  0.6024859724132337  0.4447215420967038
  0.5878574244369856  0.9911990829760875  0.4443118346520757
  0.9656256553743787  0.5927071118314801  0.4427417490202016
  0.3987630240904655  0.3980339952541495  0.4434443982143362
  0.4121711038343263  0.0087393667545496  0.4445133142005124
  0.0345583537280044  0.4073112856789260  0.4428123713763976
  0.6005671183619484  0.6015610507687478  0.4449733891192467
  0.5917568246593461  0.9413952625181173  0.5560837925331189
  0.0245659020100315  0.6341698928213872  0.5543252988156884
  0.3466918969365744  0.3976992920005699  0.5552060690449235
  0.4082073754076290  0.0585671329190537  0.5562204754674206
  0.9756254149218080  0.3659145386140692  0.5544029773350415
  0.6534759932957709  0.6025449082424278  0.5563626658104166
  0.6341471884711534  0.0758908162871647  0.5001740878630386
  0.8878922370229235  0.5827792437059536  0.4988323313710167
  0.4330714698205079  0.3485452474282618  0.4994779093628302
  0.3658050441704095  0.9240714040652600  0.5003721256006286
  0.1122724133887088  0.4171483927419061  0.4988877162962548
  0.5668471678312057  0.6515676348395543  0.5010090890835639
  0.6641252062871514  0.0871576608112858  0.5568989224888300
  0.8873421608952469  0.6085492422753204  0.5555160288748432
  0.4130505905315313  0.3191029660533901  0.5563336059799954
  0.3357616448396565  0.9128038469271743  0.5570650433421217
  0.1127799278744537  0.3913664634432136  0.5555866327965238
  0.5873549019735850  0.6813856577598182  0.5576047771805963
  0.6370564108644200  0.0354305640040124  0.5914803849552223
  0.9355705961028394  0.6161159403977237  0.5899070800507634
  0.3911512589895356  0.3485224416807574  0.5908359856082404
  0.3628356819027121  0.9645494953839916  0.5916471213392605
  0.0645975284142238  0.3838769580199597  0.5899664543421825
  0.6094494794750424  0.6521153547754622  0.5920780635054206
  0.5857057120236492  0.0160547383098205  0.5001198440169505
  0.9364318398001981  0.5718962243764054  0.4986153342710052
  0.4253659488918239  0.3989163578703450  0.4991998463654936
  0.4142563666531104  0.9838899779188922  0.5003414733279510
  0.0637804320716021  0.4281028986894159  0.4986712468831375
  0.5744386686945304  0.6011310613208587  0.5009157822781740
  0.5876220714152083  0.9911868136881461  0.5560295612114688
  0.9658533019221059  0.5925779612930905  0.5544004665449751
  0.3992836170679311  0.3987296907598654  0.5550855012361777
  0.4123116866440624  0.0087632314877163  0.5562208496963610
  0.0343609656721599  0.4074507029904585  0.5544621066907333
  0.6009420251726955  0.6016328836795000  0.5566017898419207
 
  0.00000000E+00  0.00000000E+00  0.00000000E+00
  0.00000000E+00  0.00000000E+00  0.00000000E+00
  0.00000000E+00  0.00000000E+00  0.00000000E+00
  0.00000000E+00  0.00000000E+00  0.00000000E+00
  0.00000000E+00  0.00000000E+00  0.00000000E+00
  0.00000000E+00  0.00000000E+00  0.00000000E+00
  0.00000000E+00  0.00000000E+00  0.00000000E+00
  0.00000000E+00  0.00000000E+00  0.00000000E+00
  0.00000000E+00  0.00000000E+00  0.00000000E+00
  0.00000000E+00  0.00000000E+00  0.00000000E+00
  0.00000000E+00  0.00000000E+00  0.00000000E+00
  0.00000000E+00  0.00000000E+00  0.00000000E+00
  0.00000000E+00  0.00000000E+00  0.00000000E+00
  0.00000000E+00  0.00000000E+00  0.00000000E+00
  0.00000000E+00  0.00000000E+00  0.00000000E+00
  0.00000000E+00  0.00000000E+00  0.00000000E+00
  0.00000000E+00  0.00000000E+00  0.00000000E+00
  0.00000000E+00  0.00000000E+00  0.00000000E+00
  0.00000000E+00  0.00000000E+00  0.00000000E+00
  0.00000000E+00  0.00000000E+00  0.00000000E+00
  0.00000000E+00  0.00000000E+00  0.00000000E+00
  0.00000000E+00  0.00000000E+00  0.00000000E+00
  0.00000000E+00  0.00000000E+00  0.00000000E+00
  0.00000000E+00  0.00000000E+00  0.00000000E+00
  0.00000000E+00  0.00000000E+00  0.00000000E+00
  0.00000000E+00  0.00000000E+00  0.00000000E+00
  0.00000000E+00  0.00000000E+00  0.00000000E+00
  0.00000000E+00  0.00000000E+00  0.00000000E+00
  0.00000000E+00  0.00000000E+00  0.00000000E+00
  0.00000000E+00  0.00000000E+00  0.00000000E+00
  0.00000000E+00  0.00000000E+00  0.00000000E+00
  0.00000000E+00  0.00000000E+00  0.00000000E+00
  0.00000000E+00  0.00000000E+00  0.00000000E+00
  0.00000000E+00  0.00000000E+00  0.00000000E+00
  0.00000000E+00  0.00000000E+00  0.00000000E+00
  0.00000000E+00  0.00000000E+00  0.00000000E+00
  0.00000000E+00  0.00000000E+00  0.00000000E+00
  0.00000000E+00  0.00000000E+00  0.00000000E+00
  0.00000000E+00  0.00000000E+00  0.00000000E+00
  0.00000000E+00  0.00000000E+00  0.00000000E+00
  0.00000000E+00  0.00000000E+00  0.00000000E+00
  0.00000000E+00  0.00000000E+00  0.00000000E+00
  0.00000000E+00  0.00000000E+00  0.00000000E+00
  0.00000000E+00  0.00000000E+00  0.00000000E+00
  0.00000000E+00  0.00000000E+00  0.00000000E+00
  0.00000000E+00  0.00000000E+00  0.00000000E+00
  0.00000000E+00  0.00000000E+00  0.00000000E+00
  0.00000000E+00  0.00000000E+00  0.00000000E+00
  0.00000000E+00  0.00000000E+00  0.00000000E+00
  0.00000000E+00  0.00000000E+00  0.00000000E+00
  0.00000000E+00  0.00000000E+00  0.00000000E+00
  0.00000000E+00  0.00000000E+00  0.00000000E+00
  0.00000000E+00  0.00000000E+00  0.00000000E+00
  0.00000000E+00  0.00000000E+00  0.00000000E+00
  0.00000000E+00  0.00000000E+00  0.00000000E+00
  0.00000000E+00  0.00000000E+00  0.00000000E+00
  0.00000000E+00  0.00000000E+00  0.00000000E+00
  0.00000000E+00  0.00000000E+00  0.00000000E+00
  0.00000000E+00  0.00000000E+00  0.00000000E+00
  0.00000000E+00  0.00000000E+00  0.00000000E+00
  0.00000000E+00  0.00000000E+00  0.00000000E+00
  0.00000000E+00  0.00000000E+00  0.00000000E+00
  0.00000000E+00  0.00000000E+00  0.00000000E+00
  0.00000000E+00  0.00000000E+00  0.00000000E+00
  0.00000000E+00  0.00000000E+00  0.00000000E+00
  0.00000000E+00  0.00000000E+00  0.00000000E+00
  0.00000000E+00  0.00000000E+00  0.00000000E+00
  0.00000000E+00  0.00000000E+00  0.00000000E+00
  0.00000000E+00  0.00000000E+00  0.00000000E+00
  0.00000000E+00  0.00000000E+00  0.00000000E+00
  0.00000000E+00  0.00000000E+00  0.00000000E+00
  0.00000000E+00  0.00000000E+00  0.00000000E+00
  0.00000000E+00  0.00000000E+00  0.00000000E+00
  0.00000000E+00  0.00000000E+00  0.00000000E+00
  0.00000000E+00  0.00000000E+00  0.00000000E+00
  0.00000000E+00  0.00000000E+00  0.00000000E+00
  0.00000000E+00  0.00000000E+00  0.00000000E+00
  0.00000000E+00  0.00000000E+00  0.00000000E+00
  0.00000000E+00  0.00000000E+00  0.00000000E+00
  0.00000000E+00  0.00000000E+00  0.00000000E+00
  0.00000000E+00  0.00000000E+00  0.00000000E+00
  0.00000000E+00  0.00000000E+00  0.00000000E+00
  0.00000000E+00  0.00000000E+00  0.00000000E+00
  0.00000000E+00  0.00000000E+00  0.00000000E+00
  0.00000000E+00  0.00000000E+00  0.00000000E+00
  0.00000000E+00  0.00000000E+00  0.00000000E+00
  0.00000000E+00  0.00000000E+00  0.00000000E+00
  0.00000000E+00  0.00000000E+00  0.00000000E+00
  0.00000000E+00  0.00000000E+00  0.00000000E+00
  0.00000000E+00  0.00000000E+00  0.00000000E+00
  0.00000000E+00  0.00000000E+00  0.00000000E+00
  0.00000000E+00  0.00000000E+00  0.00000000E+00
  0.00000000E+00  0.00000000E+00  0.00000000E+00
  0.00000000E+00  0.00000000E+00  0.00000000E+00
  0.00000000E+00  0.00000000E+00  0.00000000E+00
  0.00000000E+00  0.00000000E+00  0.00000000E+00
  0.00000000E+00  0.00000000E+00  0.00000000E+00
  0.00000000E+00  0.00000000E+00  0.00000000E+00
  0.00000000E+00  0.00000000E+00  0.00000000E+00
  0.00000000E+00  0.00000000E+00  0.00000000E+00
  0.00000000E+00  0.00000000E+00  0.00000000E+00
  0.00000000E+00  0.00000000E+00  0.00000000E+00
  0.00000000E+00  0.00000000E+00  0.00000000E+00
  0.00000000E+00  0.00000000E+00  0.00000000E+00
  0.00000000E+00  0.00000000E+00  0.00000000E+00
  0.00000000E+00  0.00000000E+00  0.00000000E+00
  0.00000000E+00  0.00000000E+00  0.00000000E+00
  0.00000000E+00  0.00000000E+00  0.00000000E+00
  0.00000000E+00  0.00000000E+00  0.00000000E+00
  0.00000000E+00  0.00000000E+00  0.00000000E+00
  0.00000000E+00  0.00000000E+00  0.00000000E+00
  0.00000000E+00  0.00000000E+00  0.00000000E+00
  0.00000000E+00  0.00000000E+00  0.00000000E+00
  0.00000000E+00  0.00000000E+00  0.00000000E+00
  0.00000000E+00  0.00000000E+00  0.00000000E+00
  0.00000000E+00  0.00000000E+00  0.00000000E+00
  0.00000000E+00  0.00000000E+00  0.00000000E+00
  0.00000000E+00  0.00000000E+00  0.00000000E+00
  0.00000000E+00  0.00000000E+00  0.00000000E+00
  0.00000000E+00  0.00000000E+00  0.00000000E+00
  0.00000000E+00  0.00000000E+00  0.00000000E+00
  0.00000000E+00  0.00000000E+00  0.00000000E+00
  0.00000000E+00  0.00000000E+00  0.00000000E+00
  0.00000000E+00  0.00000000E+00  0.00000000E+00
  0.00000000E+00  0.00000000E+00  0.00000000E+00
  0.00000000E+00  0.00000000E+00  0.00000000E+00
  0.00000000E+00  0.00000000E+00  0.00000000E+00
  0.00000000E+00  0.00000000E+00  0.00000000E+00
  0.00000000E+00  0.00000000E+00  0.00000000E+00
  0.00000000E+00  0.00000000E+00  0.00000000E+00
  0.00000000E+00  0.00000000E+00  0.00000000E+00
  0.00000000E+00  0.00000000E+00  0.00000000E+00
  0.00000000E+00  0.00000000E+00  0.00000000E+00
  0.00000000E+00  0.00000000E+00  0.00000000E+00
  0.00000000E+00  0.00000000E+00  0.00000000E+00
  0.00000000E+00  0.00000000E+00  0.00000000E+00
  0.00000000E+00  0.00000000E+00  0.00000000E+00
  0.00000000E+00  0.00000000E+00  0.00000000E+00
  0.00000000E+00  0.00000000E+00  0.00000000E+00
  0.00000000E+00  0.00000000E+00  0.00000000E+00
  0.00000000E+00  0.00000000E+00  0.00000000E+00
  0.00000000E+00  0.00000000E+00  0.00000000E+00
  0.00000000E+00  0.00000000E+00  0.00000000E+00
  0.00000000E+00  0.00000000E+00  0.00000000E+00
  0.00000000E+00  0.00000000E+00  0.00000000E+00
  0.00000000E+00  0.00000000E+00  0.00000000E+00
  0.00000000E+00  0.00000000E+00  0.00000000E+00
  0.00000000E+00  0.00000000E+00  0.00000000E+00
  0.00000000E+00  0.00000000E+00  0.00000000E+00
  0.00000000E+00  0.00000000E+00  0.00000000E+00
  0.00000000E+00  0.00000000E+00  0.00000000E+00
  0.00000000E+00  0.00000000E+00  0.00000000E+00
  0.00000000E+00  0.00000000E+00  0.00000000E+00
  0.00000000E+00  0.00000000E+00  0.00000000E+00
  0.00000000E+00  0.00000000E+00  0.00000000E+00
  0.00000000E+00  0.00000000E+00  0.00000000E+00
  0.00000000E+00  0.00000000E+00  0.00000000E+00
  0.00000000E+00  0.00000000E+00  0.00000000E+00
  0.00000000E+00  0.00000000E+00  0.00000000E+00
  0.00000000E+00  0.00000000E+00  0.00000000E+00
  0.00000000E+00  0.00000000E+00  0.00000000E+00
  0.00000000E+00  0.00000000E+00  0.00000000E+00
  0.00000000E+00  0.00000000E+00  0.00000000E+00
  0.00000000E+00  0.00000000E+00  0.00000000E+00
  0.00000000E+00  0.00000000E+00  0.00000000E+00
  0.00000000E+00  0.00000000E+00  0.00000000E+00
  0.00000000E+00  0.00000000E+00  0.00000000E+00
  0.00000000E+00  0.00000000E+00  0.00000000E+00
  0.00000000E+00  0.00000000E+00  0.00000000E+00
  0.00000000E+00  0.00000000E+00  0.00000000E+00
  0.00000000E+00  0.00000000E+00  0.00000000E+00
  0.00000000E+00  0.00000000E+00  0.00000000E+00
  0.00000000E+00  0.00000000E+00  0.00000000E+00
  0.00000000E+00  0.00000000E+00  0.00000000E+00
  0.00000000E+00  0.00000000E+00  0.00000000E+00
  0.00000000E+00  0.00000000E+00  0.00000000E+00
  0.00000000E+00  0.00000000E+00  0.00000000E+00
  0.00000000E+00  0.00000000E+00  0.00000000E+00
  0.00000000E+00  0.00000000E+00  0.00000000E+00
  0.00000000E+00  0.00000000E+00  0.00000000E+00
  0.00000000E+00  0.00000000E+00  0.00000000E+00
  0.00000000E+00  0.00000000E+00  0.00000000E+00
  0.00000000E+00  0.00000000E+00  0.00000000E+00
  0.00000000E+00  0.00000000E+00  0.00000000E+00
  0.00000000E+00  0.00000000E+00  0.00000000E+00
  0.00000000E+00  0.00000000E+00  0.00000000E+00
  0.00000000E+00  0.00000000E+00  0.00000000E+00
  0.00000000E+00  0.00000000E+00  0.00000000E+00
  0.00000000E+00  0.00000000E+00  0.00000000E+00
  0.00000000E+00  0.00000000E+00  0.00000000E+00
  0.00000000E+00  0.00000000E+00  0.00000000E+00
  0.00000000E+00  0.00000000E+00  0.00000000E+00
  0.00000000E+00  0.00000000E+00  0.00000000E+00
  0.00000000E+00  0.00000000E+00  0.00000000E+00
  0.00000000E+00  0.00000000E+00  0.00000000E+00
  0.00000000E+00  0.00000000E+00  0.00000000E+00
  0.00000000E+00  0.00000000E+00  0.00000000E+00
  0.00000000E+00  0.00000000E+00  0.00000000E+00
  0.00000000E+00  0.00000000E+00  0.00000000E+00
  0.00000000E+00  0.00000000E+00  0.00000000E+00
  0.00000000E+00  0.00000000E+00  0.00000000E+00
  0.00000000E+00  0.00000000E+00  0.00000000E+00
  0.00000000E+00  0.00000000E+00  0.00000000E+00
  0.00000000E+00  0.00000000E+00  0.00000000E+00
  0.00000000E+00  0.00000000E+00  0.00000000E+00
  0.00000000E+00  0.00000000E+00  0.00000000E+00
  0.00000000E+00  0.00000000E+00  0.00000000E+00
  0.00000000E+00  0.00000000E+00  0.00000000E+00
  0.00000000E+00  0.00000000E+00  0.00000000E+00
  0.00000000E+00  0.00000000E+00  0.00000000E+00
  0.00000000E+00  0.00000000E+00  0.00000000E+00
  0.00000000E+00  0.00000000E+00  0.00000000E+00
  0.00000000E+00  0.00000000E+00  0.00000000E+00
  0.00000000E+00  0.00000000E+00  0.00000000E+00
  0.00000000E+00  0.00000000E+00  0.00000000E+00
  0.00000000E+00  0.00000000E+00  0.00000000E+00
  0.00000000E+00  0.00000000E+00  0.00000000E+00
  0.00000000E+00  0.00000000E+00  0.00000000E+00
  0.00000000E+00  0.00000000E+00  0.00000000E+00
  0.00000000E+00  0.00000000E+00  0.00000000E+00
  0.00000000E+00  0.00000000E+00  0.00000000E+00
  0.00000000E+00  0.00000000E+00  0.00000000E+00
  0.00000000E+00  0.00000000E+00  0.00000000E+00
  0.00000000E+00  0.00000000E+00  0.00000000E+00
  0.00000000E+00  0.00000000E+00  0.00000000E+00
  0.00000000E+00  0.00000000E+00  0.00000000E+00
  0.00000000E+00  0.00000000E+00  0.00000000E+00
  0.00000000E+00  0.00000000E+00  0.00000000E+00
  0.00000000E+00  0.00000000E+00  0.00000000E+00
  0.00000000E+00  0.00000000E+00  0.00000000E+00
  0.00000000E+00  0.00000000E+00  0.00000000E+00
  0.00000000E+00  0.00000000E+00  0.00000000E+00
  0.00000000E+00  0.00000000E+00  0.00000000E+00
  0.00000000E+00  0.00000000E+00  0.00000000E+00
  0.00000000E+00  0.00000000E+00  0.00000000E+00
  0.00000000E+00  0.00000000E+00  0.00000000E+00
  0.00000000E+00  0.00000000E+00  0.00000000E+00
  0.00000000E+00  0.00000000E+00  0.00000000E+00
  0.00000000E+00  0.00000000E+00  0.00000000E+00
  0.00000000E+00  0.00000000E+00  0.00000000E+00
  0.00000000E+00  0.00000000E+00  0.00000000E+00
  0.00000000E+00  0.00000000E+00  0.00000000E+00
  0.00000000E+00  0.00000000E+00  0.00000000E+00
  0.00000000E+00  0.00000000E+00  0.00000000E+00
  0.00000000E+00  0.00000000E+00  0.00000000E+00
  0.00000000E+00  0.00000000E+00  0.00000000E+00
  0.00000000E+00  0.00000000E+00  0.00000000E+00
  0.00000000E+00  0.00000000E+00  0.00000000E+00
  0.00000000E+00  0.00000000E+00  0.00000000E+00
  0.00000000E+00  0.00000000E+00  0.00000000E+00
  0.00000000E+00  0.00000000E+00  0.00000000E+00
  0.00000000E+00  0.00000000E+00  0.00000000E+00
  0.00000000E+00  0.00000000E+00  0.00000000E+00
  0.00000000E+00  0.00000000E+00  0.00000000E+00
  0.00000000E+00  0.00000000E+00  0.00000000E+00
  0.00000000E+00  0.00000000E+00  0.00000000E+00
  0.00000000E+00  0.00000000E+00  0.00000000E+00
  0.00000000E+00  0.00000000E+00  0.00000000E+00
  0.00000000E+00  0.00000000E+00  0.00000000E+00
  0.00000000E+00  0.00000000E+00  0.00000000E+00
  0.00000000E+00  0.00000000E+00  0.00000000E+00
  0.00000000E+00  0.00000000E+00  0.00000000E+00
  0.00000000E+00  0.00000000E+00  0.00000000E+00
  0.00000000E+00  0.00000000E+00  0.00000000E+00
  0.00000000E+00  0.00000000E+00  0.00000000E+00
  0.00000000E+00  0.00000000E+00  0.00000000E+00
  0.00000000E+00  0.00000000E+00  0.00000000E+00
  0.00000000E+00  0.00000000E+00  0.00000000E+00
  0.00000000E+00  0.00000000E+00  0.00000000E+00
  0.00000000E+00  0.00000000E+00  0.00000000E+00
  0.00000000E+00  0.00000000E+00  0.00000000E+00
  0.00000000E+00  0.00000000E+00  0.00000000E+00
  0.00000000E+00  0.00000000E+00  0.00000000E+00
  0.00000000E+00  0.00000000E+00  0.00000000E+00
  0.00000000E+00  0.00000000E+00  0.00000000E+00
  0.00000000E+00  0.00000000E+00  0.00000000E+00
  0.00000000E+00  0.00000000E+00  0.00000000E+00
  0.00000000E+00  0.00000000E+00  0.00000000E+00
  0.00000000E+00  0.00000000E+00  0.00000000E+00
  0.00000000E+00  0.00000000E+00  0.00000000E+00
  0.00000000E+00  0.00000000E+00  0.00000000E+00
  0.00000000E+00  0.00000000E+00  0.00000000E+00
  0.00000000E+00  0.00000000E+00  0.00000000E+00
  0.00000000E+00  0.00000000E+00  0.00000000E+00
  0.00000000E+00  0.00000000E+00  0.00000000E+00
  0.00000000E+00  0.00000000E+00  0.00000000E+00
  0.00000000E+00  0.00000000E+00  0.00000000E+00
  0.00000000E+00  0.00000000E+00  0.00000000E+00
  0.00000000E+00  0.00000000E+00  0.00000000E+00
  0.00000000E+00  0.00000000E+00  0.00000000E+00
  0.00000000E+00  0.00000000E+00  0.00000000E+00
  0.00000000E+00  0.00000000E+00  0.00000000E+00
  0.00000000E+00  0.00000000E+00  0.00000000E+00
  0.00000000E+00  0.00000000E+00  0.00000000E+00
  0.00000000E+00  0.00000000E+00  0.00000000E+00
  0.00000000E+00  0.00000000E+00  0.00000000E+00
  0.00000000E+00  0.00000000E+00  0.00000000E+00
  0.00000000E+00  0.00000000E+00  0.00000000E+00
  0.00000000E+00  0.00000000E+00  0.00000000E+00
  0.00000000E+00  0.00000000E+00  0.00000000E+00
  0.00000000E+00  0.00000000E+00  0.00000000E+00
  0.00000000E+00  0.00000000E+00  0.00000000E+00
  0.00000000E+00  0.00000000E+00  0.00000000E+00
  0.00000000E+00  0.00000000E+00  0.00000000E+00
  0.00000000E+00  0.00000000E+00  0.00000000E+00
  0.00000000E+00  0.00000000E+00  0.00000000E+00
  0.00000000E+00  0.00000000E+00  0.00000000E+00
  0.00000000E+00  0.00000000E+00  0.00000000E+00
  0.00000000E+00  0.00000000E+00  0.00000000E+00
  0.00000000E+00  0.00000000E+00  0.00000000E+00
  0.00000000E+00  0.00000000E+00  0.00000000E+00
  0.00000000E+00  0.00000000E+00  0.00000000E+00
  0.00000000E+00  0.00000000E+00  0.00000000E+00
  0.00000000E+00  0.00000000E+00  0.00000000E+00
  0.00000000E+00  0.00000000E+00  0.00000000E+00
  0.00000000E+00  0.00000000E+00  0.00000000E+00
  0.00000000E+00  0.00000000E+00  0.00000000E+00
  0.00000000E+00  0.00000000E+00  0.00000000E+00
  0.00000000E+00  0.00000000E+00  0.00000000E+00
  0.00000000E+00  0.00000000E+00  0.00000000E+00
  0.00000000E+00  0.00000000E+00  0.00000000E+00
  0.00000000E+00  0.00000000E+00  0.00000000E+00
  0.00000000E+00  0.00000000E+00  0.00000000E+00
  0.00000000E+00  0.00000000E+00  0.00000000E+00
  0.00000000E+00  0.00000000E+00  0.00000000E+00
  0.00000000E+00  0.00000000E+00  0.00000000E+00
  0.00000000E+00  0.00000000E+00  0.00000000E+00
  0.00000000E+00  0.00000000E+00  0.00000000E+00
  0.00000000E+00  0.00000000E+00  0.00000000E+00
  0.00000000E+00  0.00000000E+00  0.00000000E+00
  0.00000000E+00  0.00000000E+00  0.00000000E+00
  0.00000000E+00  0.00000000E+00  0.00000000E+00
  0.00000000E+00  0.00000000E+00  0.00000000E+00
  0.00000000E+00  0.00000000E+00  0.00000000E+00
  0.00000000E+00  0.00000000E+00  0.00000000E+00
  0.00000000E+00  0.00000000E+00  0.00000000E+00
