Generated by VASPKIT code               
   1.00000000000000     
    16.1148574211281783   -0.0021421515246592    0.0000000000000000
    -0.0018500912933707   16.0780828515161893    0.0000000000000000
     0.0000000000000014    0.0000000000000014   21.9570472059150745
  C             
   132
Direct
  0.3942924668709332  0.6756882195598883  0.5571407379457334
  0.4600941376041131  0.6677799945112922  0.6017227504851425
  0.4412793898991613  0.5972845990039202  0.6406270605972576
  0.3349561605470959  0.6108638894738929  0.5686238794289412
  0.3634557714527595  0.5620872588992107  0.6201602521849364
  0.2996467082042966  0.5719597593068725  0.5183509011150013
  0.3140942636130802  0.5976950584068106  0.4560581227376888
  0.4123778151657329  0.6957904029780412  0.4967891362502297
  0.3701977680169621  0.6609246836318508  0.4448906710205019
  0.4963422621630215  0.7086601905300940  0.4788316584824029
  0.5418908970785817  0.6825171621599444  0.5840931129671509
  0.5597091922972185  0.7033827471883231  0.5214479344837021
  0.6085889658101433  0.6303641037900923  0.6053154436927073
  0.5055668224437747  0.5447744335678009  0.6603923635500785
  0.5906065779619680  0.5617931431444514  0.6425704274047336
  0.4936502524122260  0.4551531363124443  0.6605676813541674
  0.3526163207750482  0.4757216912717928  0.6200495469037692
  0.4180666433504296  0.4211769636074834  0.6409124392446248
  0.2912099502468152  0.4834833243368884  0.5182756493549073
  0.3140895691687248  0.4360667660839617  0.5681907711664482
  0.3136663612643804  0.5248980454442526  0.4173683353324055
  0.2986658535431649  0.4544490778216245  0.4562728340057048
  0.3688030286170036  0.5174195986767971  0.3685358056925691
  0.4288664087749395  0.6535416537029377  0.3947805914689622
  0.5071501086186730  0.6862392376871143  0.4160777307035723
  0.4283737552952913  0.5833936406469608  0.3571572835964361
  0.5826062908950669  0.6520402506234111  0.3980391514269452
  0.6376417657986359  0.6699918031952697  0.5033121430909381
  0.6668094791797842  0.6224913629236704  0.5551091967335018
  0.6480967563400862  0.6434402905325300  0.4427606402488142
  0.7013339007349347  0.5455504822964166  0.5437273134696192
  0.6311971176779639  0.4825802147030145  0.6314642027694662
  0.5716252443113664  0.4166070837144060  0.6428434530043124
  0.6863330956884472  0.4751014743352220  0.5826316560888813
  0.5711326320575539  0.3464578376134078  0.6052193182881809
  0.4173934659536997  0.3479587961283576  0.6019610584675746
  0.3519026771616188  0.3565589274451191  0.5572393397074157
  0.4928483757288010  0.3137605698455927  0.5839226044007662
  0.3331903426176380  0.3775084073711440  0.4448907242041470
  0.3623583204449699  0.3300084632045538  0.4966881332810111
  0.4093933406049883  0.4382064669067688  0.3574296432966657
  0.3914113805578721  0.3696361022104671  0.3946846511560563
  0.5063494571044285  0.5448464732658443  0.3394320138385038
  0.5819331567997428  0.5788222553225105  0.3590874598565889
  0.4944329585014087  0.4552251060685552  0.3396074742986575
  0.6859111945618345  0.5639326752204326  0.4318091137676291
  0.7087898293739826  0.5165161916005532  0.4817243392990908
  0.6473838425392835  0.5242778082732059  0.3799501665790101
  0.6859054265266499  0.4023042474659094  0.5439418820400765
  0.6298012621566597  0.3390753814936935  0.5551102623931360
  0.7003533366682324  0.4280397502304592  0.4816491448875613
  0.5036579902879573  0.2913401586059166  0.5211683590336637
  0.4402904933219127  0.2966179288136134  0.4785520240929460
  0.4581091120295308  0.3174828788812133  0.4159068664444849
  0.5876222728021392  0.3042099885184809  0.5032107519902025
  0.5587204537824264  0.4027152045916869  0.3593728560236611
  0.6365439735899594  0.4379119812593994  0.3798397078242044
  0.6650436852017344  0.3891360088844104  0.4313761264310179
  0.5399058327539020  0.3322198367882581  0.3982772996790655
  0.6057077573713417  0.3243116447192564  0.4428592924461590
  0.3405579188913267  0.9168369826126410  0.5321825434987209
  0.0827338121172490  0.3412352737232540  0.5333468811364307
  0.3365855785372636  0.9924025060497211  0.5649745821752904
  0.0069232605412930  0.3363577434457726  0.5652670908835140
  0.4100538282423783  0.9959730686830958  0.6068062354751225
  0.0020185592009927  0.4102606373571808  0.6069238558083109
  0.4175517895939180  0.8751527954368303  0.5525895583597161
  0.1233174949378369  0.4185997123031044  0.5541601102515168
  0.4582504147539933  0.9221816967853909  0.5991681729090333
  0.0756136827362004  0.4591390319874029  0.6001145698505259
  0.4629986350646336  0.8524223324425886  0.4999365438932332
  0.1478723846281904  0.4641691726535633  0.5019414233920176
  0.3408042038953591  0.9170249297294472  0.4673863098439181
  0.0844603045621572  0.3411686414312666  0.4685517962100166
  0.4180764026635785  0.8754645040579806  0.4471907275568310
  0.1257927596175056  0.4187722595677240  0.4489562755963636
  0.3369835702807951  0.9923784181472163  0.4345626422826437
  0.0101297493556408  0.3364917539820924  0.4347887452618716
  0.3334499286415734  0.0678025943808084  0.5321865449047797
  0.9324447502089876  0.3324818524491115  0.5314808462080489
  0.3336036967530285  0.0677712511884289  0.4673536340932324
  0.9340904399379244  0.3325182864185883  0.4666510805274117
  0.4509858458222085  0.0741204789959579  0.5991504663792717
  0.9242118437853544  0.4507060376471221  0.5981771493342120
  0.4058342212012025  0.1174655268438347  0.5528087334855035
  0.8824004245342062  0.4049505835929952  0.5512514752047756
  0.5407642554215574  0.0780103032794549  0.5993030211525823
  0.9196850507792523  0.5406630462492364  0.5982703504838131
  0.5479732254955733  0.9262246906499765  0.5993196305754400
  0.0711000889241428  0.5491177865228031  0.6001137615114882
  0.5889035566448511  0.0041570874346970  0.6070116478870057
  0.9928258942650876  0.5895271336645386  0.6069660317377622
  0.5511414224641410  0.8558715732806309  0.4999893457259119
  0.1440430000612578  0.5525924029165317  0.5019153963063375
  0.5934444949671377  0.8834384706909894  0.5528312947404941
  0.1147541314286740  0.5949280544609350  0.5543074671205014
  0.5941683744471007  0.8825328065412983  0.4471907163312538
  0.1175947950526599  0.5950477843884088  0.4487499045966701
  0.4592386002422314  0.9219903723450037  0.4006964814777556
  0.0803146709144638  0.4593330178047035  0.4017297493264577
  0.4110995437351612  0.9958438135509686  0.3929897723073750
  0.0071741972081250  0.4104690274260842  0.3930316410317485
  0.5490173241885011  0.9258804465535436  0.4008499881586428
  0.0757878479133285  0.5492900868653470  0.4018223102429370
  0.4065577859776275  0.1165592458904439  0.4471696222326573
  0.8852410127364543  0.4050700547542035  0.4456907710133450
  0.4488613438787421  0.1441285300359603  0.5000107820170420
  0.8559553404608686  0.4474041077160354  0.4980845626689531
  0.4520295125090216  0.0737760336480322  0.4006798305793531
  0.9288992867837484  0.4508785978125826  0.3998863453387769
  0.5819262951312114  0.1245389260809415  0.5528098597124639
  0.8742101194766954  0.5812263677974460  0.5510429848506211
  0.5370040781376989  0.1475787046806377  0.5000633934721130
  0.8521291737597403  0.5358280480223804  0.4980584731764690
  0.6630148441720951  0.0076220581319474  0.5654381313492973
  0.9898688525463113  0.6635125297561616  0.5652092480748236
  0.6663931824098310  0.9322286677381840  0.5326467404558528
  0.0659063882799585  0.6674879197218654  0.5333480348105846
  0.6665474126738398  0.9321972926430820  0.4678133322563843
  0.0675521167009032  0.6675244395056846  0.4685200506391405
  0.6591932765426196  0.0829760174750830  0.5326139480430797
  0.9155404041097925  0.6588370186146717  0.5314468851880038
  0.5899491498751744  0.0040281030715356  0.3931925484864662
  0.9979819997441646  0.5897357037214489  0.3930787962502063
  0.5417527291775308  0.0778192364476508  0.4008321829921894
  0.9243864536503500  0.5408566308051599  0.3998850318754417
  0.5824506321994419  0.1248499823206725  0.4474097646239119
  0.8766855094536057  0.5813990411384785  0.4458409908386977
  0.6634119854276267  0.0075977105681707  0.4350234323549500
  0.9930755385802492  0.6636463473622497  0.4347351684939754
  0.6594395159030506  0.0831636313255805  0.4678170109010664
  0.9172664127215032  0.6587702418779242  0.4666540803379194
 
  0.00000000E+00  0.00000000E+00  0.00000000E+00
  0.00000000E+00  0.00000000E+00  0.00000000E+00
  0.00000000E+00  0.00000000E+00  0.00000000E+00
  0.00000000E+00  0.00000000E+00  0.00000000E+00
  0.00000000E+00  0.00000000E+00  0.00000000E+00
  0.00000000E+00  0.00000000E+00  0.00000000E+00
  0.00000000E+00  0.00000000E+00  0.00000000E+00
  0.00000000E+00  0.00000000E+00  0.00000000E+00
  0.00000000E+00  0.00000000E+00  0.00000000E+00
  0.00000000E+00  0.00000000E+00  0.00000000E+00
  0.00000000E+00  0.00000000E+00  0.00000000E+00
  0.00000000E+00  0.00000000E+00  0.00000000E+00
  0.00000000E+00  0.00000000E+00  0.00000000E+00
  0.00000000E+00  0.00000000E+00  0.00000000E+00
  0.00000000E+00  0.00000000E+00  0.00000000E+00
  0.00000000E+00  0.00000000E+00  0.00000000E+00
  0.00000000E+00  0.00000000E+00  0.00000000E+00
  0.00000000E+00  0.00000000E+00  0.00000000E+00
  0.00000000E+00  0.00000000E+00  0.00000000E+00
  0.00000000E+00  0.00000000E+00  0.00000000E+00
  0.00000000E+00  0.00000000E+00  0.00000000E+00
  0.00000000E+00  0.00000000E+00  0.00000000E+00
  0.00000000E+00  0.00000000E+00  0.00000000E+00
  0.00000000E+00  0.00000000E+00  0.00000000E+00
  0.00000000E+00  0.00000000E+00  0.00000000E+00
  0.00000000E+00  0.00000000E+00  0.00000000E+00
  0.00000000E+00  0.00000000E+00  0.00000000E+00
  0.00000000E+00  0.00000000E+00  0.00000000E+00
  0.00000000E+00  0.00000000E+00  0.00000000E+00
  0.00000000E+00  0.00000000E+00  0.00000000E+00
  0.00000000E+00  0.00000000E+00  0.00000000E+00
  0.00000000E+00  0.00000000E+00  0.00000000E+00
  0.00000000E+00  0.00000000E+00  0.00000000E+00
  0.00000000E+00  0.00000000E+00  0.00000000E+00
  0.00000000E+00  0.00000000E+00  0.00000000E+00
  0.00000000E+00  0.00000000E+00  0.00000000E+00
  0.00000000E+00  0.00000000E+00  0.00000000E+00
  0.00000000E+00  0.00000000E+00  0.00000000E+00
  0.00000000E+00  0.00000000E+00  0.00000000E+00
  0.00000000E+00  0.00000000E+00  0.00000000E+00
  0.00000000E+00  0.00000000E+00  0.00000000E+00
  0.00000000E+00  0.00000000E+00  0.00000000E+00
  0.00000000E+00  0.00000000E+00  0.00000000E+00
  0.00000000E+00  0.00000000E+00  0.00000000E+00
  0.00000000E+00  0.00000000E+00  0.00000000E+00
  0.00000000E+00  0.00000000E+00  0.00000000E+00
  0.00000000E+00  0.00000000E+00  0.00000000E+00
  0.00000000E+00  0.00000000E+00  0.00000000E+00
  0.00000000E+00  0.00000000E+00  0.00000000E+00
  0.00000000E+00  0.00000000E+00  0.00000000E+00
  0.00000000E+00  0.00000000E+00  0.00000000E+00
  0.00000000E+00  0.00000000E+00  0.00000000E+00
  0.00000000E+00  0.00000000E+00  0.00000000E+00
  0.00000000E+00  0.00000000E+00  0.00000000E+00
  0.00000000E+00  0.00000000E+00  0.00000000E+00
  0.00000000E+00  0.00000000E+00  0.00000000E+00
  0.00000000E+00  0.00000000E+00  0.00000000E+00
  0.00000000E+00  0.00000000E+00  0.00000000E+00
  0.00000000E+00  0.00000000E+00  0.00000000E+00
  0.00000000E+00  0.00000000E+00  0.00000000E+00
  0.00000000E+00  0.00000000E+00  0.00000000E+00
  0.00000000E+00  0.00000000E+00  0.00000000E+00
  0.00000000E+00  0.00000000E+00  0.00000000E+00
  0.00000000E+00  0.00000000E+00  0.00000000E+00
  0.00000000E+00  0.00000000E+00  0.00000000E+00
  0.00000000E+00  0.00000000E+00  0.00000000E+00
  0.00000000E+00  0.00000000E+00  0.00000000E+00
  0.00000000E+00  0.00000000E+00  0.00000000E+00
  0.00000000E+00  0.00000000E+00  0.00000000E+00
  0.00000000E+00  0.00000000E+00  0.00000000E+00
  0.00000000E+00  0.00000000E+00  0.00000000E+00
  0.00000000E+00  0.00000000E+00  0.00000000E+00
  0.00000000E+00  0.00000000E+00  0.00000000E+00
  0.00000000E+00  0.00000000E+00  0.00000000E+00
  0.00000000E+00  0.00000000E+00  0.00000000E+00
  0.00000000E+00  0.00000000E+00  0.00000000E+00
  0.00000000E+00  0.00000000E+00  0.00000000E+00
  0.00000000E+00  0.00000000E+00  0.00000000E+00
  0.00000000E+00  0.00000000E+00  0.00000000E+00
  0.00000000E+00  0.00000000E+00  0.00000000E+00
  0.00000000E+00  0.00000000E+00  0.00000000E+00
  0.00000000E+00  0.00000000E+00  0.00000000E+00
  0.00000000E+00  0.00000000E+00  0.00000000E+00
  0.00000000E+00  0.00000000E+00  0.00000000E+00
  0.00000000E+00  0.00000000E+00  0.00000000E+00
  0.00000000E+00  0.00000000E+00  0.00000000E+00
  0.00000000E+00  0.00000000E+00  0.00000000E+00
  0.00000000E+00  0.00000000E+00  0.00000000E+00
  0.00000000E+00  0.00000000E+00  0.00000000E+00
  0.00000000E+00  0.00000000E+00  0.00000000E+00
  0.00000000E+00  0.00000000E+00  0.00000000E+00
  0.00000000E+00  0.00000000E+00  0.00000000E+00
  0.00000000E+00  0.00000000E+00  0.00000000E+00
  0.00000000E+00  0.00000000E+00  0.00000000E+00
  0.00000000E+00  0.00000000E+00  0.00000000E+00
  0.00000000E+00  0.00000000E+00  0.00000000E+00
  0.00000000E+00  0.00000000E+00  0.00000000E+00
  0.00000000E+00  0.00000000E+00  0.00000000E+00
  0.00000000E+00  0.00000000E+00  0.00000000E+00
  0.00000000E+00  0.00000000E+00  0.00000000E+00
  0.00000000E+00  0.00000000E+00  0.00000000E+00
  0.00000000E+00  0.00000000E+00  0.00000000E+00
  0.00000000E+00  0.00000000E+00  0.00000000E+00
  0.00000000E+00  0.00000000E+00  0.00000000E+00
  0.00000000E+00  0.00000000E+00  0.00000000E+00
  0.00000000E+00  0.00000000E+00  0.00000000E+00
  0.00000000E+00  0.00000000E+00  0.00000000E+00
  0.00000000E+00  0.00000000E+00  0.00000000E+00
  0.00000000E+00  0.00000000E+00  0.00000000E+00
  0.00000000E+00  0.00000000E+00  0.00000000E+00
  0.00000000E+00  0.00000000E+00  0.00000000E+00
  0.00000000E+00  0.00000000E+00  0.00000000E+00
  0.00000000E+00  0.00000000E+00  0.00000000E+00
  0.00000000E+00  0.00000000E+00  0.00000000E+00
  0.00000000E+00  0.00000000E+00  0.00000000E+00
  0.00000000E+00  0.00000000E+00  0.00000000E+00
  0.00000000E+00  0.00000000E+00  0.00000000E+00
  0.00000000E+00  0.00000000E+00  0.00000000E+00
  0.00000000E+00  0.00000000E+00  0.00000000E+00
  0.00000000E+00  0.00000000E+00  0.00000000E+00
  0.00000000E+00  0.00000000E+00  0.00000000E+00
  0.00000000E+00  0.00000000E+00  0.00000000E+00
  0.00000000E+00  0.00000000E+00  0.00000000E+00
  0.00000000E+00  0.00000000E+00  0.00000000E+00
  0.00000000E+00  0.00000000E+00  0.00000000E+00
  0.00000000E+00  0.00000000E+00  0.00000000E+00
  0.00000000E+00  0.00000000E+00  0.00000000E+00
  0.00000000E+00  0.00000000E+00  0.00000000E+00
  0.00000000E+00  0.00000000E+00  0.00000000E+00
  0.00000000E+00  0.00000000E+00  0.00000000E+00
  0.00000000E+00  0.00000000E+00  0.00000000E+00
  0.00000000E+00  0.00000000E+00  0.00000000E+00
