C                                       
   1.00000000000000     
    11.5201015796760533    0.1653630906867511    0.0000000000000000
     0.1420996975518808    9.4950500251171288    0.0000000000000000
     0.0000000000000000    0.0000000000000000   16.0000000000000000
  C             
    84
Direct
  0.4358817314116176  0.6013614324455482  0.3598030123947691
  0.5584508133157723  0.5493562828667410  0.3596348912654852
  0.3580884297240696  0.5046737267021787  0.3861744991710026
  0.5628693719187233  0.4003016413920492  0.4007648701127757
  0.4362122674351958  0.3867281053673979  0.4218748298502912
  0.2705004081627251  0.5617512668329144  0.4537612612067591
  0.3164926186118429  0.4632838359129546  0.5212284218590685
  0.4356783852273660  0.4296349245561357  0.5107105582993826
  0.3138336687118892  0.7119790863745959  0.4724666625102670
  0.4209072244527017  0.7206067750052251  0.4162625427946340
  0.5295307952456462  0.7414307039278766  0.4469743180736001
  0.3576960861557476  0.6851820288541484  0.5625234092074684
  0.4599794828533466  0.7258371640029254  0.5970804646903575
  0.5610616511533404  0.7776652107751326  0.5378898160282338
  0.3088733458044934  0.5492006473475578  0.5991778751989513
  0.6860345545825491  0.5856528904192587  0.4807223910694801
  0.6169882028769855  0.6479400830689352  0.4083981041179516
  0.6309223169367031  0.6496802618943787  0.5542585250012548
  0.6137946035234318  0.5571486994490323  0.6168189288993656
  0.5000057938158572  0.6010135950705219  0.6494118487078284
  0.4214785265995411  0.4924777252327010  0.6471794756205931
  0.6455838426572930  0.4384806462526896  0.4775376189048223
  0.6210175508695847  0.4084310497596202  0.5735667794228442
  0.4904445524988136  0.4010973465308564  0.5830508436200001
  0.2868169547473374  0.2215538664538028  0.5768781270181201
  0.3823806626425663  0.1319822842226757  0.5695616095435536
  0.1849182172427542  0.1413124120643498  0.5889042044333440
  0.2091838210561840  0.9986209673061259  0.5921384739521752
  0.3347361047914617  0.9932080503668810  0.5773409886063380
  0.0957191353935417  0.1926431625546483  0.5306121472065516
  0.0663874685333668  0.0397423281422273  0.4797433208217382
  0.1405125627324756  0.9138555043062155  0.5284660135850238
  0.1550034986746930  0.2855418828984360  0.4624579425740855
  0.1829697692451953  0.1921689478369288  0.3896381604740554
  0.1403246076247719  0.0539550371312097  0.4033263294039854
  0.2738475893228155  0.3160035038343620  0.5028285349500203
  0.3686342699774101  0.2576507505868640  0.4366748451511464
  0.3032138765456670  0.1781158973228814  0.3727916056476964
  0.4389346132055993  0.1478806884324138  0.4847399011062551
  0.4281683720127529  0.0052912999900894  0.4412993924157295
  0.3365995940182283  0.0320347800459640  0.3751973107778832
  0.2324479917338584  0.9542804234403289  0.3931581627043010
  0.2479264341966351  0.8596478057720287  0.4684529262020750
  0.3520769690866855  0.9325323748176699  0.5019637835981821
  0.8929716310438045  0.4689892891807456  0.6457573000350091
  0.0047179765810166  0.5043669304793861  0.6758103052856329
  0.9075160128455770  0.3568427119215412  0.5799928476535416
  0.0401611552259143  0.3398800315535024  0.5651176084424634
  0.0937025916073247  0.4395755447278176  0.6289859242331447
  0.8788593958784132  0.4573105213757860  0.5048850957441436
  0.9645459107779426  0.4873561548014195  0.4506946587047561
  0.0776341753261349  0.4207622360946184  0.4788039466488169
  0.8086112503018681  0.5882697225382818  0.5225241300707839
  0.8657429382494741  0.7205525400670181  0.4905749344852265
  0.9664586381315564  0.6454078823729544  0.4450519525435945
  0.8360475229320018  0.5963120299249010  0.6167275269218264
  0.9048455162650618  0.7146394088421339  0.6354567564196528
  0.9303130229138538  0.8054812548400928  0.5611853101504864
  0.0110868096438773  0.6591694662762487  0.6709261465203292
  0.1046156965323424  0.6909809635054870  0.6216805250145520
  0.0662700187908344  0.7875373178795755  0.5493468320608493
  0.0691279697804271  0.6793027431927835  0.4790097663475832
  0.1477733044781866  0.5551253550537505  0.4910757757700217
  0.1737064979072820  0.5583712252259813  0.5992134142271640
  0.8067317548852231  0.0503260114096779  0.5860947902249125
  0.6854772009007938  0.0264439287112500  0.5735126300131097
  0.8686954287383792  0.9422855193120246  0.5321649915496366
  0.7783587248571808  0.8583741091753934  0.4777027860665837
  0.6441969100723710  0.9059840240863092  0.5174121310100149
  0.9341818544541899  0.0332413452880627  0.4669405528974995
  0.8653598101774260  0.0165845326670996  0.3832597246179748
  0.7729108477915394  0.9285658899518223  0.3948187737077766
  0.8814873262328581  0.1746966608896501  0.4874520490698632
  0.8257296657197425  0.2453427199219674  0.4233589437224059
  0.8088782506615004  0.1512831120600308  0.3557746737370611
  0.8353937753700345  0.2140363337304203  0.5711558316423055
  0.7081805005904707  0.2718824134929450  0.5562503270028827
  0.7195644847783241  0.3091286355651807  0.4596309195464516
  0.6339572485271473  0.1525679351896514  0.5506888195236767
  0.5664483815500723  0.1496099226736587  0.4733468266670961
  0.6240704955709804  0.2462989941931062  0.4056197946558964
  0.6857162340612873  0.1391146700439828  0.3481866612165183
  0.6632208826744398  0.9988811993150344  0.3735756262165731
  0.5777731653539019  0.9926272254571060  0.4427254494164837
 
  0.00000000E+00  0.00000000E+00  0.00000000E+00
  0.00000000E+00  0.00000000E+00  0.00000000E+00
  0.00000000E+00  0.00000000E+00  0.00000000E+00
  0.00000000E+00  0.00000000E+00  0.00000000E+00
  0.00000000E+00  0.00000000E+00  0.00000000E+00
  0.00000000E+00  0.00000000E+00  0.00000000E+00
  0.00000000E+00  0.00000000E+00  0.00000000E+00
  0.00000000E+00  0.00000000E+00  0.00000000E+00
  0.00000000E+00  0.00000000E+00  0.00000000E+00
  0.00000000E+00  0.00000000E+00  0.00000000E+00
  0.00000000E+00  0.00000000E+00  0.00000000E+00
  0.00000000E+00  0.00000000E+00  0.00000000E+00
  0.00000000E+00  0.00000000E+00  0.00000000E+00
  0.00000000E+00  0.00000000E+00  0.00000000E+00
  0.00000000E+00  0.00000000E+00  0.00000000E+00
  0.00000000E+00  0.00000000E+00  0.00000000E+00
  0.00000000E+00  0.00000000E+00  0.00000000E+00
  0.00000000E+00  0.00000000E+00  0.00000000E+00
  0.00000000E+00  0.00000000E+00  0.00000000E+00
  0.00000000E+00  0.00000000E+00  0.00000000E+00
  0.00000000E+00  0.00000000E+00  0.00000000E+00
  0.00000000E+00  0.00000000E+00  0.00000000E+00
  0.00000000E+00  0.00000000E+00  0.00000000E+00
  0.00000000E+00  0.00000000E+00  0.00000000E+00
  0.00000000E+00  0.00000000E+00  0.00000000E+00
  0.00000000E+00  0.00000000E+00  0.00000000E+00
  0.00000000E+00  0.00000000E+00  0.00000000E+00
  0.00000000E+00  0.00000000E+00  0.00000000E+00
  0.00000000E+00  0.00000000E+00  0.00000000E+00
  0.00000000E+00  0.00000000E+00  0.00000000E+00
  0.00000000E+00  0.00000000E+00  0.00000000E+00
  0.00000000E+00  0.00000000E+00  0.00000000E+00
  0.00000000E+00  0.00000000E+00  0.00000000E+00
  0.00000000E+00  0.00000000E+00  0.00000000E+00
  0.00000000E+00  0.00000000E+00  0.00000000E+00
  0.00000000E+00  0.00000000E+00  0.00000000E+00
  0.00000000E+00  0.00000000E+00  0.00000000E+00
  0.00000000E+00  0.00000000E+00  0.00000000E+00
  0.00000000E+00  0.00000000E+00  0.00000000E+00
  0.00000000E+00  0.00000000E+00  0.00000000E+00
  0.00000000E+00  0.00000000E+00  0.00000000E+00
  0.00000000E+00  0.00000000E+00  0.00000000E+00
  0.00000000E+00  0.00000000E+00  0.00000000E+00
  0.00000000E+00  0.00000000E+00  0.00000000E+00
  0.00000000E+00  0.00000000E+00  0.00000000E+00
  0.00000000E+00  0.00000000E+00  0.00000000E+00
  0.00000000E+00  0.00000000E+00  0.00000000E+00
  0.00000000E+00  0.00000000E+00  0.00000000E+00
  0.00000000E+00  0.00000000E+00  0.00000000E+00
  0.00000000E+00  0.00000000E+00  0.00000000E+00
  0.00000000E+00  0.00000000E+00  0.00000000E+00
  0.00000000E+00  0.00000000E+00  0.00000000E+00
  0.00000000E+00  0.00000000E+00  0.00000000E+00
  0.00000000E+00  0.00000000E+00  0.00000000E+00
  0.00000000E+00  0.00000000E+00  0.00000000E+00
  0.00000000E+00  0.00000000E+00  0.00000000E+00
  0.00000000E+00  0.00000000E+00  0.00000000E+00
  0.00000000E+00  0.00000000E+00  0.00000000E+00
  0.00000000E+00  0.00000000E+00  0.00000000E+00
  0.00000000E+00  0.00000000E+00  0.00000000E+00
  0.00000000E+00  0.00000000E+00  0.00000000E+00
  0.00000000E+00  0.00000000E+00  0.00000000E+00
  0.00000000E+00  0.00000000E+00  0.00000000E+00
  0.00000000E+00  0.00000000E+00  0.00000000E+00
  0.00000000E+00  0.00000000E+00  0.00000000E+00
  0.00000000E+00  0.00000000E+00  0.00000000E+00
  0.00000000E+00  0.00000000E+00  0.00000000E+00
  0.00000000E+00  0.00000000E+00  0.00000000E+00
  0.00000000E+00  0.00000000E+00  0.00000000E+00
  0.00000000E+00  0.00000000E+00  0.00000000E+00
  0.00000000E+00  0.00000000E+00  0.00000000E+00
  0.00000000E+00  0.00000000E+00  0.00000000E+00
  0.00000000E+00  0.00000000E+00  0.00000000E+00
  0.00000000E+00  0.00000000E+00  0.00000000E+00
  0.00000000E+00  0.00000000E+00  0.00000000E+00
  0.00000000E+00  0.00000000E+00  0.00000000E+00
  0.00000000E+00  0.00000000E+00  0.00000000E+00
  0.00000000E+00  0.00000000E+00  0.00000000E+00
  0.00000000E+00  0.00000000E+00  0.00000000E+00
  0.00000000E+00  0.00000000E+00  0.00000000E+00
  0.00000000E+00  0.00000000E+00  0.00000000E+00
  0.00000000E+00  0.00000000E+00  0.00000000E+00
  0.00000000E+00  0.00000000E+00  0.00000000E+00
  0.00000000E+00  0.00000000E+00  0.00000000E+00
