C                                       
   1.00000000000000     
    14.0278943780940022    0.1144891906454646    0.0000000000000000
    -6.9072382978968676   12.4460681656356424    0.0000000000000000
     0.0000000000000000    0.0000000000000000   16.0000000000000000
  C             
   108
Direct
  0.1952835277553064  0.0222251849442365  0.5006437998720324
  0.1323069681310040  0.9500150174654340  0.4275482140708959
  0.1776112158775386  0.1156396979978239  0.4977301539785124
  0.0735741381135307  0.0070845152377449  0.3823179696859730
  0.1013430341474608  0.1022624167638527  0.4287544283113621
  0.1311685512647059  0.1264137478320873  0.5709071983974124
  0.0470503642513458  0.1610092887865802  0.5543471896010796
  0.0197275705961181  0.1240848131677171  0.4616696395172328
  0.0858998705663501  0.0275880191367674  0.6186919926017006
  0.1244352616417142  0.9523666883574943  0.5870665330579742
  0.0353099467294336  0.8445109388959628  0.5465138995192342
  0.9757650977543998  0.9959008586049687  0.6330551279955002
  0.8909533981753263  0.8909792759628159  0.6036826785083743
  0.9158778567340670  0.8136841876766422  0.5624102725486477
  0.9500577947235226  0.0785982950806035  0.6019554841875654
  0.9402521100562156  0.8249906416475684  0.4131025308756949
  0.0345753991917677  0.8603414927684278  0.4561344787865627
  0.8667777998591474  0.8000279759776335  0.4833653280059411
  0.8012524294027402  0.8568396100711440  0.4707858792596886
  0.8172358128319068  0.9107625947302013  0.5549777774849221
  0.8660157756675583  0.0235323512696699  0.5447783789834341
  0.9591645775550491  0.9307745127229746  0.3780851795465675
  0.8781603419177060  0.9508998974035817  0.4134945026793216
  0.9098026717977951  0.0481317924289543  0.4573218114786730
  0.4543398892240841  0.2942878371751420  0.4525923284851756
  0.4363512944923442  0.3636024195217855  0.5079844325623514
  0.5440630155549603  0.3125736853830851  0.3977004968407402
  0.6703128923335100  0.4921370162722402  0.4679898321924378
  0.6583977224638053  0.4039135288569601  0.4114718624592492
  0.5515720097548745  0.2150576548094261  0.3905357291100980
  0.6593422513130559  0.2421319796899498  0.4072893474853461
  0.7265590284130619  0.3588291962988186  0.4187826156808172
  0.4841506347647853  0.1376574225680060  0.4583424675930661
  0.4413322098455589  0.2025944902563191  0.5020337688973796
  0.4545382173620644  0.2329550104372664  0.5859375994972509
  0.5663896943238692  0.1199263015932281  0.5218247205328069
  0.5933620323863722  0.1768707120143960  0.6048744675073604
  0.5342813554172837  0.2264778283429418  0.6389153730841350
  0.6730473928212709  0.1821806879603763  0.4734151960637158
  0.5812501248616135  0.4054316632445329  0.6151305301752518
  0.4718333876602483  0.3447725744714001  0.5866445740988697
  0.6090408292559785  0.3347124042147026  0.6655659442444894
  0.7119339266617243  0.3491864398665916  0.6393742601779654
  0.7048676754742316  0.2479396152227437  0.6115493365814602
  0.7454933487326212  0.2589191872799143  0.5282678296920809
  0.6720720044583167  0.4587958081636120  0.5522757276395889
  0.7425389982589311  0.4139994794099890  0.5673118105736622
  0.7938059113777102  0.3762142594215639  0.4988692850756530
  0.3733565687876648  0.8890872364008054  0.6543939780925152
  0.4137121664472433  0.8325427794902129  0.6046592398542082
  0.2501876900779930  0.8314854319226539  0.6586107926509805
  0.2274243933544501  0.7488396134956096  0.6033267882791846
  0.3195721263913533  0.7444150021556681  0.5737194924383888
  0.2010693509340521  0.8965845324257554  0.6130783826571892
  0.1296682895056627  0.8164646376553422  0.5389437327548429
  0.1443441529717261  0.7155792162325583  0.5342311056389218
  0.3070926650729206  0.9774210719712018  0.5813095366499433
  0.2912936745945630  0.9949991351105200  0.4954883120226753
  0.1986317369942300  0.8903243290134323  0.4549773608857582
  0.4027006985822855  0.9805584593859790  0.6047073891243994
  0.4808170763806713  0.0044791547881397  0.5317770523628434
  0.4037457297625752  0.0160581318036139  0.4578099448516457
  0.4842028252305045  0.8899626640475758  0.5264784264696936
  0.4012062688654067  0.8535065981557625  0.4606169676980085
  0.3666548925945278  0.9091133733677852  0.4130179643941327
  0.2469794114588218  0.8329332626810079  0.4159928962782490
  0.2183675335200856  0.7371473198743157  0.4544977840594320
  0.3239758511545042  0.7407417155251348  0.4793470786317388
  0.0322067299894394  0.5236124668545101  0.6247521820298256
  0.0819356122808487  0.5917376283960908  0.5455988480645023
  0.1092228223576369  0.4982230625907031  0.6707860937185495
  0.2011136618728272  0.5297745896941184  0.6176429143075806
  0.1821582597887256  0.5723140110774648  0.5445876680481111
  0.0648503302828284  0.3843136823858135  0.6755116380245306
  0.1329940536303373  0.3535513514230848  0.6241490956575890
  0.2211939981861852  0.4425320013053980  0.5914071560267041
  0.9624098567297341  0.3412083791257604  0.6341064921199607
  0.9634247787701211  0.2827723409116223  0.5626746750314082
  0.0690977649655943  0.2743936558187709  0.5566606540465102
  0.9423066651968435  0.4278470448720409  0.6047158560825496
  0.9146717441354862  0.4150800574797861  0.5102543002422236
  0.9438655107479900  0.3248776226328414  0.4899246985191691
  0.0141454223926732  0.5127522696424087  0.4759539582526531
  0.0819702852930490  0.4783221572632500  0.4364054417861282
  0.0421170939186066  0.3643852419998251  0.4414988924020017
  0.1204731702161684  0.3397966198961856  0.4761581212725113
  0.2284672052786905  0.4422068198561774  0.4929176853800665
  0.1886399511399748  0.5229042128185103  0.4721927160748585
  0.4391809072595644  0.4648272651416572  0.4886370218456826
  0.3486127887309933  0.4981331671456646  0.4624698624730202
  0.5042444377890735  0.5513777098424176  0.5542219973382670
  0.4652671326804992  0.6274447974893168  0.5694633884280105
  0.3888515759281622  0.6045843600676138  0.5100045382988149
  0.6108860487550329  0.6130934314124742  0.5285343139138173
  0.6363827224437641  0.7216760951433574  0.5273500710902294
  0.5516281799686760  0.7374308612434871  0.5557035917466548
  0.6329278222776882  0.5717419812667750  0.4481329475823131
  0.6677954431182606  0.6779875051477918  0.3938674472892539
  0.6879087216456069  0.7778236259443100  0.4471599336094157
  0.5173889513118182  0.5064005122157577  0.4173193687828751
  0.4898535347515246  0.5497710238958461  0.3519466704030093
  0.5825014288487271  0.6586799731284319  0.3416699304333736
  0.3946631409519314  0.5566376621940832  0.3769786297529752
  0.4248936771580780  0.6665033585230893  0.3784754789478605
  0.5387875466992790  0.7319082471586484  0.3592369919887862
  0.5975801715374303  0.8056390887154111  0.4212454360342577
  0.5249016810586070  0.8026903917859856  0.4943805742307750
  0.4005827396426008  0.6980575102009112  0.4606239481199541
 
  0.00000000E+00  0.00000000E+00  0.00000000E+00
  0.00000000E+00  0.00000000E+00  0.00000000E+00
  0.00000000E+00  0.00000000E+00  0.00000000E+00
  0.00000000E+00  0.00000000E+00  0.00000000E+00
  0.00000000E+00  0.00000000E+00  0.00000000E+00
  0.00000000E+00  0.00000000E+00  0.00000000E+00
  0.00000000E+00  0.00000000E+00  0.00000000E+00
  0.00000000E+00  0.00000000E+00  0.00000000E+00
  0.00000000E+00  0.00000000E+00  0.00000000E+00
  0.00000000E+00  0.00000000E+00  0.00000000E+00
  0.00000000E+00  0.00000000E+00  0.00000000E+00
  0.00000000E+00  0.00000000E+00  0.00000000E+00
  0.00000000E+00  0.00000000E+00  0.00000000E+00
  0.00000000E+00  0.00000000E+00  0.00000000E+00
  0.00000000E+00  0.00000000E+00  0.00000000E+00
  0.00000000E+00  0.00000000E+00  0.00000000E+00
  0.00000000E+00  0.00000000E+00  0.00000000E+00
  0.00000000E+00  0.00000000E+00  0.00000000E+00
  0.00000000E+00  0.00000000E+00  0.00000000E+00
  0.00000000E+00  0.00000000E+00  0.00000000E+00
  0.00000000E+00  0.00000000E+00  0.00000000E+00
  0.00000000E+00  0.00000000E+00  0.00000000E+00
  0.00000000E+00  0.00000000E+00  0.00000000E+00
  0.00000000E+00  0.00000000E+00  0.00000000E+00
  0.00000000E+00  0.00000000E+00  0.00000000E+00
  0.00000000E+00  0.00000000E+00  0.00000000E+00
  0.00000000E+00  0.00000000E+00  0.00000000E+00
  0.00000000E+00  0.00000000E+00  0.00000000E+00
  0.00000000E+00  0.00000000E+00  0.00000000E+00
  0.00000000E+00  0.00000000E+00  0.00000000E+00
  0.00000000E+00  0.00000000E+00  0.00000000E+00
  0.00000000E+00  0.00000000E+00  0.00000000E+00
  0.00000000E+00  0.00000000E+00  0.00000000E+00
  0.00000000E+00  0.00000000E+00  0.00000000E+00
  0.00000000E+00  0.00000000E+00  0.00000000E+00
  0.00000000E+00  0.00000000E+00  0.00000000E+00
  0.00000000E+00  0.00000000E+00  0.00000000E+00
  0.00000000E+00  0.00000000E+00  0.00000000E+00
  0.00000000E+00  0.00000000E+00  0.00000000E+00
  0.00000000E+00  0.00000000E+00  0.00000000E+00
  0.00000000E+00  0.00000000E+00  0.00000000E+00
  0.00000000E+00  0.00000000E+00  0.00000000E+00
  0.00000000E+00  0.00000000E+00  0.00000000E+00
  0.00000000E+00  0.00000000E+00  0.00000000E+00
  0.00000000E+00  0.00000000E+00  0.00000000E+00
  0.00000000E+00  0.00000000E+00  0.00000000E+00
  0.00000000E+00  0.00000000E+00  0.00000000E+00
  0.00000000E+00  0.00000000E+00  0.00000000E+00
  0.00000000E+00  0.00000000E+00  0.00000000E+00
  0.00000000E+00  0.00000000E+00  0.00000000E+00
  0.00000000E+00  0.00000000E+00  0.00000000E+00
  0.00000000E+00  0.00000000E+00  0.00000000E+00
  0.00000000E+00  0.00000000E+00  0.00000000E+00
  0.00000000E+00  0.00000000E+00  0.00000000E+00
  0.00000000E+00  0.00000000E+00  0.00000000E+00
  0.00000000E+00  0.00000000E+00  0.00000000E+00
  0.00000000E+00  0.00000000E+00  0.00000000E+00
  0.00000000E+00  0.00000000E+00  0.00000000E+00
  0.00000000E+00  0.00000000E+00  0.00000000E+00
  0.00000000E+00  0.00000000E+00  0.00000000E+00
  0.00000000E+00  0.00000000E+00  0.00000000E+00
  0.00000000E+00  0.00000000E+00  0.00000000E+00
  0.00000000E+00  0.00000000E+00  0.00000000E+00
  0.00000000E+00  0.00000000E+00  0.00000000E+00
  0.00000000E+00  0.00000000E+00  0.00000000E+00
  0.00000000E+00  0.00000000E+00  0.00000000E+00
  0.00000000E+00  0.00000000E+00  0.00000000E+00
  0.00000000E+00  0.00000000E+00  0.00000000E+00
  0.00000000E+00  0.00000000E+00  0.00000000E+00
  0.00000000E+00  0.00000000E+00  0.00000000E+00
  0.00000000E+00  0.00000000E+00  0.00000000E+00
  0.00000000E+00  0.00000000E+00  0.00000000E+00
  0.00000000E+00  0.00000000E+00  0.00000000E+00
  0.00000000E+00  0.00000000E+00  0.00000000E+00
  0.00000000E+00  0.00000000E+00  0.00000000E+00
  0.00000000E+00  0.00000000E+00  0.00000000E+00
  0.00000000E+00  0.00000000E+00  0.00000000E+00
  0.00000000E+00  0.00000000E+00  0.00000000E+00
  0.00000000E+00  0.00000000E+00  0.00000000E+00
  0.00000000E+00  0.00000000E+00  0.00000000E+00
  0.00000000E+00  0.00000000E+00  0.00000000E+00
  0.00000000E+00  0.00000000E+00  0.00000000E+00
  0.00000000E+00  0.00000000E+00  0.00000000E+00
  0.00000000E+00  0.00000000E+00  0.00000000E+00
  0.00000000E+00  0.00000000E+00  0.00000000E+00
  0.00000000E+00  0.00000000E+00  0.00000000E+00
  0.00000000E+00  0.00000000E+00  0.00000000E+00
  0.00000000E+00  0.00000000E+00  0.00000000E+00
  0.00000000E+00  0.00000000E+00  0.00000000E+00
  0.00000000E+00  0.00000000E+00  0.00000000E+00
  0.00000000E+00  0.00000000E+00  0.00000000E+00
  0.00000000E+00  0.00000000E+00  0.00000000E+00
  0.00000000E+00  0.00000000E+00  0.00000000E+00
  0.00000000E+00  0.00000000E+00  0.00000000E+00
  0.00000000E+00  0.00000000E+00  0.00000000E+00
  0.00000000E+00  0.00000000E+00  0.00000000E+00
  0.00000000E+00  0.00000000E+00  0.00000000E+00
  0.00000000E+00  0.00000000E+00  0.00000000E+00
  0.00000000E+00  0.00000000E+00  0.00000000E+00
  0.00000000E+00  0.00000000E+00  0.00000000E+00
  0.00000000E+00  0.00000000E+00  0.00000000E+00
  0.00000000E+00  0.00000000E+00  0.00000000E+00
  0.00000000E+00  0.00000000E+00  0.00000000E+00
  0.00000000E+00  0.00000000E+00  0.00000000E+00
  0.00000000E+00  0.00000000E+00  0.00000000E+00
  0.00000000E+00  0.00000000E+00  0.00000000E+00
  0.00000000E+00  0.00000000E+00  0.00000000E+00
  0.00000000E+00  0.00000000E+00  0.00000000E+00
