C                                       
   1.00000000000000     
     9.8202705241433073    0.1828852064534838    0.0000000000000000
     0.2665796955615068   15.9534146365852170    0.0000000000000000
     0.0000000000000000    0.0000000000000000   16.0000000000000000
  C             
   108
Direct
  0.1709721366137776  0.2051691259694085  0.5645324003719216
  0.0458115136938585  0.1718887295637319  0.5192260649732188
  0.2654656857994608  0.2451048473325560  0.4967872377028657
  0.0473016039233288  0.2040681466491914  0.4281993183567668
  0.1643845200840315  0.2616700927407856  0.4257040418969276
  0.2955862393873011  0.3366528830609525  0.5281342168865005
  0.2498442880040053  0.3942592862484716  0.4528620539500435
  0.1592151140562651  0.3412924774608983  0.3968172981284299
  0.1667598012782757  0.3476761011106553  0.5888576877121037
  0.1008018252724373  0.2742144972341928  0.6131926789753666
  0.9527031953705991  0.2692065004145770  0.6084116222252020
  0.0799985926928963  0.4130339964549252  0.5606341369855926
  0.9381550018243940  0.4125833603133904  0.5571010930129010
  0.8737127446038062  0.3393554427144897  0.5803538243125597
  0.1344258481731890  0.4545830581618670  0.4860218468648629
  0.8058413200851647  0.2333762523788929  0.4888759467576702
  0.9065781546479211  0.1928513430950375  0.5577071166235354
  0.7580849202028973  0.3238961545652095  0.5191445638104875
  0.7924193137831609  0.3797316275324110  0.4422270407039500
  0.8786817335990170  0.4520596508180468  0.4748935265784209
  0.0118167001220885  0.4532207822672158  0.4266645785324485
  0.9094208452320370  0.2493767690784715  0.4162679400700755
  0.8996836075283718  0.3314177208286507  0.3898680540225574
  0.0235986247295022  0.3792978426945136  0.3796900588707633
  0.8046914318115548  0.6803540925669889  0.5883970996660277
  0.8312069475959026  0.7874197533148850  0.5712998020292567
  0.8653043745790310  0.6533484119023831  0.5042219515239295
  0.9033523484517333  0.7901158169419712  0.4828762841485024
  0.9248570459198611  0.7072760043185422  0.4497407453232892
  0.9635602411882171  0.5881692285190975  0.5131048357404215
  0.0696355049120687  0.5881880948678122  0.4509469383531163
  0.0596441521626063  0.6730440637917867  0.4205208552426296
  0.0099928742891407  0.5880530010372150  0.5959709798118725
  0.9341568471230650  0.6527150427975102  0.6399866627050553
  0.0127943349640983  0.7171257166822221  0.6674374137968631
  0.1561946220888536  0.5801479180904410  0.5900153457493289
  0.2435508866978927  0.6354036657097204  0.6292316953124294
  0.1669858132517765  0.7127378884360243  0.6535796050791652
  0.1802673937887374  0.5422824399092615  0.4995015290406412
  0.0643576933805844  0.8263695887204355  0.5933500447869470
  0.9526418021035427  0.7947007559744433  0.6328371129840866
  0.1952308642082023  0.7852821982435442  0.6096359434013692
  0.2838969830915485  0.8009125519311499  0.5335574889018947
  0.3731259639122532  0.7323599572150703  0.4957155139246624
  0.3141214147213119  0.6893559063669191  0.4312286864654590
  0.0397032672286678  0.8321769785852370  0.5028018887944130
  0.1727594106754903  0.8057100758144480  0.4594065640106282
  0.1755993619631512  0.7213052478099119  0.4166552995229043
  0.9587663377164183  0.9780594556564074  0.5315272436496336
  0.9113486149373212  0.0553914860798835  0.4891045210185805
  0.9803782864881824  0.9122732500020584  0.4678837234499431
  0.9592236104607991  0.0177530162842876  0.3420173623598090
  0.9155471431561695  0.0760284433673759  0.4062134512525614
  0.8433591112595277  0.8759312180892499  0.4462619284422113
  0.7655845477944773  0.9173639176795435  0.3758383388276831
  0.8234759693436614  0.9838627887478925  0.3301170600468776
  0.7587791029637475  0.8875401982823189  0.5357996781604976
  0.6191972541913843  0.9323273871975701  0.5052323189080323
  0.6259785425536494  0.9457727495475673  0.4077395804962907
  0.8283396154701083  0.9612228876503225  0.5779694605110546
  0.7500512974069224  0.0339832994595684  0.5851218111217952
  0.6163747133966677  0.0228897025176095  0.5444049620190869
  0.8222428701765094  0.1076150936692662  0.5432013562179049
  0.7318532569352341  0.1490336382833377  0.4719698001253388
  0.6117480196670205  0.0917807526048443  0.4729506075888459
  0.6132984927803363  0.0407247427567153  0.3892295517465930
  0.7284891251474576  0.0613115763066514  0.3370212780505660
  0.7929357290245690  0.1188005688982425  0.3882085659899264
  0.4546262072371088  0.0247428272950789  0.5416939319890467
  0.4556188829196269  0.9356268898522250  0.5000878334712607
  0.3189194990609977  0.0375021328734795  0.5798227003662136
  0.2423613266267411  0.9690024749395200  0.5640995754043543
  0.3164100699331936  0.8960755003893273  0.5191952390488729
  0.2498498972089989  0.1171539251019788  0.5481285403774994
  0.1234450482699502  0.0887033736413594  0.5043617950977626
  0.1116650122878329  0.9980624786544222  0.5253347832847536
  0.3357343391559692  0.1544378954957789  0.4748781775193031
  0.2675710009423364  0.1266600364523330  0.3936460752174873
  0.1264919999409675  0.1060635757136694  0.4075498462579652
  0.4590547241148350  0.0940476078947708  0.4720649740671742
  0.4606569493196806  0.0444251304412933  0.3884200926331794
  0.3353445729165228  0.0696389430215028  0.3445413406541244
  0.4563214459236686  0.9489363459965799  0.4033712156058102
  0.3200633949083977  0.9258745037264280  0.3658607604450376
  0.2539070201742466  0.9961375044643633  0.3306533833731999
  0.1091169286071186  0.0150123925137596  0.3632429348431909
  0.1088387699915977  0.9518726283545931  0.4360929242532101
  0.2302859285385269  0.8907151233745788  0.4312900264614530
  0.5396292971433599  0.4998338224745959  0.6489503522179592
  0.5396154791869284  0.5887138409709018  0.6557003571590886
  0.6503960728455978  0.4579868828917346  0.6043546572688722
  0.7190585703818724  0.5232957905350004  0.5723822843974711
  0.6716590781140550  0.6138878550628548  0.5994022017102034
  0.6139804892246926  0.3890702562345539  0.5369673972806122
  0.6518395948831744  0.4344631193730503  0.4529449278871171
  0.7406215875307043  0.5105396683162758  0.4814791257445542
  0.4383638593075307  0.3941749199810281  0.5397418336680765
  0.3873560753562894  0.4457135375034406  0.4549838598952164
  0.5200232073298933  0.4709745508939782  0.4130349470275171
  0.4226043332979472  0.4619238265608124  0.6066538716070062
  0.3729557684257547  0.5320634809194351  0.5708335461827148
  0.3289427558299279  0.5338350784479422  0.4836854560959326
  0.4012477064192540  0.6155866586673833  0.6059527807175957
  0.4569300966174352  0.6574439185859646  0.5236993654544004
  0.3999761249141615  0.6068449205266651  0.4451291661366530
  0.5257358129946093  0.5578788152770818  0.4096813435592614
  0.6473937443828314  0.5855176564011495  0.4524770324373147
  0.6031522714543077  0.6340046680662718  0.5195926615808960
 
  0.00000000E+00  0.00000000E+00  0.00000000E+00
  0.00000000E+00  0.00000000E+00  0.00000000E+00
  0.00000000E+00  0.00000000E+00  0.00000000E+00
  0.00000000E+00  0.00000000E+00  0.00000000E+00
  0.00000000E+00  0.00000000E+00  0.00000000E+00
  0.00000000E+00  0.00000000E+00  0.00000000E+00
  0.00000000E+00  0.00000000E+00  0.00000000E+00
  0.00000000E+00  0.00000000E+00  0.00000000E+00
  0.00000000E+00  0.00000000E+00  0.00000000E+00
  0.00000000E+00  0.00000000E+00  0.00000000E+00
  0.00000000E+00  0.00000000E+00  0.00000000E+00
  0.00000000E+00  0.00000000E+00  0.00000000E+00
  0.00000000E+00  0.00000000E+00  0.00000000E+00
  0.00000000E+00  0.00000000E+00  0.00000000E+00
  0.00000000E+00  0.00000000E+00  0.00000000E+00
  0.00000000E+00  0.00000000E+00  0.00000000E+00
  0.00000000E+00  0.00000000E+00  0.00000000E+00
  0.00000000E+00  0.00000000E+00  0.00000000E+00
  0.00000000E+00  0.00000000E+00  0.00000000E+00
  0.00000000E+00  0.00000000E+00  0.00000000E+00
  0.00000000E+00  0.00000000E+00  0.00000000E+00
  0.00000000E+00  0.00000000E+00  0.00000000E+00
  0.00000000E+00  0.00000000E+00  0.00000000E+00
  0.00000000E+00  0.00000000E+00  0.00000000E+00
  0.00000000E+00  0.00000000E+00  0.00000000E+00
  0.00000000E+00  0.00000000E+00  0.00000000E+00
  0.00000000E+00  0.00000000E+00  0.00000000E+00
  0.00000000E+00  0.00000000E+00  0.00000000E+00
  0.00000000E+00  0.00000000E+00  0.00000000E+00
  0.00000000E+00  0.00000000E+00  0.00000000E+00
  0.00000000E+00  0.00000000E+00  0.00000000E+00
  0.00000000E+00  0.00000000E+00  0.00000000E+00
  0.00000000E+00  0.00000000E+00  0.00000000E+00
  0.00000000E+00  0.00000000E+00  0.00000000E+00
  0.00000000E+00  0.00000000E+00  0.00000000E+00
  0.00000000E+00  0.00000000E+00  0.00000000E+00
  0.00000000E+00  0.00000000E+00  0.00000000E+00
  0.00000000E+00  0.00000000E+00  0.00000000E+00
  0.00000000E+00  0.00000000E+00  0.00000000E+00
  0.00000000E+00  0.00000000E+00  0.00000000E+00
  0.00000000E+00  0.00000000E+00  0.00000000E+00
  0.00000000E+00  0.00000000E+00  0.00000000E+00
  0.00000000E+00  0.00000000E+00  0.00000000E+00
  0.00000000E+00  0.00000000E+00  0.00000000E+00
  0.00000000E+00  0.00000000E+00  0.00000000E+00
  0.00000000E+00  0.00000000E+00  0.00000000E+00
  0.00000000E+00  0.00000000E+00  0.00000000E+00
  0.00000000E+00  0.00000000E+00  0.00000000E+00
  0.00000000E+00  0.00000000E+00  0.00000000E+00
  0.00000000E+00  0.00000000E+00  0.00000000E+00
  0.00000000E+00  0.00000000E+00  0.00000000E+00
  0.00000000E+00  0.00000000E+00  0.00000000E+00
  0.00000000E+00  0.00000000E+00  0.00000000E+00
  0.00000000E+00  0.00000000E+00  0.00000000E+00
  0.00000000E+00  0.00000000E+00  0.00000000E+00
  0.00000000E+00  0.00000000E+00  0.00000000E+00
  0.00000000E+00  0.00000000E+00  0.00000000E+00
  0.00000000E+00  0.00000000E+00  0.00000000E+00
  0.00000000E+00  0.00000000E+00  0.00000000E+00
  0.00000000E+00  0.00000000E+00  0.00000000E+00
  0.00000000E+00  0.00000000E+00  0.00000000E+00
  0.00000000E+00  0.00000000E+00  0.00000000E+00
  0.00000000E+00  0.00000000E+00  0.00000000E+00
  0.00000000E+00  0.00000000E+00  0.00000000E+00
  0.00000000E+00  0.00000000E+00  0.00000000E+00
  0.00000000E+00  0.00000000E+00  0.00000000E+00
  0.00000000E+00  0.00000000E+00  0.00000000E+00
  0.00000000E+00  0.00000000E+00  0.00000000E+00
  0.00000000E+00  0.00000000E+00  0.00000000E+00
  0.00000000E+00  0.00000000E+00  0.00000000E+00
  0.00000000E+00  0.00000000E+00  0.00000000E+00
  0.00000000E+00  0.00000000E+00  0.00000000E+00
  0.00000000E+00  0.00000000E+00  0.00000000E+00
  0.00000000E+00  0.00000000E+00  0.00000000E+00
  0.00000000E+00  0.00000000E+00  0.00000000E+00
  0.00000000E+00  0.00000000E+00  0.00000000E+00
  0.00000000E+00  0.00000000E+00  0.00000000E+00
  0.00000000E+00  0.00000000E+00  0.00000000E+00
  0.00000000E+00  0.00000000E+00  0.00000000E+00
  0.00000000E+00  0.00000000E+00  0.00000000E+00
  0.00000000E+00  0.00000000E+00  0.00000000E+00
  0.00000000E+00  0.00000000E+00  0.00000000E+00
  0.00000000E+00  0.00000000E+00  0.00000000E+00
  0.00000000E+00  0.00000000E+00  0.00000000E+00
  0.00000000E+00  0.00000000E+00  0.00000000E+00
  0.00000000E+00  0.00000000E+00  0.00000000E+00
  0.00000000E+00  0.00000000E+00  0.00000000E+00
  0.00000000E+00  0.00000000E+00  0.00000000E+00
  0.00000000E+00  0.00000000E+00  0.00000000E+00
  0.00000000E+00  0.00000000E+00  0.00000000E+00
  0.00000000E+00  0.00000000E+00  0.00000000E+00
  0.00000000E+00  0.00000000E+00  0.00000000E+00
  0.00000000E+00  0.00000000E+00  0.00000000E+00
  0.00000000E+00  0.00000000E+00  0.00000000E+00
  0.00000000E+00  0.00000000E+00  0.00000000E+00
  0.00000000E+00  0.00000000E+00  0.00000000E+00
  0.00000000E+00  0.00000000E+00  0.00000000E+00
  0.00000000E+00  0.00000000E+00  0.00000000E+00
  0.00000000E+00  0.00000000E+00  0.00000000E+00
  0.00000000E+00  0.00000000E+00  0.00000000E+00
  0.00000000E+00  0.00000000E+00  0.00000000E+00
  0.00000000E+00  0.00000000E+00  0.00000000E+00
  0.00000000E+00  0.00000000E+00  0.00000000E+00
  0.00000000E+00  0.00000000E+00  0.00000000E+00
  0.00000000E+00  0.00000000E+00  0.00000000E+00
  0.00000000E+00  0.00000000E+00  0.00000000E+00
  0.00000000E+00  0.00000000E+00  0.00000000E+00
  0.00000000E+00  0.00000000E+00  0.00000000E+00
