C                                       
   1.00000000000000     
     9.5879374165117994    0.1720133369720482    0.0000000000000000
     0.3223880211848512   18.0679469446991305    0.0000000000000000
     0.0000000000000000    0.0000000000000000   16.0000000000000000
  C             
   128
Direct
  0.1765176061174709  0.9343745047051081  0.4624316704019047
  0.2689917670587824  0.8670353747352734  0.4876927342476765
  0.0908852762954312  0.9079161077330482  0.3923711892956606
  0.2215600962883464  0.7987125861967663  0.4354374058411020
  0.1028498227283170  0.8309042398693165  0.3791741608501776
  0.9474192117900546  0.9290123135800071  0.4058679659170068
  0.8608386204927592  0.8713462800499475  0.3922130205095311
  0.9593338619956239  0.8072329261033477  0.3811925265503305
  0.9317222031592730  0.9600680449462768  0.4932604164383130
  0.0713596680332822  0.9415639968142362  0.5310487175217514
  0.1028000455561495  0.8931755488281262  0.5970655985459058
  0.8524407070284087  0.8957951116731068  0.5374983552239364
  0.8687958017073942  0.8476468517773461  0.6048610077706221
  0.0081041224000109  0.8427710266812420  0.6396303284481613
  0.7664605174137895  0.8623386484157624  0.4702847696901477
  0.2120101286604777  0.7723611429945362  0.5961024848361983
  0.2261509616460091  0.8515676972663548  0.5765007181435848
  0.0650042535693574  0.7705235790877190  0.6411952220634876
  0.9628460662626855  0.7183849769446032  0.5967804713354750
  0.8099687329022792  0.7677299180869981  0.5840237717520914
  0.8048483609048620  0.7844709840959775  0.4920560310107115
  0.1482318251561797  0.7643936701243400  0.5087348906315601
  0.0185593499441563  0.7377765592745233  0.5092982566421570
  0.9214781530860958  0.7594920361176154  0.4461003086473069
  0.6765172351555582  0.4343757612476495  0.4624325051814953
  0.7689913009584727  0.3670331978899471  0.4876924208371214
  0.5908939987901705  0.4079082900774521  0.3923724141268866
  0.7215579723321300  0.2987133161428984  0.4354349065023181
  0.6028460212064098  0.3309113993286739  0.3791754984818324
  0.4474074326345357  0.4290153258123853  0.4058743535422571
  0.3608344414040981  0.3713506131783603  0.3922085059226769
  0.4593225040910894  0.3072350284738089  0.3811938797980242
  0.4317189568069220  0.4600655643654292  0.4932594874525997
  0.5713554256489493  0.4415615504524787  0.5310474950976170
  0.6028044213633631  0.3931741811947479  0.5970660954278412
  0.3524355882616091  0.3957965122891098  0.5374969925405712
  0.3687932548786803  0.3476459059338766  0.6048610618860829
  0.5081004236131811  0.3427695556496237  0.6396280085438228
  0.2664632247258752  0.3623393758106452  0.4702875503833086
  0.7120138606253946  0.2723618391737256  0.5961031352430194
  0.7261592310203183  0.3515660680460520  0.5765057250607163
  0.5650037464217283  0.2705217568958700  0.6411920412067945
  0.4628457123993289  0.2183842237929932  0.5967773904493586
  0.3099652204774549  0.2677283350023102  0.5840211001788361
  0.3048430537472358  0.2844725053915396  0.4920571299828869
  0.6482263061822969  0.2643905218913338  0.5087355662454007
  0.5185569785236408  0.2377776417204180  0.5092939465304032
  0.4214830485017401  0.2594930668075101  0.4460995122685595
  0.1287306560629301  0.6155862926142327  0.5402784337395693
  0.2142261957757902  0.5412283995750355  0.5632048757339794
  0.9838986984316129  0.6279352496052594  0.5919280707353199
  0.9908532580644394  0.5484611154187601  0.6356406800409492
  0.1173479512228147  0.5031094311477886  0.6181383285845008
  0.8585129143836838  0.6135435201415149  0.5302785323122162
  0.7833363441935614  0.5398672286749945  0.5509352147537437
  0.8798209169623101  0.5035595404044531  0.6122174670219472
  0.9263159911456987  0.5968482981392660  0.4485371807998084
  0.8845376650356157  0.5296512279640614  0.4120620538045818
  0.7965135855174624  0.4886034808629998  0.4708817004009798
  0.0722418556836468  0.5994073922195882  0.4539111563004007
  0.1272380506086094  0.5314300258268591  0.4203013555817234
  0.0099153676942224  0.4869502369164071  0.3937518779025829
  0.1946305188820865  0.4946990220880788  0.4844626271460267
  0.1434870481566297  0.4160546605809440  0.4927723858945391
  0.0144913561844542  0.4223213741885526  0.4401622129214376
  0.8888507669850250  0.4176854763620994  0.4923218021608808
  0.9349952324297985  0.4328259755082922  0.5803096261564723
  0.0820465678666856  0.4328733750089926  0.5827029780573999
  0.6287305261258095  0.1155854590235503  0.5402740565967212
  0.7142276633095362  0.0412266144077404  0.5632014269769283
  0.4838967004601485  0.1279337937006901  0.5919267935881906
  0.4908499902959920  0.0484625473645153  0.6356362829960602
  0.6173423645217613  0.0031098568344535  0.6181358088130625
  0.3585095718026369  0.1135429105123244  0.5302775700744121
  0.2833310917855091  0.0398683431081304  0.5509315339492269
  0.3798162668263660  0.0035594305395704  0.6122151862285564
  0.4263127200722667  0.0968478412572136  0.4485351295426783
  0.3845352925050398  0.0296514851277044  0.4120562747577975
  0.2965098417034757  0.9886025569835630  0.4708799605975860
  0.5722377316756013  0.0994020594674626  0.4539100980589646
  0.6272335793688373  0.0314276216084684  0.4203004668708651
  0.5099176468411766  0.9869476861206049  0.3937492744798619
  0.6946287262982245  0.9946975451434267  0.4844613954215076
  0.6434871763055761  0.9160548007497841  0.4927672316795702
  0.5144896072887317  0.9223210808930921  0.4401623123548433
  0.3888442369958006  0.9176843862200278  0.4923179952534131
  0.4349937796558625  0.9328281650921970  0.5803053027064525
  0.5820399924725599  0.9328730595429053  0.5826997310322837
  0.0575324986564772  0.2564841321788378  0.5021675984494803
  0.0955832985584881  0.2308522880719065  0.4178843970145797
  0.1438719411448601  0.2222228922207510  0.5738245984787713
  0.2138350116402091  0.1553063486113868  0.5243599287552171
  0.1820185565175033  0.1692681460314959  0.4316899377973634
  0.0001404492400292  0.1842024167498834  0.6157357104599251
  0.0027900863813841  0.1095862089464687  0.5999245287916768
  0.1350763507622202  0.0847249130046703  0.5478359547980479
  0.8475596217833723  0.2197155947904899  0.5817651278711311
  0.7772924661790352  0.1522810216543684  0.5382756889205257
  0.8642640975003342  0.0823777854749701  0.5598090117515550
  0.9175454920526624  0.2527492548190650  0.5066634039896168
  0.8441180591230931  0.2389295152372716  0.4231879200669518
  0.7989036104073403  0.1627013655883659  0.4468216945812685
  0.9712443283887220  0.2166445381065977  0.3674974993330607
  0.9753914242436102  0.1384906338305034  0.3611262182494661
  0.8629568215078756  0.1036218515561734  0.4080675847041194
  0.9194706211706478  0.0487791666975949  0.4776853607596135
  0.0666356799596387  0.0676605854889078  0.4675341763952219
  0.1031151303885142  0.1085044556945258  0.3991317215568815
  0.5575301352236839  0.7564822621034288  0.5021693748210102
  0.5955832060310924  0.7308510866220447  0.4178855153608788
  0.6438745554643489  0.7222202796414680  0.5738269242104105
  0.7138386325303631  0.6553064889084679  0.5243631780897727
  0.6820204028963786  0.6692646857299086  0.4316914657289655
  0.5001406734157472  0.6842031533436155  0.6157377181162497
  0.5027911166399233  0.6095862287545388  0.5999276278732556
  0.6350788073883167  0.5847250619466320  0.5478409158890871
  0.3475574548979657  0.7197147638834753  0.5817663366317146
  0.2772904684177001  0.6522826354700546  0.5382775910750118
  0.3642636908075829  0.5823793510987042  0.5598112452374653
  0.4175447032948811  0.7527476517015437  0.5066637609298027
  0.3441147895614535  0.7389315631425117  0.4231874631534774
  0.2988994931353517  0.6626995172050054  0.4468210665039530
  0.4712447666154650  0.7166417660734079  0.3675000516194817
  0.4753926550863969  0.6384918852813779  0.3611296249770879
  0.3629539965015514  0.6036225057359204  0.4080722602133203
  0.4194703012898384  0.5487781221929368  0.4776878799231952
  0.5666371367007507  0.5676591511247644  0.4675391841654518
  0.6031163029115907  0.6085026527640440  0.3991360204731200
 
  0.00000000E+00  0.00000000E+00  0.00000000E+00
  0.00000000E+00  0.00000000E+00  0.00000000E+00
  0.00000000E+00  0.00000000E+00  0.00000000E+00
  0.00000000E+00  0.00000000E+00  0.00000000E+00
  0.00000000E+00  0.00000000E+00  0.00000000E+00
  0.00000000E+00  0.00000000E+00  0.00000000E+00
  0.00000000E+00  0.00000000E+00  0.00000000E+00
  0.00000000E+00  0.00000000E+00  0.00000000E+00
  0.00000000E+00  0.00000000E+00  0.00000000E+00
  0.00000000E+00  0.00000000E+00  0.00000000E+00
  0.00000000E+00  0.00000000E+00  0.00000000E+00
  0.00000000E+00  0.00000000E+00  0.00000000E+00
  0.00000000E+00  0.00000000E+00  0.00000000E+00
  0.00000000E+00  0.00000000E+00  0.00000000E+00
  0.00000000E+00  0.00000000E+00  0.00000000E+00
  0.00000000E+00  0.00000000E+00  0.00000000E+00
  0.00000000E+00  0.00000000E+00  0.00000000E+00
  0.00000000E+00  0.00000000E+00  0.00000000E+00
  0.00000000E+00  0.00000000E+00  0.00000000E+00
  0.00000000E+00  0.00000000E+00  0.00000000E+00
  0.00000000E+00  0.00000000E+00  0.00000000E+00
  0.00000000E+00  0.00000000E+00  0.00000000E+00
  0.00000000E+00  0.00000000E+00  0.00000000E+00
  0.00000000E+00  0.00000000E+00  0.00000000E+00
  0.00000000E+00  0.00000000E+00  0.00000000E+00
  0.00000000E+00  0.00000000E+00  0.00000000E+00
  0.00000000E+00  0.00000000E+00  0.00000000E+00
  0.00000000E+00  0.00000000E+00  0.00000000E+00
  0.00000000E+00  0.00000000E+00  0.00000000E+00
  0.00000000E+00  0.00000000E+00  0.00000000E+00
  0.00000000E+00  0.00000000E+00  0.00000000E+00
  0.00000000E+00  0.00000000E+00  0.00000000E+00
  0.00000000E+00  0.00000000E+00  0.00000000E+00
  0.00000000E+00  0.00000000E+00  0.00000000E+00
  0.00000000E+00  0.00000000E+00  0.00000000E+00
  0.00000000E+00  0.00000000E+00  0.00000000E+00
  0.00000000E+00  0.00000000E+00  0.00000000E+00
  0.00000000E+00  0.00000000E+00  0.00000000E+00
  0.00000000E+00  0.00000000E+00  0.00000000E+00
  0.00000000E+00  0.00000000E+00  0.00000000E+00
  0.00000000E+00  0.00000000E+00  0.00000000E+00
  0.00000000E+00  0.00000000E+00  0.00000000E+00
  0.00000000E+00  0.00000000E+00  0.00000000E+00
  0.00000000E+00  0.00000000E+00  0.00000000E+00
  0.00000000E+00  0.00000000E+00  0.00000000E+00
  0.00000000E+00  0.00000000E+00  0.00000000E+00
  0.00000000E+00  0.00000000E+00  0.00000000E+00
  0.00000000E+00  0.00000000E+00  0.00000000E+00
  0.00000000E+00  0.00000000E+00  0.00000000E+00
  0.00000000E+00  0.00000000E+00  0.00000000E+00
  0.00000000E+00  0.00000000E+00  0.00000000E+00
  0.00000000E+00  0.00000000E+00  0.00000000E+00
  0.00000000E+00  0.00000000E+00  0.00000000E+00
  0.00000000E+00  0.00000000E+00  0.00000000E+00
  0.00000000E+00  0.00000000E+00  0.00000000E+00
  0.00000000E+00  0.00000000E+00  0.00000000E+00
  0.00000000E+00  0.00000000E+00  0.00000000E+00
  0.00000000E+00  0.00000000E+00  0.00000000E+00
  0.00000000E+00  0.00000000E+00  0.00000000E+00
  0.00000000E+00  0.00000000E+00  0.00000000E+00
  0.00000000E+00  0.00000000E+00  0.00000000E+00
  0.00000000E+00  0.00000000E+00  0.00000000E+00
  0.00000000E+00  0.00000000E+00  0.00000000E+00
  0.00000000E+00  0.00000000E+00  0.00000000E+00
  0.00000000E+00  0.00000000E+00  0.00000000E+00
  0.00000000E+00  0.00000000E+00  0.00000000E+00
  0.00000000E+00  0.00000000E+00  0.00000000E+00
  0.00000000E+00  0.00000000E+00  0.00000000E+00
  0.00000000E+00  0.00000000E+00  0.00000000E+00
  0.00000000E+00  0.00000000E+00  0.00000000E+00
  0.00000000E+00  0.00000000E+00  0.00000000E+00
  0.00000000E+00  0.00000000E+00  0.00000000E+00
  0.00000000E+00  0.00000000E+00  0.00000000E+00
  0.00000000E+00  0.00000000E+00  0.00000000E+00
  0.00000000E+00  0.00000000E+00  0.00000000E+00
  0.00000000E+00  0.00000000E+00  0.00000000E+00
  0.00000000E+00  0.00000000E+00  0.00000000E+00
  0.00000000E+00  0.00000000E+00  0.00000000E+00
  0.00000000E+00  0.00000000E+00  0.00000000E+00
  0.00000000E+00  0.00000000E+00  0.00000000E+00
  0.00000000E+00  0.00000000E+00  0.00000000E+00
  0.00000000E+00  0.00000000E+00  0.00000000E+00
  0.00000000E+00  0.00000000E+00  0.00000000E+00
  0.00000000E+00  0.00000000E+00  0.00000000E+00
  0.00000000E+00  0.00000000E+00  0.00000000E+00
  0.00000000E+00  0.00000000E+00  0.00000000E+00
  0.00000000E+00  0.00000000E+00  0.00000000E+00
  0.00000000E+00  0.00000000E+00  0.00000000E+00
  0.00000000E+00  0.00000000E+00  0.00000000E+00
  0.00000000E+00  0.00000000E+00  0.00000000E+00
  0.00000000E+00  0.00000000E+00  0.00000000E+00
  0.00000000E+00  0.00000000E+00  0.00000000E+00
  0.00000000E+00  0.00000000E+00  0.00000000E+00
  0.00000000E+00  0.00000000E+00  0.00000000E+00
  0.00000000E+00  0.00000000E+00  0.00000000E+00
  0.00000000E+00  0.00000000E+00  0.00000000E+00
  0.00000000E+00  0.00000000E+00  0.00000000E+00
  0.00000000E+00  0.00000000E+00  0.00000000E+00
  0.00000000E+00  0.00000000E+00  0.00000000E+00
  0.00000000E+00  0.00000000E+00  0.00000000E+00
  0.00000000E+00  0.00000000E+00  0.00000000E+00
  0.00000000E+00  0.00000000E+00  0.00000000E+00
  0.00000000E+00  0.00000000E+00  0.00000000E+00
  0.00000000E+00  0.00000000E+00  0.00000000E+00
  0.00000000E+00  0.00000000E+00  0.00000000E+00
  0.00000000E+00  0.00000000E+00  0.00000000E+00
  0.00000000E+00  0.00000000E+00  0.00000000E+00
  0.00000000E+00  0.00000000E+00  0.00000000E+00
  0.00000000E+00  0.00000000E+00  0.00000000E+00
  0.00000000E+00  0.00000000E+00  0.00000000E+00
  0.00000000E+00  0.00000000E+00  0.00000000E+00
  0.00000000E+00  0.00000000E+00  0.00000000E+00
  0.00000000E+00  0.00000000E+00  0.00000000E+00
  0.00000000E+00  0.00000000E+00  0.00000000E+00
  0.00000000E+00  0.00000000E+00  0.00000000E+00
  0.00000000E+00  0.00000000E+00  0.00000000E+00
  0.00000000E+00  0.00000000E+00  0.00000000E+00
  0.00000000E+00  0.00000000E+00  0.00000000E+00
  0.00000000E+00  0.00000000E+00  0.00000000E+00
  0.00000000E+00  0.00000000E+00  0.00000000E+00
  0.00000000E+00  0.00000000E+00  0.00000000E+00
  0.00000000E+00  0.00000000E+00  0.00000000E+00
  0.00000000E+00  0.00000000E+00  0.00000000E+00
  0.00000000E+00  0.00000000E+00  0.00000000E+00
  0.00000000E+00  0.00000000E+00  0.00000000E+00
  0.00000000E+00  0.00000000E+00  0.00000000E+00
  0.00000000E+00  0.00000000E+00  0.00000000E+00
  0.00000000E+00  0.00000000E+00  0.00000000E+00
