C 
 1.0000000000000000
     8.6364592556165221    0.0000000000000000    0.0000000000000000
     0.0000000000000000   16.1447676139916503    0.0000000000000000
     0.0000000000000000    0.0000000000000000   16.0000000000000000
 C  
 128
Direct
 -0.0995448065257766 -0.1287560579990968  0.5047391765667214
 -0.1232172226869413 -0.0853195038513082  0.5818012639280064
 -0.1857247430578028 -0.0910292276817272  0.4383959320787772
 -0.2032944311295916 -0.0070905749533606  0.5593351907936804
 -0.2412894688951174 -0.0105006682955397  0.4717978346172310
 -0.0861757118213394 -0.0711354812114962  0.3697405029193688
 -0.0998718529832574  0.0146435026487359  0.3478219764403223
 -0.1890483747074615  0.0539923883328517  0.4163892183931914
  0.0744076736628649 -0.0821308453636334  0.4008117171652845
  0.0661980681211046 -0.1173797384186116  0.4833806383367206
  0.1402879767822975 -0.0762858683408984  0.5525544928128352
  0.1567723886662842 -0.0057532857585434  0.3873438477084469
  0.2308749228637041  0.0353175060788198  0.4564796311736689
  0.2226454438096274  0.0000786872294425  0.5390652679335356
  0.0487195258244232  0.0540001756590099  0.3475319722341909
  0.0245006989351615  0.0256490558095262  0.6342936877369565
  0.0216459763406564 -0.0615895429199803  0.6180982255279046
  0.1565840813755469  0.0635506022045436  0.5958742232690797
  0.1104635866611458  0.1312838453599316  0.5437297284029259
  0.1700000802553502  0.1211229246637434  0.4608376977431021
  0.0479675455549776  0.1256249710555926  0.4002849569683485
 -0.1129479808838444  0.0607799162054174  0.5914624062965315
 -0.0605378023497400  0.1252441881475302  0.5360690662170476
 -0.0986108570126924  0.1218335576956893  0.4485261513446440
  0.4938011213355919  0.5386908134930080  0.6342297550373949
  0.3461505514280076  0.5532317942242995  0.5960759302694029
  0.5355122627664827  0.4530003299575384  0.6286356547182339
  0.3077101404747306  0.4762752584701392  0.5497774599653353
  0.4233538993466487  0.4151196120166772  0.5695444805532330
  0.6845810371768795  0.4438872732329078  0.5906241151418188
  0.6768624665981624  0.3889424051540124  0.5203696550332255
  0.5097400055098134  0.3758937109837648  0.5035194874398525
  0.7249921697435762  0.5264120872757456  0.5561002363337583
  0.6082914821568458  0.5843871059894821  0.5827849278855585
  0.5245633930472451  0.6324587889516781  0.5218887150864786
  0.7580963685489328  0.5164778530036180  0.4684774558343774
  0.6744423527024945  0.5645434144303039  0.4076012761218080
  0.5577017034282701  0.6225157441343868  0.4342809504018382
  0.7390115433565070  0.4275135167121304  0.4470886468058045
  0.2984884242750104  0.5891577893563370  0.4558084402452630
  0.3565445453591146  0.6174613724554269  0.5346493747233747
  0.4110192829039864  0.6010932636752494  0.3911000215203389
  0.4398957051395978  0.5251635192496762  0.3475464587840303
  0.6019008113922872  0.5063077051329606  0.3475276533223604
  0.6293035513318364  0.4248922714319854  0.3800615188264440
  0.2785252735679110  0.4982600986538557  0.4639856354107539
  0.3649874927413154  0.4591190211952232  0.3979408152275614
  0.4805993531095981  0.3979311290945640  0.4177290361629634
  0.3784048098870036  0.1461275610711535  0.6036891767451045
  0.4751709393918043  0.0739298037141493  0.5891250434709930
  0.3088851686559079  0.1685183624950732  0.5254035684757613
  0.3631148444678731  0.1100377527272604  0.4628727593643766
  0.4626501580756210  0.0477198384870415  0.5018616738581448
  0.3562894441926489  0.2525845793305372  0.5028501184703709
  0.4500995804383632  0.2421415472526880  0.4274747045659319
  0.4506750758598686  0.1556956555751434  0.4021352495330057
  0.4668068256674771  0.2762051314530691  0.5673499683258773
  0.6197222032765926  0.2915848527369609  0.5322932420394316
  0.6071708278734376  0.2653962382766389  0.4450352456436723
  0.4728400586757898  0.2150210783654617  0.6341386606130270
  0.6316778790275303  0.1836320793270027  0.6320235721259763
  0.7192727236520151  0.2292848751022548  0.5712913037270744
  0.6322290416507942  0.0971975990823000  0.6066982053742990
  0.7260474736585905  0.0867524004404421  0.5313299507463901
  0.7734678747681697  0.1708082151157166  0.5087560736156292
  0.7039358488036879  0.1932008431327225  0.4304677218522103
  0.6095058056011183  0.1242937199470223  0.4000169685413885
  0.6155704859632671  0.0631085465437156  0.4668133948506383
  0.3630202925566831 -0.1478610503452570  0.5952562503510104
  0.3543272140218550 -0.0750728501779222  0.5420477300886314
  0.5233982363219957 -0.1696427365983120  0.6036259400646932
  0.6129507594079927 -0.1101982092114568  0.5555156274787197
  0.5101856697029800 -0.0479019474296755  0.5190120418571738
  0.5478422226160059 -0.2532272818081709  0.5708917929830393
  0.6470344077529426 -0.2414903598084627  0.4977509545861430
  0.6896405285955903 -0.1547549780476201  0.4898619397751676
  0.3982294452165646 -0.2771099299428936  0.5364760459681860
  0.4074674621067266 -0.2914025728878576  0.4467549235922503
  0.5633273047411053 -0.2642532167113782  0.4237363371792848
  0.2788934779788785 -0.2166854597706016  0.5568743747629150
  0.2280127633476733 -0.1845727149756968  0.4759159300610838
  0.3046815389386122 -0.2291242854330241  0.4102465205471232
  0.2706028053642121 -0.0978490155677199  0.4680439239160615
  0.3697796620996047 -0.0861099741509038  0.3949013378939002
  0.3942535785183064 -0.1696838084426143  0.3621521778478541
  0.5546405459458991 -0.1914673438214175  0.3705271974166514
  0.6387675891286936 -0.1226292920737962  0.4089061608103136
  0.5194074260501168 -0.0622036529715733  0.4292911755074365
 -0.0695341193010245  0.4367883365282895  0.4625272273454014
 -0.0856236613781263  0.3883465034270390  0.3864818331932612
  0.0923760343267469  0.4529613506591118  0.4744820972052308
  0.1754761613627232  0.4143983991928584  0.4057584651576898
  0.0659675757765544  0.3763239432988690  0.3475279631713450
  0.1424283957897794  0.4171421257943800  0.5539976302940067
  0.2510118576129644  0.3516440519581955  0.5304745645259412
  0.2738699906598246  0.3515720246281560  0.4404819104699321
  0.0068132761362325  0.3732233772826634  0.5850546660470097
  0.0358777484760140  0.2846598829375121  0.5921639808268758
  0.1874723284789305  0.2726529227677494  0.5532327975472756
 -0.1290966689332807  0.3900393575121052  0.5339364225359228
 -0.1720210043116328  0.3094211379734216  0.4992339707122663
 -0.0736462304399963  0.2465784038463178  0.5339524355259064
 -0.1491790950791432  0.3093642056465225  0.4092552768587920
 -0.0406109422787423  0.2438636563302907  0.3857309615441049
  0.0094711753689057  0.2080320398633728  0.4652327512665598
  0.1713896911990302  0.2242107048441048  0.4771892724540736
  0.2309497566581247  0.2709576553378284  0.4057662206961112
  0.0950181109842164  0.2877592161896652  0.3546474063368801
  0.1624215293348905  0.6020430266452610  0.5590160435119913
  0.1155802731900020  0.5634754392822410  0.4809531120425375
  0.0297981521580538  0.6035020467259159  0.6130561658009348
 -0.0983107257855097  0.5658418546900416  0.5680756409871062
 -0.0460667036952564  0.5368863283432896  0.4861492601320611
 -0.0076770479318489  0.6893269220841716  0.6342693277405951
 -0.1586432351820004  0.7039160442159168  0.5955458303482266
 -0.2151836134421004  0.6281104261049741  0.5572242968008801
  0.0999555010521938  0.7386992096936458  0.5849770290337974
  0.0187606368340848  0.7912907560933169  0.5254307361713839
 -0.1428702901161724  0.7647125475714895  0.5306507515706059
  0.2147414126139379  0.6868590847038072  0.5436526339957279
  0.1878897355277594  0.7000819113069814  0.4543753331068501
  0.0710216615403003  0.7623549095243679  0.4435045879538180
  0.1313794929321743  0.6242801204968343  0.4160687682492629
 -0.0195748156453120  0.6388695023646321  0.3773393627802328
 -0.0570906685708432  0.7246893016393784  0.3985427548992214
 -0.1897173613517518  0.7261467333696892  0.4525899370440613
 -0.2420417771267403  0.6413200688919571  0.4679445451090758
 -0.1272456320408165  0.5894870666969467  0.4266038080627266
