Generated by VASPKIT code               
   1.00000000000000     
    11.1935814201037047    0.1050735979239767    0.0000000000000000
     0.1045553249973481   11.5894025022837575    0.0000000000000000
     0.0000000000000013    0.0000000000000013   19.7100309559592723
   C 
    84
Direct
  0.9043795354800750  0.7979532352215699  0.5607411096715680
  0.9354990769251259  0.7137711312712369  0.5043886241781621
  0.9956171708445751  0.8110861072655879  0.6081758331239868
  0.0725177988940047  0.7360710470319702  0.5035225862084118
  0.1067291584501007  0.7861774497689140  0.5664004495747008
  0.0001431535270768  0.9309454730845346  0.6239513212651246
  0.1169720672641716  0.9689890613224250  0.6057087275198683
  0.1816873930270546  0.8822725957096509  0.5674161463068828
  0.9181841692263291  0.9992795472161262  0.5807910329200467
  0.8655409679679735  0.9141548600238067  0.5358258652553971
  0.8545078450060473  0.9046702987897817  0.4622797835455970
  0.9785604822234859  0.1191470396720220  0.5741557348236697
  0.9512803731055115  0.0977921393633849  0.4335852368178621
  0.9002302112157352  0.9898844491158414  0.4131235856689202
  0.1070838263583767  0.0764704836996302  0.5713107035692815
  0.9930207814802188  0.8049420376790621  0.4021245171373096
  0.8946708746755760  0.7856877340683255  0.4433805559861952
  0.9943103064048202  0.9216501206285841  0.3781103431268278
  0.1038059835431397  0.9644329049960589  0.4019331051635291
  0.0793619265005105  0.0668727122601709  0.4415055675259651
  0.1425597257173763  0.0518678016245886  0.5035303925617143
  0.1055394682158308  0.7826545645313843  0.4411787052057221
  0.1799592126418830  0.8807593498435082  0.4366763381721128
  0.2242973802010937  0.9407612916937254  0.5013123692731796
  0.6914141788520425  0.5674254552153002  0.5110977758999553
  0.5526169411726372  0.1705029540676222  0.5806852417233372
  0.9486441322258159  0.4483956219298264  0.6103533761736486
  0.6389262289307425  0.6836105713388463  0.5387799684434142
  0.4816783405554688  0.0639905054734342  0.5861575906309042
  0.0156535999728362  0.3428650779809459  0.6174006565008625
  0.6466816705583085  0.5777723645884834  0.4366084616702040
  0.4837142032919672  0.2515603287370141  0.5451097417078543
  0.8367525040171202  0.4260112717889584  0.5778011008129198
  0.5941681188226440  0.6906480334318914  0.4216996257674879
  0.3741545676988736  0.1972199449305521  0.5267024098492641
  0.8293362167236182  0.3085786615192987  0.5624848287798869
  0.5885460967254872  0.7474096331225226  0.4846129201262599
  0.3702963867775324  0.0828222183653224  0.5540857596317963
  0.9373026489233354  0.2461128866753199  0.5915271291311512
  0.5605686701745327  0.4977534108191861  0.4208818988298120
  0.5477275526223195  0.2978548368308722  0.4825470195988260
  0.8121405850761789  0.5070760972304100  0.5179296750925104
  0.4538120093579465  0.5572207639632794  0.3955540401931046
  0.4739117459822992  0.2423596666290138  0.4268954467040160
  0.8185081970134647  0.4108078392920262  0.4634055068233423
  0.4745593218444597  0.6788524429442120  0.3953817078974637
  0.3684034479728311  0.1910627208512850  0.4545898881097941
  0.7959206107290555  0.2863946819914815  0.4872627790156088
  0.5330882031144171  0.4244968320394307  0.4823085850835653
  0.6753070390233376  0.2258722822093233  0.4816508763626359
  0.9306853142771629  0.5797852391310343  0.5101017192217299
  0.4024834032014155  0.4653807061076733  0.4955788275667175
  0.6506909199819333  0.1366374368879235  0.4255655810993915
  0.9930966888208204  0.5171830205554855  0.4496992848813051
  0.3574641148312878  0.5366267122487258  0.4421243394439998
  0.5382493605811689  0.1542931890928116  0.3939070653532113
  0.9195169518163553  0.4234641735917322  0.4242908330746431
  0.5963983452741388  0.4883446849545052  0.5383513224966876
  0.6588267622994977  0.1462182512138170  0.5441163606030059
  0.0098999875152046  0.5325879741445121  0.5695089800969626
  0.5152241907253412  0.5408866085394166  0.5821695814788654
  0.6496616069889285  0.0275695597390424  0.5249086447838565
  0.1125820236711164  0.4760686555166203  0.5444346729737859
  0.3936870450021885  0.5249757440074561  0.5577602856844948
  0.6448153183731975  0.0215579110687827  0.4529405520859200
  0.1007293233618540  0.4657484247021557  0.4695718638488700
  0.5378119544350710  0.6635787802417283  0.5831920613942430
  0.5450616327332014  0.9750774971157483  0.5527792771285860
  0.1146263030605894  0.3580073365050325  0.5723865633206060
  0.4320344336704522  0.7226790335843774  0.5604979388631861
  0.4680752211473802  0.9213077879211724  0.4973046678906528
  0.1019119320964634  0.2827376855323607  0.5163362205897428
  0.3452710593711075  0.6400250235888336  0.5429042791040430
  0.5356867976903743  0.9657800510764289  0.4346913461235644
  0.0966190295666038  0.3423670245660233  0.4530967171217952
  0.3180912669450464  0.6472280495610150  0.4712267797139376
  0.4671869817408378  0.0477298443291900  0.3989433615600291
  0.9855572549928340  0.3167697216196430  0.4224001387856902
  0.3897987220420021  0.7343484214939338  0.4419826800694224
  0.3610306927733973  0.0722944359744275  0.4352502982572730
  0.9176252664653717  0.2185208935482450  0.4588033412586228
  0.4616269583007266  0.7943125707766541  0.4981568696141920
  0.3471671980270727  0.9937196528762442  0.4980825677188392
  0.9905138311644848  0.2132173583394632  0.5226560402696165
 
  0.00000000E+00  0.00000000E+00  0.00000000E+00
  0.00000000E+00  0.00000000E+00  0.00000000E+00
  0.00000000E+00  0.00000000E+00  0.00000000E+00
  0.00000000E+00  0.00000000E+00  0.00000000E+00
  0.00000000E+00  0.00000000E+00  0.00000000E+00
  0.00000000E+00  0.00000000E+00  0.00000000E+00
  0.00000000E+00  0.00000000E+00  0.00000000E+00
  0.00000000E+00  0.00000000E+00  0.00000000E+00
  0.00000000E+00  0.00000000E+00  0.00000000E+00
  0.00000000E+00  0.00000000E+00  0.00000000E+00
  0.00000000E+00  0.00000000E+00  0.00000000E+00
  0.00000000E+00  0.00000000E+00  0.00000000E+00
  0.00000000E+00  0.00000000E+00  0.00000000E+00
  0.00000000E+00  0.00000000E+00  0.00000000E+00
  0.00000000E+00  0.00000000E+00  0.00000000E+00
  0.00000000E+00  0.00000000E+00  0.00000000E+00
  0.00000000E+00  0.00000000E+00  0.00000000E+00
  0.00000000E+00  0.00000000E+00  0.00000000E+00
  0.00000000E+00  0.00000000E+00  0.00000000E+00
  0.00000000E+00  0.00000000E+00  0.00000000E+00
  0.00000000E+00  0.00000000E+00  0.00000000E+00
  0.00000000E+00  0.00000000E+00  0.00000000E+00
  0.00000000E+00  0.00000000E+00  0.00000000E+00
  0.00000000E+00  0.00000000E+00  0.00000000E+00
  0.00000000E+00  0.00000000E+00  0.00000000E+00
  0.00000000E+00  0.00000000E+00  0.00000000E+00
  0.00000000E+00  0.00000000E+00  0.00000000E+00
  0.00000000E+00  0.00000000E+00  0.00000000E+00
  0.00000000E+00  0.00000000E+00  0.00000000E+00
  0.00000000E+00  0.00000000E+00  0.00000000E+00
  0.00000000E+00  0.00000000E+00  0.00000000E+00
  0.00000000E+00  0.00000000E+00  0.00000000E+00
  0.00000000E+00  0.00000000E+00  0.00000000E+00
  0.00000000E+00  0.00000000E+00  0.00000000E+00
  0.00000000E+00  0.00000000E+00  0.00000000E+00
  0.00000000E+00  0.00000000E+00  0.00000000E+00
  0.00000000E+00  0.00000000E+00  0.00000000E+00
  0.00000000E+00  0.00000000E+00  0.00000000E+00
  0.00000000E+00  0.00000000E+00  0.00000000E+00
  0.00000000E+00  0.00000000E+00  0.00000000E+00
  0.00000000E+00  0.00000000E+00  0.00000000E+00
  0.00000000E+00  0.00000000E+00  0.00000000E+00
  0.00000000E+00  0.00000000E+00  0.00000000E+00
  0.00000000E+00  0.00000000E+00  0.00000000E+00
  0.00000000E+00  0.00000000E+00  0.00000000E+00
  0.00000000E+00  0.00000000E+00  0.00000000E+00
  0.00000000E+00  0.00000000E+00  0.00000000E+00
  0.00000000E+00  0.00000000E+00  0.00000000E+00
  0.00000000E+00  0.00000000E+00  0.00000000E+00
  0.00000000E+00  0.00000000E+00  0.00000000E+00
  0.00000000E+00  0.00000000E+00  0.00000000E+00
  0.00000000E+00  0.00000000E+00  0.00000000E+00
  0.00000000E+00  0.00000000E+00  0.00000000E+00
  0.00000000E+00  0.00000000E+00  0.00000000E+00
  0.00000000E+00  0.00000000E+00  0.00000000E+00
  0.00000000E+00  0.00000000E+00  0.00000000E+00
  0.00000000E+00  0.00000000E+00  0.00000000E+00
  0.00000000E+00  0.00000000E+00  0.00000000E+00
  0.00000000E+00  0.00000000E+00  0.00000000E+00
  0.00000000E+00  0.00000000E+00  0.00000000E+00
  0.00000000E+00  0.00000000E+00  0.00000000E+00
  0.00000000E+00  0.00000000E+00  0.00000000E+00
  0.00000000E+00  0.00000000E+00  0.00000000E+00
  0.00000000E+00  0.00000000E+00  0.00000000E+00
  0.00000000E+00  0.00000000E+00  0.00000000E+00
  0.00000000E+00  0.00000000E+00  0.00000000E+00
  0.00000000E+00  0.00000000E+00  0.00000000E+00
  0.00000000E+00  0.00000000E+00  0.00000000E+00
  0.00000000E+00  0.00000000E+00  0.00000000E+00
  0.00000000E+00  0.00000000E+00  0.00000000E+00
  0.00000000E+00  0.00000000E+00  0.00000000E+00
  0.00000000E+00  0.00000000E+00  0.00000000E+00
  0.00000000E+00  0.00000000E+00  0.00000000E+00
  0.00000000E+00  0.00000000E+00  0.00000000E+00
  0.00000000E+00  0.00000000E+00  0.00000000E+00
  0.00000000E+00  0.00000000E+00  0.00000000E+00
  0.00000000E+00  0.00000000E+00  0.00000000E+00
  0.00000000E+00  0.00000000E+00  0.00000000E+00
  0.00000000E+00  0.00000000E+00  0.00000000E+00
  0.00000000E+00  0.00000000E+00  0.00000000E+00
  0.00000000E+00  0.00000000E+00  0.00000000E+00
  0.00000000E+00  0.00000000E+00  0.00000000E+00
  0.00000000E+00  0.00000000E+00  0.00000000E+00
  0.00000000E+00  0.00000000E+00  0.00000000E+00
