C                                       
   1.00000000000000     
    11.1860093219983394   -0.2370543328776590    0.0000000000000000
    -0.2304513343432780   10.4614440647916442    0.0000000000000000
     0.0000000000000000    0.0000000000000000   16.0000000000000000
  C             
    88
Direct
  0.3352604738223479  0.4703096417754764  0.5095029404964984
  0.2839113491625542  0.5414935273873215  0.5836813266162242
  0.2354803823965439  0.4610298824586521  0.4498811652998519
  0.1648710410779839  0.5710193049426167  0.5640906519213560
  0.1414626144607097  0.5263678214768016  0.4826076311179328
  0.2636110057907344  0.5123000258126079  0.3711428073901080
  0.1671434109321421  0.5858863683720955  0.3432071090396915
  0.0749756708097062  0.5912424121405123  0.4182329083028603
  0.3700499239707535  0.6006496456524902  0.3891651517484790
  0.4053097104349461  0.5838851287929733  0.4713592772074970
  0.4387945795810124  0.6883629459914398  0.5380837384883360
  0.3435797668278075  0.7235685513381177  0.3561609955172620
  0.3507248860023415  0.8246098208190905  0.4142350577342288
  0.4069921229458195  0.8261868837003126  0.5013895154046550
  0.2159117940624711  0.7112698105768521  0.3267800364080063
  0.2666501403661944  0.7607867997753819  0.6101586096969730
  0.3446467283730642  0.6604018143927086  0.6031973987730690
  0.3029261461911574  0.8777276898227155  0.5595819860149998
  0.1929488954747642  0.8997901510606030  0.5041047877799855
  0.2360529342735176  0.8780179771765112  0.4169849048611512
  0.1514113445618745  0.8069309013968564  0.3674896156620835
  0.1523369062515267  0.7065152565638180  0.5787967928231224
  0.1214352846469440  0.7778540549930797  0.5115004428350508
  0.0682077193495149  0.7384915519703175  0.4293703665011468
  0.6659621678499501  0.6922092335730634  0.6355985767523142
  0.7473525602892906  0.5864809398798376  0.6399658445947436
  0.7410880579541073  0.7941818209442691  0.6119631692161241
  0.8725490126887602  0.6214323793573580  0.6084133001554296
  0.8589888461040195  0.7479716926346551  0.5894220918439987
  0.6892451943819049  0.8724451085269097  0.5435563798906325
  0.7964017449706811  0.8902298917049495  0.4757637582448278
  0.9009142583747076  0.8159602357334106  0.5140812382562034
  0.6230452994890036  0.7606784393943302  0.5012704506727217
  0.5709652576031016  0.6639046796311610  0.5620540403751100
  0.5920722131584549  0.5175499008048980  0.5417227985590858
  0.6420103844443115  0.7436234563046887  0.4182343377160842
  0.6531924613019027  0.6126767551988296  0.3878501949637704
  0.6449527463396836  0.5168343213819057  0.4511452723811450
  0.7519663541977486  0.8185995506990321  0.4022734468908038
  0.8014485943010047  0.4395565089378096  0.5391935126984103
  0.7061406457824516  0.4938714907626839  0.5884038615508754
  0.7574623175500990  0.4566601066097865  0.4531931859622796
  0.8402323234806202  0.5169803014027390  0.3994881770669549
  0.7772524335235670  0.6141303343493899  0.3586912476700290
  0.8364053904511570  0.7368621850887911  0.3723909526110500
  0.9196743630346401  0.5232652662949266  0.5428560693139346
  0.9400748233662878  0.5786720279434300  0.4492331050386585
  0.9343547709527600  0.7290072236962377  0.4386749250751212
  0.1746532745048485  0.2364229286680953  0.5714114264728811
  0.1334273381072487  0.0966628288997739  0.5949263676602995
  0.0736182942839093  0.3162543054777782  0.6124563047115811
  0.0014769685709216  0.2306332437190874  0.6588029677239882
  0.0394748464749076  0.0969751438105612  0.6501026553254098
  0.9896006230215497  0.3866159491893235  0.5510688863938705
  0.8639505321784944  0.3200933494073064  0.5626291940619973
  0.8773764235208356  0.2301741523673775  0.6347685886548822
  0.0269628955620504  0.3135668485784734  0.4711914156070579
  0.9318636153337041  0.2340433724542642  0.4325765598923901
  0.8461981976243567  0.2307995378826871  0.4921432099463884
  0.1195787589846400  0.2306251416348169  0.4839084198903315
  0.0823186203150430  0.1038496813327204  0.4558592111558150
  0.9663119056640399  0.1009266713061868  0.4228201997639068
  0.1054438156950181  0.0049504070612057  0.5215871908805422
  0.9697665120710782  0.9507872669969263  0.5370990672235023
  0.8808385870644866  0.0116320932704167  0.4737881181887641
  0.8017995910752046  0.1023318902340289  0.5176443268014633
  0.8477776987117016  0.1034069954029093  0.6072312552766517
  0.9403856545805503  0.0182589189046824  0.6183156373432644
  0.5073668325254648  0.2910847273922574  0.6386652250431935
  0.4030006650069042  0.2129838097069432  0.6412842532245935
  0.6033304195443348  0.1980684020211755  0.6354041257458527
  0.5611837948703738  0.0649495928585871  0.6391585402027008
  0.4363692390652865  0.0769548679563123  0.6421336363808979
  0.6480867223944774  0.2128047950345044  0.5560352929758176
  0.6678429446892689  0.0941858902711923  0.5087666257128955
  0.6042279720679404  0.9847280234269249  0.5592133774108936
  0.5986539989732385  0.3065200255173634  0.5077154131145777
  0.5505583679114433  0.2524953984301584  0.4343008860721109
  0.5879186541722572  0.1186053565560116  0.4329500778782996
  0.5151479657787347  0.3810422786737074  0.5599835960099447
  0.3927494023132505  0.3466624466845828  0.5176190592046938
  0.4262089293315636  0.2675127174645777  0.4382595433578270
  0.3154459309276650  0.2414537159916238  0.5706359605401589
  0.3330060756082256  0.1177524143758561  0.5233980061092136
  0.3850862208573235  0.1354742931253977  0.4467327487718081
  0.4830297371145305  0.0467772372056520  0.4415283963035059
  0.4809052491425145  0.9557050439244952  0.5149734181497578
  0.3775641128687965  0.0055838165894172  0.5716106577610202
 
  0.00000000E+00  0.00000000E+00  0.00000000E+00
  0.00000000E+00  0.00000000E+00  0.00000000E+00
  0.00000000E+00  0.00000000E+00  0.00000000E+00
  0.00000000E+00  0.00000000E+00  0.00000000E+00
  0.00000000E+00  0.00000000E+00  0.00000000E+00
  0.00000000E+00  0.00000000E+00  0.00000000E+00
  0.00000000E+00  0.00000000E+00  0.00000000E+00
  0.00000000E+00  0.00000000E+00  0.00000000E+00
  0.00000000E+00  0.00000000E+00  0.00000000E+00
  0.00000000E+00  0.00000000E+00  0.00000000E+00
  0.00000000E+00  0.00000000E+00  0.00000000E+00
  0.00000000E+00  0.00000000E+00  0.00000000E+00
  0.00000000E+00  0.00000000E+00  0.00000000E+00
  0.00000000E+00  0.00000000E+00  0.00000000E+00
  0.00000000E+00  0.00000000E+00  0.00000000E+00
  0.00000000E+00  0.00000000E+00  0.00000000E+00
  0.00000000E+00  0.00000000E+00  0.00000000E+00
  0.00000000E+00  0.00000000E+00  0.00000000E+00
  0.00000000E+00  0.00000000E+00  0.00000000E+00
  0.00000000E+00  0.00000000E+00  0.00000000E+00
  0.00000000E+00  0.00000000E+00  0.00000000E+00
  0.00000000E+00  0.00000000E+00  0.00000000E+00
  0.00000000E+00  0.00000000E+00  0.00000000E+00
  0.00000000E+00  0.00000000E+00  0.00000000E+00
  0.00000000E+00  0.00000000E+00  0.00000000E+00
  0.00000000E+00  0.00000000E+00  0.00000000E+00
  0.00000000E+00  0.00000000E+00  0.00000000E+00
  0.00000000E+00  0.00000000E+00  0.00000000E+00
  0.00000000E+00  0.00000000E+00  0.00000000E+00
  0.00000000E+00  0.00000000E+00  0.00000000E+00
  0.00000000E+00  0.00000000E+00  0.00000000E+00
  0.00000000E+00  0.00000000E+00  0.00000000E+00
  0.00000000E+00  0.00000000E+00  0.00000000E+00
  0.00000000E+00  0.00000000E+00  0.00000000E+00
  0.00000000E+00  0.00000000E+00  0.00000000E+00
  0.00000000E+00  0.00000000E+00  0.00000000E+00
  0.00000000E+00  0.00000000E+00  0.00000000E+00
  0.00000000E+00  0.00000000E+00  0.00000000E+00
  0.00000000E+00  0.00000000E+00  0.00000000E+00
  0.00000000E+00  0.00000000E+00  0.00000000E+00
  0.00000000E+00  0.00000000E+00  0.00000000E+00
  0.00000000E+00  0.00000000E+00  0.00000000E+00
  0.00000000E+00  0.00000000E+00  0.00000000E+00
  0.00000000E+00  0.00000000E+00  0.00000000E+00
  0.00000000E+00  0.00000000E+00  0.00000000E+00
  0.00000000E+00  0.00000000E+00  0.00000000E+00
  0.00000000E+00  0.00000000E+00  0.00000000E+00
  0.00000000E+00  0.00000000E+00  0.00000000E+00
  0.00000000E+00  0.00000000E+00  0.00000000E+00
  0.00000000E+00  0.00000000E+00  0.00000000E+00
  0.00000000E+00  0.00000000E+00  0.00000000E+00
  0.00000000E+00  0.00000000E+00  0.00000000E+00
  0.00000000E+00  0.00000000E+00  0.00000000E+00
  0.00000000E+00  0.00000000E+00  0.00000000E+00
  0.00000000E+00  0.00000000E+00  0.00000000E+00
  0.00000000E+00  0.00000000E+00  0.00000000E+00
  0.00000000E+00  0.00000000E+00  0.00000000E+00
  0.00000000E+00  0.00000000E+00  0.00000000E+00
  0.00000000E+00  0.00000000E+00  0.00000000E+00
  0.00000000E+00  0.00000000E+00  0.00000000E+00
  0.00000000E+00  0.00000000E+00  0.00000000E+00
  0.00000000E+00  0.00000000E+00  0.00000000E+00
  0.00000000E+00  0.00000000E+00  0.00000000E+00
  0.00000000E+00  0.00000000E+00  0.00000000E+00
  0.00000000E+00  0.00000000E+00  0.00000000E+00
  0.00000000E+00  0.00000000E+00  0.00000000E+00
  0.00000000E+00  0.00000000E+00  0.00000000E+00
  0.00000000E+00  0.00000000E+00  0.00000000E+00
  0.00000000E+00  0.00000000E+00  0.00000000E+00
  0.00000000E+00  0.00000000E+00  0.00000000E+00
  0.00000000E+00  0.00000000E+00  0.00000000E+00
  0.00000000E+00  0.00000000E+00  0.00000000E+00
  0.00000000E+00  0.00000000E+00  0.00000000E+00
  0.00000000E+00  0.00000000E+00  0.00000000E+00
  0.00000000E+00  0.00000000E+00  0.00000000E+00
  0.00000000E+00  0.00000000E+00  0.00000000E+00
  0.00000000E+00  0.00000000E+00  0.00000000E+00
  0.00000000E+00  0.00000000E+00  0.00000000E+00
  0.00000000E+00  0.00000000E+00  0.00000000E+00
  0.00000000E+00  0.00000000E+00  0.00000000E+00
  0.00000000E+00  0.00000000E+00  0.00000000E+00
  0.00000000E+00  0.00000000E+00  0.00000000E+00
  0.00000000E+00  0.00000000E+00  0.00000000E+00
  0.00000000E+00  0.00000000E+00  0.00000000E+00
  0.00000000E+00  0.00000000E+00  0.00000000E+00
  0.00000000E+00  0.00000000E+00  0.00000000E+00
  0.00000000E+00  0.00000000E+00  0.00000000E+00
  0.00000000E+00  0.00000000E+00  0.00000000E+00
