C                                       
   1.00000000000000     
    14.8128038445360097   -0.0296932138803920    0.0000000000000000
    -0.0312305779684060   14.8816584319043717    0.0000000000000000
     0.0000000000000000    0.0000000000000000   16.0000000000000000
  C             
   128
Direct
  0.6301990961576309  0.1351505667149583  0.4433240088240266
  0.5423320520860823  0.1337176315368214  0.3912333735230316
  0.5924319886142561  0.1328478456433968  0.5278837287874488
  0.4536058460664699  0.1387931913454197  0.4465014067161522
  0.4991549518584575  0.1286338302442051  0.5323622393968593
  0.6340518726410697  0.0683649552280800  0.5810166685809295
  0.5664318389238113  0.0300177313188799  0.6299217888133590
  0.4784154384628335  0.0627552592102452  0.5966659993962667
  0.6818311031098863  0.9948132514149086  0.5251094938222377
  0.6658527318712117  0.0351322016353563  0.4330464855060006
  0.6012651320106337  0.9868058498864375  0.3782957129530095
  0.6261424018562213  0.9134698801223112  0.5468231321071126
  0.5755375948510395  0.8542167605940816  0.4823151454331360
  0.5603253051345676  0.9053587089359022  0.3997751130075049
  0.5666065345830761  0.9352128823514769  0.6103518261412750
  0.4465189991151038  0.0090622762681318  0.3643751798960846
  0.5343482283735521  0.0522350458561909  0.3510296193160662
  0.4629610950619575  0.9162605618031324  0.3877615593567320
  0.4128931141584133  0.8931845920750721  0.4576479418808344
  0.4768639601642251  0.8607236013903132  0.5160324549400575
  0.4747392144664412  0.9073732755206032  0.5904176079442504
  0.4024424139967543  0.0500162191511246  0.4292218861899158
  0.3661289694651333  0.9802367959495289  0.4951230545643905
  0.4251179244984018  0.9894268075628792  0.5746347753565845
  0.0157024613072399  0.4476861466021148  0.3628237925506754
  0.0666077436856517  0.3890586187185889  0.4084389206840119
  0.9207297325735331  0.4418938009239259  0.3844807160788118
  0.0110741856122992  0.3416796495104629  0.4731270987006317
  0.9070398556400239  0.3779817546769385  0.4604126671391003
  0.8916313814193410  0.5277014439812516  0.3990470406219264
  0.8415246500118546  0.5345284093340039  0.4804780847294947
  0.8713789302376747  0.4454211365428545  0.5224424069565546
  0.9744694201102603  0.5891765193577293  0.4021186270797756
  0.0502905043104161  0.5399325796176486  0.3784846831750063
  0.1294950157399121  0.5281157695118837  0.4332183769722334
  0.9754694200189831  0.6288037075610059  0.4835264600416470
  0.0570374283230147  0.6315550841980345  0.5441508157500462
  0.1254204303832404  0.5575703748381089  0.5177277168513896
  0.9004474994582504  0.5996395408306435  0.5266579334810157
  0.1465559836967460  0.4018646335373319  0.5662492817318504
  0.1598822748499204  0.4262563730912028  0.4182581547855921
  0.1411449196924925  0.4992963469966457  0.5934137726694430
  0.0614735239903064  0.5054774392909074  0.6393634476673831
  0.0141944430361247  0.5856211245820085  0.6229817250053223
  0.9253334372912825  0.5631356447381209  0.6051912905279320
  0.0497223329762812  0.3749018324947447  0.5559893305268809
  0.0030422021408259  0.4269390576755570  0.6136495931602890
  0.9141173325358791  0.4636991081817062  0.5966681833874445
  0.7316601223165713  0.5934636341656373  0.5877622852413850
  0.7046234980043731  0.6838415199528930  0.5891547593742708
  0.7463778519254218  0.5628525378092353  0.4966617246063060
  0.7111782241590366  0.6464592815496184  0.4509788239173276
  0.6959247121530139  0.7197377300383412  0.5031178710179203
  0.6655904162084214  0.4993874538419065  0.4870584779775504
  0.6052584176926444  0.5328766231279624  0.4270429997259494
  0.6291191012548581  0.6237177088511563  0.4079276863231856
  0.6226124368069564  0.4775193543091893  0.5650459701197110
  0.5221356309924029  0.4973307770259824  0.5577945448965930
  0.5116687344140218  0.5326011499986228  0.4620286368142113
  0.6590738712055256  0.5412948344299939  0.6234135139849148
  0.5905330755630109  0.6014675848341715  0.6541605361273639
  0.5099397138928711  0.5811314878080018  0.6096893485340082
  0.6193830902588677  0.6922640709223992  0.6327131419792505
  0.5573290358514859  0.7239655114959554  0.5733898004942188
  0.4864032665626406  0.6559472961741879  0.5593809387989677
  0.4936396308064052  0.6321975995782919  0.4730409067924166
  0.5589333843276963  0.6851987050851324  0.4311966874850369
  0.5996886539530921  0.7561939028744360  0.4906312333121945
  0.3119300316820842  0.3570943765172067  0.5954872376258561
  0.3742114672111738  0.2893799384805557  0.5746516184442868
  0.2247864272312313  0.3368439299288983  0.5529249289155297
  0.2472910423786342  0.2638651825826100  0.4881473502895894
  0.3334818433453452  0.2339251268162698  0.5120265543838473
  0.2099412464232380  0.4178741157544481  0.4967966806031654
  0.2299497815989068  0.3780344407259371  0.3674496249389824
  0.2539257874685643  0.2871557758942847  0.3969313673844465
  0.2942864550343324  0.4710773899373735  0.5003238717825902
  0.3444619523079105  0.4758933259257661  0.4252723900313033
  0.3151223193076511  0.4199001844328747  0.3570516218251945
  0.3486628807786190  0.4401733231434176  0.5675569588940108
  0.4464969993500416  0.4304516665596165  0.5415234872019190
  0.4430249481149851  0.4589797364996801  0.4454155310274174
  0.4568591520490327  0.3299186727176497  0.5416321628117163
  0.4657910353990661  0.3009910616258782  0.4599234711781630
  0.4598272241214976  0.3712220362976838  0.3999954969257987
  0.3842155158503623  0.3501862116157600  0.3490191098047343
  0.3446068855794475  0.2656932136021500  0.3701951945969969
  0.4001219534188544  0.2238512527807025  0.4408523919212294
  0.1182972466638502  0.9394003438000804  0.4631594016289299
  0.0607407590531191  0.8588718225756872  0.4723607429491283
  0.2068772993583383  0.9104181196109682  0.4599190730132077
  0.2051554735654834  0.8121769204144839  0.4693191860434204
  0.1135843903756776  0.7803257813609866  0.4734198411565021
  0.2679094578544420  0.9555611320428447  0.5239542447986631
  0.2798749488668997  0.8721352898023083  0.5825573758546047
  0.2489311730670925  0.7902652530393006  0.5446149397814825
  0.1929633689264414  0.0096814365370171  0.5751395787343925
  0.1763015355272785  0.9612538528744851  0.6496897274134834
  0.2325945338414153  0.8812589971026742  0.6576302784030551
  0.1015953184902396  0.0104473052763888  0.5292325362484012
  0.0267340851126660  0.9567378258166236  0.5891170781841921
  0.0834486089349681  0.9319363813969426  0.6630681550469143
  0.0115762266192137  0.8651426978190324  0.5495271031988653
  0.0327642347902446  0.7933828367778752  0.6023795051930295
  0.0835781677060290  0.8363002436613131  0.6700595428443369
  0.1744054404143442  0.8029667006548773  0.6689243167799204
  0.1848098825720555  0.7429165887034316  0.6007271398090399
  0.0949185893490056  0.7256728205692182  0.5548989967738533
  0.7401564003264380  0.1678243474812006  0.4504622934579207
  0.8162346426531200  0.2228606698934403  0.4067123023775021
  0.7786225352746372  0.1759341940958295  0.5393683001289145
  0.8501187039563248  0.2353772839705964  0.5489521983555068
  0.8757793390159169  0.2782210237211836  0.4667386915980077
  0.8080441678612998  0.0899798275868961  0.5731906196472207
  0.8944346862765432  0.0920913669932919  0.6060711073376958
  0.9247593528619817  0.1829069340851706  0.5872677713786613
  0.7882322785407605  0.0174495028687722  0.5126147046341041
  0.8866043530076807  0.9871873843436497  0.4957529001229825
  0.9535786093356278  0.0236050018397298  0.5625727130787538
  0.7628260931104890  0.0675153194512143  0.4287102529776904
  0.8423013105781916  0.0696402966945161  0.3729524371145765
  0.9122333276554330  0.0249644762901113  0.4175193868500720
  0.8728095266725610  0.1621240782060519  0.3659015438794007
  0.9673718535335654  0.1704137172981418  0.3938346754726477
  0.9890538887852944  0.0856097260686426  0.4250937049327591
  0.0255075892290452  0.0831945589049630  0.5118197198657628
  0.9984188647728983  0.1805680801219275  0.5350481826183582
  0.9781693075173790  0.2418345309653547  0.4610534868813509
 
  0.00000000E+00  0.00000000E+00  0.00000000E+00
  0.00000000E+00  0.00000000E+00  0.00000000E+00
  0.00000000E+00  0.00000000E+00  0.00000000E+00
  0.00000000E+00  0.00000000E+00  0.00000000E+00
  0.00000000E+00  0.00000000E+00  0.00000000E+00
  0.00000000E+00  0.00000000E+00  0.00000000E+00
  0.00000000E+00  0.00000000E+00  0.00000000E+00
  0.00000000E+00  0.00000000E+00  0.00000000E+00
  0.00000000E+00  0.00000000E+00  0.00000000E+00
  0.00000000E+00  0.00000000E+00  0.00000000E+00
  0.00000000E+00  0.00000000E+00  0.00000000E+00
  0.00000000E+00  0.00000000E+00  0.00000000E+00
  0.00000000E+00  0.00000000E+00  0.00000000E+00
  0.00000000E+00  0.00000000E+00  0.00000000E+00
  0.00000000E+00  0.00000000E+00  0.00000000E+00
  0.00000000E+00  0.00000000E+00  0.00000000E+00
  0.00000000E+00  0.00000000E+00  0.00000000E+00
  0.00000000E+00  0.00000000E+00  0.00000000E+00
  0.00000000E+00  0.00000000E+00  0.00000000E+00
  0.00000000E+00  0.00000000E+00  0.00000000E+00
  0.00000000E+00  0.00000000E+00  0.00000000E+00
  0.00000000E+00  0.00000000E+00  0.00000000E+00
  0.00000000E+00  0.00000000E+00  0.00000000E+00
  0.00000000E+00  0.00000000E+00  0.00000000E+00
  0.00000000E+00  0.00000000E+00  0.00000000E+00
  0.00000000E+00  0.00000000E+00  0.00000000E+00
  0.00000000E+00  0.00000000E+00  0.00000000E+00
  0.00000000E+00  0.00000000E+00  0.00000000E+00
  0.00000000E+00  0.00000000E+00  0.00000000E+00
  0.00000000E+00  0.00000000E+00  0.00000000E+00
  0.00000000E+00  0.00000000E+00  0.00000000E+00
  0.00000000E+00  0.00000000E+00  0.00000000E+00
  0.00000000E+00  0.00000000E+00  0.00000000E+00
  0.00000000E+00  0.00000000E+00  0.00000000E+00
  0.00000000E+00  0.00000000E+00  0.00000000E+00
  0.00000000E+00  0.00000000E+00  0.00000000E+00
  0.00000000E+00  0.00000000E+00  0.00000000E+00
  0.00000000E+00  0.00000000E+00  0.00000000E+00
  0.00000000E+00  0.00000000E+00  0.00000000E+00
  0.00000000E+00  0.00000000E+00  0.00000000E+00
  0.00000000E+00  0.00000000E+00  0.00000000E+00
  0.00000000E+00  0.00000000E+00  0.00000000E+00
  0.00000000E+00  0.00000000E+00  0.00000000E+00
  0.00000000E+00  0.00000000E+00  0.00000000E+00
  0.00000000E+00  0.00000000E+00  0.00000000E+00
  0.00000000E+00  0.00000000E+00  0.00000000E+00
  0.00000000E+00  0.00000000E+00  0.00000000E+00
  0.00000000E+00  0.00000000E+00  0.00000000E+00
  0.00000000E+00  0.00000000E+00  0.00000000E+00
  0.00000000E+00  0.00000000E+00  0.00000000E+00
  0.00000000E+00  0.00000000E+00  0.00000000E+00
  0.00000000E+00  0.00000000E+00  0.00000000E+00
  0.00000000E+00  0.00000000E+00  0.00000000E+00
  0.00000000E+00  0.00000000E+00  0.00000000E+00
  0.00000000E+00  0.00000000E+00  0.00000000E+00
  0.00000000E+00  0.00000000E+00  0.00000000E+00
  0.00000000E+00  0.00000000E+00  0.00000000E+00
  0.00000000E+00  0.00000000E+00  0.00000000E+00
  0.00000000E+00  0.00000000E+00  0.00000000E+00
  0.00000000E+00  0.00000000E+00  0.00000000E+00
  0.00000000E+00  0.00000000E+00  0.00000000E+00
  0.00000000E+00  0.00000000E+00  0.00000000E+00
  0.00000000E+00  0.00000000E+00  0.00000000E+00
  0.00000000E+00  0.00000000E+00  0.00000000E+00
  0.00000000E+00  0.00000000E+00  0.00000000E+00
  0.00000000E+00  0.00000000E+00  0.00000000E+00
  0.00000000E+00  0.00000000E+00  0.00000000E+00
  0.00000000E+00  0.00000000E+00  0.00000000E+00
  0.00000000E+00  0.00000000E+00  0.00000000E+00
  0.00000000E+00  0.00000000E+00  0.00000000E+00
  0.00000000E+00  0.00000000E+00  0.00000000E+00
  0.00000000E+00  0.00000000E+00  0.00000000E+00
  0.00000000E+00  0.00000000E+00  0.00000000E+00
  0.00000000E+00  0.00000000E+00  0.00000000E+00
  0.00000000E+00  0.00000000E+00  0.00000000E+00
  0.00000000E+00  0.00000000E+00  0.00000000E+00
  0.00000000E+00  0.00000000E+00  0.00000000E+00
  0.00000000E+00  0.00000000E+00  0.00000000E+00
  0.00000000E+00  0.00000000E+00  0.00000000E+00
  0.00000000E+00  0.00000000E+00  0.00000000E+00
  0.00000000E+00  0.00000000E+00  0.00000000E+00
  0.00000000E+00  0.00000000E+00  0.00000000E+00
  0.00000000E+00  0.00000000E+00  0.00000000E+00
  0.00000000E+00  0.00000000E+00  0.00000000E+00
  0.00000000E+00  0.00000000E+00  0.00000000E+00
  0.00000000E+00  0.00000000E+00  0.00000000E+00
  0.00000000E+00  0.00000000E+00  0.00000000E+00
  0.00000000E+00  0.00000000E+00  0.00000000E+00
  0.00000000E+00  0.00000000E+00  0.00000000E+00
  0.00000000E+00  0.00000000E+00  0.00000000E+00
  0.00000000E+00  0.00000000E+00  0.00000000E+00
  0.00000000E+00  0.00000000E+00  0.00000000E+00
  0.00000000E+00  0.00000000E+00  0.00000000E+00
  0.00000000E+00  0.00000000E+00  0.00000000E+00
  0.00000000E+00  0.00000000E+00  0.00000000E+00
  0.00000000E+00  0.00000000E+00  0.00000000E+00
  0.00000000E+00  0.00000000E+00  0.00000000E+00
  0.00000000E+00  0.00000000E+00  0.00000000E+00
  0.00000000E+00  0.00000000E+00  0.00000000E+00
  0.00000000E+00  0.00000000E+00  0.00000000E+00
  0.00000000E+00  0.00000000E+00  0.00000000E+00
  0.00000000E+00  0.00000000E+00  0.00000000E+00
  0.00000000E+00  0.00000000E+00  0.00000000E+00
  0.00000000E+00  0.00000000E+00  0.00000000E+00
  0.00000000E+00  0.00000000E+00  0.00000000E+00
  0.00000000E+00  0.00000000E+00  0.00000000E+00
  0.00000000E+00  0.00000000E+00  0.00000000E+00
  0.00000000E+00  0.00000000E+00  0.00000000E+00
  0.00000000E+00  0.00000000E+00  0.00000000E+00
  0.00000000E+00  0.00000000E+00  0.00000000E+00
  0.00000000E+00  0.00000000E+00  0.00000000E+00
  0.00000000E+00  0.00000000E+00  0.00000000E+00
  0.00000000E+00  0.00000000E+00  0.00000000E+00
  0.00000000E+00  0.00000000E+00  0.00000000E+00
  0.00000000E+00  0.00000000E+00  0.00000000E+00
  0.00000000E+00  0.00000000E+00  0.00000000E+00
  0.00000000E+00  0.00000000E+00  0.00000000E+00
  0.00000000E+00  0.00000000E+00  0.00000000E+00
  0.00000000E+00  0.00000000E+00  0.00000000E+00
  0.00000000E+00  0.00000000E+00  0.00000000E+00
  0.00000000E+00  0.00000000E+00  0.00000000E+00
  0.00000000E+00  0.00000000E+00  0.00000000E+00
  0.00000000E+00  0.00000000E+00  0.00000000E+00
  0.00000000E+00  0.00000000E+00  0.00000000E+00
  0.00000000E+00  0.00000000E+00  0.00000000E+00
  0.00000000E+00  0.00000000E+00  0.00000000E+00
  0.00000000E+00  0.00000000E+00  0.00000000E+00
  0.00000000E+00  0.00000000E+00  0.00000000E+00
