C 
 1.0000000000000000
    13.5667540357354621    0.0000000000000000    0.0000000000000000
     0.0000000000000000   13.5667540357354621    0.0000000000000000
     0.0000000000000000    0.0000000000000000   16.0000000000000000
 C  
 128
Direct
  0.3456705310743216 -0.0660427166144413  0.5443123369942667
  0.3703588775173963 -0.1120578352700592  0.4664515539988897
  0.4168319842981454 -0.0899071734188272  0.6072745687924800
  0.4720872470856651 -0.1504444094924049  0.4766604951742870
  0.5005294387031954 -0.1368273799966523  0.5625692360235248
  0.4557829723401003 -0.0021229262512771  0.6443239082147846
  0.5613012353546768 -0.0011684440122860  0.6397303847116020
  0.5887553563332960 -0.0827080645460801  0.5825216784002450
  0.4217278843343344  0.0807115753520654  0.5910814617868193
  0.3543749006970629  0.0415969729886533  0.5299195500853721
  0.3723481270081827  0.0571172442053235  0.4421792617722747
  0.5071136955444863  0.1354154854992521  0.5645454053609441
  0.5250728271744536  0.1509590435597197  0.4768439167876742
  0.4577269531691026  0.1118256757094538  0.4156675725797386
  0.5957295110574438  0.0875326432297455  0.6009840819120096
  0.4680455237756158 -0.0457124669557771  0.3586305819237871
  0.3749400759211798 -0.0407426543316591  0.4006225879022345
  0.5148939899697166  0.0489448764905000  0.3572874232235732
  0.6124608380566172  0.0430876657477668  0.3910694122074138
  0.6249613890158879  0.1129082827665744  0.4573392210561215
  0.6590041136243104  0.0652615304562620  0.5319097331736957
  0.5318269027632558 -0.1098757540838290  0.4106957809411573
  0.6200033901593713 -0.0556620016514801  0.4306130364707531
  0.6484522350221810 -0.0420891693805420  0.5165409695015911
  0.0650931318415834  0.3417537814553763  0.5261031132070891
  0.1166084267777721  0.3790059327251831  0.4545691334600723
  0.0850723070952455  0.4007660725801961  0.5983787750669256
  0.1549672655233346  0.4772099930129526  0.4793149925002495
  0.1356255146748502  0.4905767469057756  0.5670521895303470
 -0.0048407157997404  0.4342286289291276  0.6356135497751410
 -0.0046993988490906  0.5393900820265026  0.6443191863278923
  0.0808660891236844  0.5752088618051249  0.5952413669103521
 -0.0840876256031116  0.4111586009200133  0.5747530650695110
 -0.0412952817529336  0.3545916205624172  0.5077815757503370
 -0.0505714526365217  0.3879095317702078  0.4226709803760471
 -0.1362275523761016  0.5010961571231329  0.5566599048849352
 -0.1455297635065320  0.5343937384479084  0.4715847135761062
 -0.1027176340094783  0.4778360047653045  0.4046007787661342
 -0.0903045242203800  0.5816087870822079  0.6061097835508837
  0.0585749580015154  0.4954646368935158  0.3572119442147396
  0.0500174370792925  0.3961528351432962  0.3867048617002660
 -0.0354785455833795  0.5435399849829495  0.3572050799924025
 -0.0312572618248675  0.6340392520811207  0.4031258234821207
 -0.1054590532320236  0.6359639753162309  0.4667474488026710
 -0.0628172280125569  0.6558661346556971  0.5469602638305979
  0.1194835977142722  0.5484343018941233  0.4197499036810932
  0.0646319780139852  0.6330251802868271  0.4478935488042609
  0.0453330646553964  0.6463944609132334  0.5356526698288561
  0.7241722006475357  0.1830962345774165  0.4776270732472765
  0.8082138333198823  0.2343947460418982  0.5133691730199849
  0.7140656256889526  0.2152110957293522  0.3925842587548195
  0.7919151287320805  0.2862142068346158  0.3762414925571732
  0.8548170000916921  0.2965933055384022  0.4499888870397181
  0.6176307185550437  0.2616127955537478  0.3814155493214509
  0.6399349452468901  0.3649064997421386  0.3633113850763208
  0.7459441183980460  0.3790469427234768  0.3580777754075351
  0.5746893880344029  0.2630512737981700  0.4648407969885509
  0.5575050027223849  0.3634278454781391  0.4935888926547618
  0.6040831967591830  0.4256094598236829  0.4301980755566591
  0.6345965826436173  0.2077365206505533  0.5240245728973240
  0.6663507940930171  0.2809637692679409  0.5854922805195585
  0.6203836625518149  0.3738080190609349  0.5673457962020878
  0.7723449197962686  0.2950824492459871  0.5802581619831153
  0.7946501433716067  0.3983741090259856  0.5621625045835095
  0.6982304988622939  0.4447989132276578  0.5509865893028939
  0.6881226898824716  0.4769103507316980  0.4659369857683589
  0.7777143368041791  0.4522724889421715  0.4195424934343993
  0.8376203965768753  0.3969660758330709  0.4787435405779800
  0.2796895113145999  0.8234238882846873  0.5123990887331175
  0.1909100411735100  0.7695503481224086  0.5346272682979774
  0.3145277244952495  0.7848379187984130  0.4342699500982353
  0.2470891705568526  0.7072968670612444  0.4086506756131892
  0.1662816840835405  0.6989073255088821  0.4687794020897615
  0.4136455559050996  0.7445169211608228  0.4455246443283697
  0.4023020452725144  0.6386203653784026  0.4313314738252986
  0.3015240590084259  0.6166199590059180  0.4068182589577466
  0.4325029553280833  0.7533273888473745  0.5348305029420796
  0.4464856318468393  0.6571693384974771  0.5734865099001818
  0.4218835426918048  0.5865440251056819  0.5076319990494357
  0.3552063492261616  0.8092432611776639  0.5765348966445961
  0.3112711466029648  0.7394683339584519  0.6354446233603659
  0.3656981297883284  0.6487811876074366  0.6336290235447862
  0.2105067872190013  0.7174905955495374  0.6109322064989378
  0.1991598658057099  0.6115967385364243  0.5967469407604444
  0.2982660500914479  0.5712510564888047  0.6079934138849221
  0.3331071495945278  0.5326679931325643  0.5298576758951238
  0.2575740450014283  0.5468453373402907  0.4657218664264087
  0.1802742277243498  0.6027544858961910  0.5074438474135504
  0.8269168567043179  0.7204260658206678  0.5205337104025195
  0.7740277473275292  0.8069193058327340  0.5498212192228712
  0.7989287145492602  0.7038624607138426  0.4351710057479273
  0.7288624611536314  0.7802088838210067  0.4121766154799875
  0.7149974937261961  0.8485409506570456  0.4819301720426679
  0.7529980198137571  0.6067114867887359  0.4276647904007782
  0.6506913159446283  0.6274449533738283  0.4048116959934773
  0.6369343982466927  0.7328189298410954  0.3933391431051610
  0.7474798691617864  0.5701633314132319  0.5131325706939865
  0.6457787860146303  0.5550359089313336  0.5392439293898325
  0.5867659444458315  0.5966318618754809  0.4713443279294826
  0.7999541655222357  0.6345051969894878  0.5708100435133155
  0.7238526547938744  0.6707303270364923  0.6278290923202974
  0.6319122589619076  0.6233455292675127  0.6090081919166410
  0.7101174895549336  0.7760892814563830  0.6163576061917939
  0.6078124182644822  0.7968243890855661  0.5935130108104525
  0.5618590039988192  0.6996880666780334  0.5859979780493916
  0.5338746094175472  0.6831227220116300  0.5006286900704549
  0.5608347509177585  0.7690598104639252  0.4503543999721428
  0.6132998780822194  0.8334018366412784  0.5080488658773202
  0.1898869483275562  0.3509350620419376  0.5639837212104308
  0.2406107822787025  0.2987377682520742  0.6306085404028949
  0.1787792502741358  0.2838459632867322  0.4952634331009810
  0.2227325272706122  0.1905470423278195  0.5197930291227325
  0.2584648254855482  0.1964579435497076  0.6059193645918123
  0.2296313659189642  0.3234293064570263  0.4219609297330545
  0.3101479673207938  0.2540851173949709  0.4065249642989487
  0.3041949380972759  0.1720831168374738  0.4647558412923893
  0.2781269883014763  0.4123645206218465  0.4521176628972519
  0.3848689767909598  0.4049765671989998  0.4449319043627850
  0.4027064633027076  0.3027129932394841  0.4202232665860809
  0.2482349379196602  0.4359281898223066  0.5372131311846738
  0.3391298389525158  0.4293685333063488  0.5860755309186880
  0.4206104015140313  0.4109097908002560  0.5310504631862751
  0.3331593084600484  0.3473851173095411  0.6443004885986847
  0.4136780717183388  0.2780471849097814  0.6288712000639608
  0.4645450979023686  0.3176057064015957  0.5555693198873060
  0.4534312027762986  0.2505139225240777  0.4868442549180789
  0.3950844225193140  0.1655110183123446  0.5136261684750424
  0.3652084544768726  0.1890845930502066  0.5987312663574229
