C                                       
   1.00000000000000     
    10.8909797143399931   -1.0731949812156161    0.0000000000000000
    -1.0535956667964581   11.0376792126727530    0.0000000000000000
     0.0000000000000000    0.0000000000000000   16.0000000000000000
   C 
    64
Direct
  0.4075879883312412  0.6730888965882480  0.5560050279965196
  0.3453368680365357  0.5493924962264207  0.5935824073060685
  0.5462254596398290  0.6922311633272736  0.5782920430820548
  0.4549868471989766  0.4895387060279449  0.6155889305763352
  0.5684224943122618  0.5702529067997985  0.6133566731462786
  0.6181337855077047  0.7025956968011853  0.4963346306373438
  0.7048718886428914  0.6230538598355583  0.4959495802366423
  0.6757785506154425  0.5308925548714826  0.5701270329836058
  0.5323894515807607  0.6724182530764674  0.4193379042270455
  0.3992237781892448  0.6553475278913733  0.4547580420183123
  0.3106382577491029  0.5365902048154325  0.4353948396953528
  0.5847999522028789  0.5807990492937797  0.3705888837932615
  0.5079622101869246  0.4698633814393137  0.3567147300257957
  0.3755251049629043  0.4443280784089672  0.3872063448953413
  0.7049341122911208  0.5599623639620783  0.4122032758671589
  0.3401099974027831  0.3595247503920264  0.5228498259654595
  0.2837369710709647  0.4665287250822516  0.5243538558601666
  0.3753276087452388  0.3418257205812480  0.4381748363755498
  0.4970031235018416  0.3141520425600249  0.4431352067965769
  0.5770334542538254  0.3710395800757472  0.3849250837467008
  0.6939400509138099  0.4229719195526790  0.4309400746573376
  0.4394777244333324  0.3659403079018889  0.5768732919186759
  0.5395256355763117  0.3057061021711067  0.5347018619184949
  0.6705318968682962  0.3991580738728630  0.5301121469159856
  0.4331881667578520  0.1143389646595171  0.4584326901954351
  0.3535754956220045  0.9954097692964183  0.4763556704484395
  0.4999227371603521  0.0994982211044369  0.3866125864337140
  0.4590666715048591  0.9756070276050086  0.3562818024442185
  0.3623507547139440  0.9106007464019700  0.4098431603783776
  0.6354944022320500  0.1211054074394040  0.4050768111613237
  0.6737900773089440  0.0034429077094258  0.3892640316307399
  0.5673120257902368  0.9207860663890143  0.3569445876656246
  0.6484968929533979  0.1420627235017239  0.4904788166730591
  0.6927107257706915  0.0401933624099322  0.5297942505651075
  0.7158420730229328  0.9572366933178520  0.4660323531466505
  0.5263262844563937  0.1604222467533068  0.5300531354132122
  0.4956702841341311  0.0406380754031239  0.5849031803755317
  0.5996815159084130  0.9815959247401291  0.5886497472832161
  0.3893061279309308  0.9527205081744164  0.5548077850077805
  0.4187477278508547  0.8230698003325914  0.5436730635257658
  0.5598545543224830  0.8465061386062857  0.5673759761881890
  0.6315818895618353  0.8375976836169147  0.4849811956219122
  0.5392183669212260  0.8121846383729745  0.4114875326957283
  0.4056249162479514  0.8001673556229774  0.4471166588982141
  0.8229027472747983  0.4227918754102786  0.5413018906298229
  0.9463424267440200  0.3974440505143157  0.5745925165130059
  0.8414799264670488  0.4390917607363551  0.4440315082776661
  0.9736012465359797  0.4173609475287454  0.4294642403181330
  0.0270320078491648  0.3883855881200647  0.5067183723439729
  0.8539390403493136  0.5777561503883855  0.4221759012004485
  0.9849896551497227  0.6240428525925110  0.3949510131851935
  0.0511858004861726  0.5248416048956134  0.3958832206038980
  0.8421109966502581  0.6447510107364891  0.5060013646088841
  0.9600546968752278  0.7353839702772088  0.5188169639166356
  0.0428815472925872  0.7174914865406096  0.4516594679224117
  0.8225671332558806  0.5520826027425577  0.5793384834462501
  0.9385743267333283  0.5919284526099181  0.6304274683455168
  0.0144319138630636  0.6997035409922104  0.5932977798679817
  0.0075940312714589  0.4956709632162866  0.6288739142491920
  0.1381799133240572  0.5451210276140926  0.6003277279073488
  0.1353005551096364  0.6690196106257504  0.5719939023354614
  0.1532768882532732  0.6803354979233844  0.4854029743870871
  0.1722643158507597  0.5602760933963814  0.4443396499316773
  0.1510940952425811  0.4716111009170790  0.5218067702182542
 
  0.00000000E+00  0.00000000E+00  0.00000000E+00
  0.00000000E+00  0.00000000E+00  0.00000000E+00
  0.00000000E+00  0.00000000E+00  0.00000000E+00
  0.00000000E+00  0.00000000E+00  0.00000000E+00
  0.00000000E+00  0.00000000E+00  0.00000000E+00
  0.00000000E+00  0.00000000E+00  0.00000000E+00
  0.00000000E+00  0.00000000E+00  0.00000000E+00
  0.00000000E+00  0.00000000E+00  0.00000000E+00
  0.00000000E+00  0.00000000E+00  0.00000000E+00
  0.00000000E+00  0.00000000E+00  0.00000000E+00
  0.00000000E+00  0.00000000E+00  0.00000000E+00
  0.00000000E+00  0.00000000E+00  0.00000000E+00
  0.00000000E+00  0.00000000E+00  0.00000000E+00
  0.00000000E+00  0.00000000E+00  0.00000000E+00
  0.00000000E+00  0.00000000E+00  0.00000000E+00
  0.00000000E+00  0.00000000E+00  0.00000000E+00
  0.00000000E+00  0.00000000E+00  0.00000000E+00
  0.00000000E+00  0.00000000E+00  0.00000000E+00
  0.00000000E+00  0.00000000E+00  0.00000000E+00
  0.00000000E+00  0.00000000E+00  0.00000000E+00
  0.00000000E+00  0.00000000E+00  0.00000000E+00
  0.00000000E+00  0.00000000E+00  0.00000000E+00
  0.00000000E+00  0.00000000E+00  0.00000000E+00
  0.00000000E+00  0.00000000E+00  0.00000000E+00
  0.00000000E+00  0.00000000E+00  0.00000000E+00
  0.00000000E+00  0.00000000E+00  0.00000000E+00
  0.00000000E+00  0.00000000E+00  0.00000000E+00
  0.00000000E+00  0.00000000E+00  0.00000000E+00
  0.00000000E+00  0.00000000E+00  0.00000000E+00
  0.00000000E+00  0.00000000E+00  0.00000000E+00
  0.00000000E+00  0.00000000E+00  0.00000000E+00
  0.00000000E+00  0.00000000E+00  0.00000000E+00
  0.00000000E+00  0.00000000E+00  0.00000000E+00
  0.00000000E+00  0.00000000E+00  0.00000000E+00
  0.00000000E+00  0.00000000E+00  0.00000000E+00
  0.00000000E+00  0.00000000E+00  0.00000000E+00
  0.00000000E+00  0.00000000E+00  0.00000000E+00
  0.00000000E+00  0.00000000E+00  0.00000000E+00
  0.00000000E+00  0.00000000E+00  0.00000000E+00
  0.00000000E+00  0.00000000E+00  0.00000000E+00
  0.00000000E+00  0.00000000E+00  0.00000000E+00
  0.00000000E+00  0.00000000E+00  0.00000000E+00
  0.00000000E+00  0.00000000E+00  0.00000000E+00
  0.00000000E+00  0.00000000E+00  0.00000000E+00
  0.00000000E+00  0.00000000E+00  0.00000000E+00
  0.00000000E+00  0.00000000E+00  0.00000000E+00
  0.00000000E+00  0.00000000E+00  0.00000000E+00
  0.00000000E+00  0.00000000E+00  0.00000000E+00
  0.00000000E+00  0.00000000E+00  0.00000000E+00
  0.00000000E+00  0.00000000E+00  0.00000000E+00
  0.00000000E+00  0.00000000E+00  0.00000000E+00
  0.00000000E+00  0.00000000E+00  0.00000000E+00
  0.00000000E+00  0.00000000E+00  0.00000000E+00
  0.00000000E+00  0.00000000E+00  0.00000000E+00
  0.00000000E+00  0.00000000E+00  0.00000000E+00
  0.00000000E+00  0.00000000E+00  0.00000000E+00
  0.00000000E+00  0.00000000E+00  0.00000000E+00
  0.00000000E+00  0.00000000E+00  0.00000000E+00
  0.00000000E+00  0.00000000E+00  0.00000000E+00
  0.00000000E+00  0.00000000E+00  0.00000000E+00
  0.00000000E+00  0.00000000E+00  0.00000000E+00
  0.00000000E+00  0.00000000E+00  0.00000000E+00
  0.00000000E+00  0.00000000E+00  0.00000000E+00
  0.00000000E+00  0.00000000E+00  0.00000000E+00
