C 
 1.0000000000000000
    10.2937950484338110    0.0000000000000000    0.0000000000000000
    -5.1468975242169108    8.9146880132941462    0.0000000000000000
     0.0000000000000000    0.0000000000000000   16.0000000000000000
 C  
  84
Direct
  0.0542354213359747  0.2239848003731851  0.5725699144166672
  0.0635490991765199  0.1246878324105086  0.6319248964379405
  0.1652469066315141  0.2648482357005817  0.5085376747389021
  0.1651805100861778  0.0774222320870850  0.5942987087056788
  0.2271250746093086  0.1627924430570238  0.5189380380197384
  0.0969986194711313  0.2329152850251088  0.4275687419514707
  0.1375246535062314  0.1399458046209585  0.3805584762193257
  0.2103932009785729  0.0867362294679829  0.4407281645157070
 -0.0670573002653105  0.1411091821250547  0.4419593164014186
 -0.0931831278133807  0.1356731925686140  0.5306518500025486
 -0.1744683992925710 -0.0067969003697313  0.5726142195158141
 -0.1222476166047400  0.0040441647922129  0.3951432650160139
 -0.2035387630260003 -0.1383751867924730  0.4370767423678067
 -0.2296484741673493 -0.1438257846230195  0.5257835774140571
  0.0066665955932036  0.0084757623045951  0.3507398052101328
 -0.0652600719797385 -0.1392429000163566  0.6272286186687328
 -0.0788018634747737 -0.0091327542439982  0.6414192124597005
 -0.1691685891324650 -0.2335903051685936  0.5645697509106630
 -0.0930986326265992 -0.2641594821868851  0.4992589107163398
 -0.1264498688686829 -0.2245935170760527  0.4195443824540899
  0.0086127754219587 -0.1240462489655254  0.3758172511995373
  0.0863922781442113 -0.0840176374991352  0.5914465930745997
  0.0694888287462146 -0.1601352815960256  0.5132414721887757
  0.1315087435505922 -0.0747191659951125  0.4378845454009556
  0.2532000523906262 -0.1296926296127742  0.4729344770693280
  0.3308494266658968 -0.2149757443374223  0.4735801411182040
  0.3397553363194406  0.0015711540896762  0.4227631560487188
  0.4704665615047034 -0.0032925167894018  0.3926922549334720
  0.4645376860940636 -0.1414380160430480  0.4207294973353682
  0.3867005895512323  0.1356019876279443  0.4739051257000467
  0.5500744854022231  0.2062069282034601  0.4783632082208215
  0.6009001717773975  0.1236226654092598  0.4271642004285287
  0.3352049797213125  0.0781765343627848  0.5578601554379314
  0.4602681840704044  0.1282657033892143  0.6158531390640800
  0.5939308807221577  0.2018275149110580  0.5630018952758538
  0.2415276012024360 -0.0845474308636106  0.5580228061031844
  0.3238874996627382 -0.1367678286897263  0.6094227904923269
  0.4543299321245721 -0.0098687349056080  0.6439090538289745
  0.3746782351187892 -0.2193522787174539  0.5582245874229315
  0.5380451465262704 -0.1487596641317679  0.5626880217714371
  0.5850312427452400 -0.0147188505455252  0.6138236492967422
  0.6715847258255193  0.1165517521588231  0.5636468563915956
  0.6832633481732324  0.0713897875757580  0.4785537258201085
  0.5895888965391867 -0.0913478111472036  0.4787322583174499
  0.0921840445603100  0.5242723815482676  0.3727689191465533
  0.1593814334651988  0.6357655148320684  0.4386049056125794
 -0.0458093855097452  0.5167970860256358  0.3489102509119943
 -0.0631571147570473  0.6237019949892809  0.4001588253532080
  0.0673481897882361  0.7047358274584444  0.4546613726884579
 -0.1706573931676398  0.3650403247391888  0.3636421715288943
 -0.2586374189288897  0.3827830781025214  0.4297953269799876
 -0.1951533207509892  0.5405966842483516  0.4503138315874243
 -0.1022179360969259  0.2868602993920625  0.4036879512061593
 -0.1605574443554044  0.2382361710280834  0.4877683493785549
 -0.2526091807397491  0.3071736477837844  0.5038040984854529
  0.0607769293914986  0.3776069862107713  0.4036372821236661
  0.1019221826154200  0.4023376656560398  0.4921009989583157
 -0.0300591089055508  0.3192333608119143  0.5422738046482123
  0.1654115736176961  0.5601326487976106  0.5126019641415880
  0.0774444039182860  0.5778759171615356  0.5787583298067299
 -0.0474192865355844  0.4261390891075892  0.5935046568423352
 -0.1854192589128167  0.4186636383835577  0.5696397993191363
 -0.1539981067571014  0.5653522384683989  0.5387767637441502
  0.0090104226517188  0.6560929545687889  0.5387410421358743
  0.4875111832908986  0.6182928469733561  0.3673633619785364
  0.3687322899813193  0.6094751495271876  0.4203656372878914
  0.4621899870617039  0.4688336593288255  0.3572511541402603
  0.3278997924904186  0.3684580407276812  0.4040877712927108
  0.2631125418417833  0.4529779053134204  0.4415059573667418
  0.5909899944101182  0.4614268708725524  0.3900351584366972
  0.5317366187709002  0.3607280367622062  0.4619785505136815
  0.3710235484078773  0.3014004543444959  0.4690295926746390
  0.6874971673227057  0.6090160405855276  0.4262483480791498
  0.7057528264127346  0.5996390871651408  0.5159006955713230
  0.6001687245908947  0.4431456467013695  0.5370239887503898
  0.6334289349763425  0.7120628720686898  0.4069746698361883
  0.5978805064491480  0.7512216213435007  0.4883662499238254
  0.6410033592060080  0.6841825474368027  0.5533240083652627
  0.4371934061737063  0.6919125935533911  0.4954005181137032
  0.3779423676395059  0.5912279999104467  0.5673458239888851
  0.5067127335669592  0.5837896085096955  0.6001444526898547
  0.4813912542739350  0.4343223285177342  0.5900268205928149
  0.3354506786366446  0.3405491353944654  0.5504183666867200
  0.2813895240602217  0.4436184908569121  0.5311582711642550
