C 
 1.0000000000000000
     8.7533744938535296    0.0000000000000000    0.0000000000000000
    -5.3095883098142123   12.8705879431182488    0.0000000000000000
     0.0000000000000000    0.0000000000000000   16.0000000000000000
 C  
 108
Direct
  0.4593176397106016 -0.0534619526710635  0.6426705534086422
  0.5580051603701519 -0.1033218235818690  0.6047386473488693
  0.5443556211930735  0.0571549171529378  0.6419611022755697
  0.6974576913554260 -0.0194814084424424  0.5634319980790918
  0.6890571471651062  0.0784641323194811  0.5860434058395326
  0.4447386345011811  0.1058519333289985  0.6035329623010830
  0.5326762413208618  0.1727934644063108  0.5367748195752337
  0.6820101469582659  0.1492175911931583  0.5219049519228820
  0.3041991313066175  0.0211130053736078  0.5638189801589220
  0.3131387232791681 -0.0763210671474829  0.5877715325188060
  0.3186796646404053 -0.1487086691044020  0.5246743234985767
  0.3007445394538520  0.0462297451190394  0.4767283676978848
  0.3062342819413452 -0.0261342733677887  0.4136510080493233
  0.3152090922350348 -0.1235744249557649  0.4375989925216203
  0.4390594421658136  0.1471616953835286  0.4608738870127518
  0.5599859909279428 -0.1478223763286001  0.4628995895078192
  0.4684227198392558 -0.1721038995129355  0.5394836366513051
  0.4627028358558115 -0.1307892975022951  0.3968100544170206
  0.5481750287381976 -0.0322449553062346  0.3577130842441387
  0.4480170364415658  0.0285256955822003  0.3577038823755774
  0.5345483544165488  0.1282922158085926  0.3948930349664683
  0.6986795046449275 -0.0467206011718419  0.4766784985367867
  0.6914596260143766  0.0239530204740614  0.4125146131255573
  0.6831257455244688  0.1219273329508045  0.4351493468422285
 -0.0251646836629693 -0.2221546130871475  0.6427001981111073
 -0.1255868483548072 -0.1614447021847845  0.6425692737636256
 -0.1116286540590445 -0.3219390803695828  0.6056829666892743
 -0.2689857252922703 -0.2177826703727939  0.5879846046088324
 -0.2604055601260028 -0.3156788811214976  0.5653694827962522
 -0.0162858474084763 -0.3404689417342610  0.5394885557973309
 -0.1101479223937803 -0.3664280087639094  0.4635646535673268
 -0.2595808055729623 -0.3430213277555421  0.4786183642654817
  0.1218186058010100 -0.2396673890657003  0.5235459985860031
  0.1163665703124106 -0.1673178036627240  0.5866860410336012
  0.1070309648116305 -0.0699604736911377  0.5627989821861268
  0.1179863710579836 -0.2146973662827185  0.4364467700995314
  0.1087029142820645 -0.1173696186570169  0.4125608921250323
  0.1032155617297668 -0.0450134858508525  0.4757037770373993
 -0.0225456324904334 -0.2997128234729932  0.3967423106034512
 -0.1380353915082604 -0.0460429675904761  0.5376936581286252
 -0.0404710348760217 -0.0627115083536591  0.6037519881256507
 -0.0466915398973890 -0.0219503815330868  0.4609860978896741
 -0.1364227329938935 -0.0904734188016256  0.3955850163749548
 -0.0377039475368332 -0.1402788091884442  0.3577884971025612
 -0.1224916147723635 -0.2509987882142520  0.3586388381644773
 -0.2766095546573410 -0.1471808928497307  0.5238493610259223
 -0.2756134594750324 -0.1744333857400200  0.4370887894330305
 -0.2670982664764890 -0.2723697957578298  0.4144899728866284
  0.8089732905394997  0.4415793600420351  0.6122349619314541
  0.8596932092225582  0.3638887390876954  0.5738096162695608
  0.6317626815523542  0.3993585262039840  0.6161039133416710
  0.5739281663056375  0.2957990538421016  0.5800201047516322
  0.7147870174515774  0.2696868140773389  0.5561353602732502
  0.5679721011220280  0.4653982047315064  0.5680510458313168
  0.4788109773483232  0.4001133240186711  0.4983124279183184
  0.4790571351555939  0.2962616400676155  0.5069762050006260
  0.7138190998469677  0.5432446941710012  0.5299163572808443
  0.7060954462427984  0.5369722485805282  0.4390720798425440
  0.5611753295513541  0.4427940522784496  0.4214105270391655
  0.8651541863836675  0.5361902352794593  0.5615836732554931
  0.9418124744635537  0.5104221022135904  0.4882375444911305
  0.8469672762451921  0.5108852156841877  0.4151792190812645
  0.9420676748709667  0.4065915455657100  0.4969158297184443
  0.8529236017924471  0.3413104885669849  0.4271759184170448
  0.7891090019477215  0.4073247354515206  0.3791102997526585
  0.6118876247027349  0.3651030337260557  0.3829841225636405
  0.5557136128624092  0.2704781445874303  0.4336351411337847
  0.7070755787349965  0.2634299105676078  0.4652896353432061
  0.3004597636083732  0.4518086876526108  0.5322144473853776
  0.4144353431155293  0.5351095187062399  0.5827380975482245
  0.3687422518002881  0.4614856514874406  0.4496265671230355
  0.5245483138349415  0.5507480780554392  0.4495589476399851
  0.5598936784700488  0.5959230912405825  0.5333528417153477
  0.2543277008129107  0.4775403611838268  0.3898038427343309
  0.3425291027077665  0.5826571000000345  0.3577432722113944
  0.5083019742780149  0.6258896948112063  0.3925697981882124
  0.1224874379400080  0.4857229196650408  0.4412058423379147
  0.1125830722217079  0.5873251195869045  0.4327569315155816
  0.2580068005285667  0.6481122650834580  0.3833571662609837
  0.1398419458142256  0.4612956525575180  0.5283091453113222
  0.1641372676465489  0.5573386026880220  0.5735252949993658
  0.1478868276153752  0.6324967292837340  0.5165490720185828
  0.3298799262703925  0.6005451014027759  0.6083508255118331
  0.4180749336753076  0.7056620313924669  0.5762982158958508
  0.3036978403122018  0.7217424736629763  0.5164698478148172
  0.3719828111543678  0.7314141252071948  0.4338767129191490
  0.5326226529328367  0.7219348492797194  0.4377903537883682
  0.5499644147072941  0.6975195049326973  0.5249053950311288
  1.1329511951129827  0.3176112876461257  0.6095379466367210
  1.0452761749694095  0.2138638593870860  0.6426965374632202
  1.0319789606030192  0.3348630071497962  0.5452116799371619
  0.8824504053116191  0.2416534846338840  0.5389531577058962
  0.8842352448810862  0.1659197802702750  0.6019436964315416
  1.1217193178206373  0.3543245786648367  0.4658645955027075
  1.0269394136645558  0.2656763129332999  0.4132511870501742
  0.8793121526235652  0.1987519925250072  0.4571138777873205
  1.2738706343200958  0.3391764501656781  0.4845063380925833
  1.2857866531950559  0.2534369140083155  0.4365180779478571
  1.1247726229261423  0.2055250172350158  0.3957563346938089
  1.2910273191213042  0.3254036986474522  0.5737550916195981
  1.2907398073742757  0.2206314504114435  0.5813358398053268
  1.2876118186185699  0.1777107037138081  0.4995009287877788
  1.1431406475473040  0.1537333729426743  0.6252022071338432
  1.0483703522027263  0.0650824323640479  0.5725946039756989
  1.1380726890955384  0.0845199976543163  0.4932394212217712
  1.0370955505076622  0.1017782314731676  0.4289109906517810
  0.8790014407518407  0.0939737668309982  0.4647022048111014
  0.8961762184112855  0.0801870715284455  0.5539544835428177
