C                                       
   1.00000000000000     
    11.2884285991373936    0.1665842534978569    0.0000000000000000
    -5.5198155536671951    9.7045954942678350    0.0000000000000000
     0.0000000000000000    0.0000000000000000   16.0000000000000000
  C             
    84
Direct
  0.9065120128257891  0.9823308149621121  0.6538074922971550
  0.0390922917885660  0.0945844497199750  0.6654003498682827
  0.8297703932913194  0.0105323138824500  0.5984800241643713
  0.0640899622363074  0.2021723823332478  0.5995942728534227
  0.9192541714905853  0.1420232838324506  0.5554050610327974
  0.7456119019080746  0.8995346450605118  0.5391971291264309
  0.8241718491103794  0.9576280241549598  0.4624966561758346
  0.9181500765634429  0.0967451648353331  0.4670737176052545
  0.8090421270670520  0.7942617439569242  0.5562470120951306
  0.9109048324770102  0.8603176168819255  0.6240860782556852
  0.0466266343419172  0.8950226775583362  0.6201705135175941
  0.8687008894564927  0.7762037156803692  0.4673770767940390
  0.0213371676278015  0.8317340925987083  0.4706883949915968
  0.1181735879882509  0.8631105927048568  0.5501978641629853
  0.8581318786585264  0.8803801744417409  0.4093680556055778
  0.2234431991954367  0.1126689991167158  0.5871570917957242
  0.1243740211295402  0.0384585797277221  0.6460444259494144
  0.2403697818040641  0.0178196605090360  0.5269994486133471
  0.1820447200885446  0.0502305533483827  0.4538430930922842
  0.0783442247183846  0.9367692743606101  0.4121671251132420
  0.9862331836845173  0.9780050052828213  0.3774877864123841
  0.1871320734176621  0.2184849663838201  0.5470306717255801
  0.1519905983664060  0.1572843938174949  0.4591448311937952
  0.0268039797437123  0.1133260247687161  0.4147139043094804
  0.6757028026821832  0.0492186612126569  0.4679983901247439
  0.6111192325419845  0.1221953154176037  0.4944399050282003
  0.6838916044474416  0.0519746438416977  0.3785568852033901
  0.6306469362312221  0.1385516699298132  0.3459936158408933
  0.5809812297689498  0.1699455816073009  0.4183102886998394
  0.6109249466403269  0.9169882940741341  0.3497405164812324
  0.5016462598852506  0.9086095273642060  0.2985590607270491
  0.5091810735083518  0.0455819666074930  0.2983771363437953
  0.5569585497941382  0.8180309508516606  0.4234397703965004
  0.3996899976275969  0.7384863961535540  0.4122894920572777
  0.3782784388207138  0.8111660153403084  0.3340542729706421
  0.6082793267725017  0.9053245318135474  0.5037094034496928
  0.4711664182999202  0.8899198520120111  0.5366113732665649
  0.3422352881389523  0.7876249318674375  0.4843598666485506
  0.4834473879841801  0.0194035013142936  0.5310200331205079
  0.3670426830183147  0.0243863356396456  0.4883448134479894
  0.3135751287001789  0.8912269789686849  0.4432412212721694
  0.3185139744358042  0.8971588649791489  0.3588026755187005
  0.3921787747127254  0.0412408413267286  0.3319767638337679
  0.4345228827217722  0.1373123836847429  0.4147619707574345
  0.7944705871867479  0.4168334919494630  0.5698786415807434
  0.8668875257016687  0.4267878549894415  0.4863330117658311
  0.8888772946835550  0.5634218696448283  0.6024510730802043
  0.9829319849184905  0.6382375393423919  0.5404108335455663
  0.9745795790983766  0.5656339999177857  0.4673532907203653
  0.9713189947633017  0.5663516408240239  0.6708922724897641
  0.1126737496268491  0.6550778111152377  0.6559624523336035
  0.1258553790724152  0.7255989872377675  0.5706415342272645
  0.9446339849875803  0.4251879195682950  0.6812831550170466
  0.0733801264680464  0.4282659702580182  0.6753971568297947
  0.1701168225299138  0.5646165703095287  0.6527659347133223
  0.8479493926298544  0.3374485358010778  0.6226862983180198
  0.9121784974525051  0.2732935911612585  0.5685707703106399
  0.0594999107141086  0.3343494230258440  0.6054233655909137
  0.9282727266901858  0.3470723323924395  0.4862235104315050
  0.0694474289804197  0.4338304621319176  0.4656075698644485
  0.1316071019197894  0.4315933682258926  0.5380018331650832
  0.2347916657339414  0.5661563046045911  0.5678902424570915
  0.2111012666685132  0.6730086611300856  0.5163815696607571
  0.1011417077759997  0.5749390578120175  0.4516240177367330
  0.5044304135041879  0.3102704385119872  0.5362163964102483
  0.6580210794071365  0.4126444440715616  0.5504203436707159
  0.4560010256071582  0.2834017560246416  0.4432412831898612
  0.5792743286431538  0.4062898758245527  0.4073203088841034
  0.6851649158437406  0.4734234592748419  0.4619169032278190
  0.3575259741084420  0.3481775961209858  0.4429867412661210
  0.4061231499030651  0.4690106808736343  0.3971182019784244
  0.5439045342347371  0.5064409002017622  0.3725660089700995
  0.3143175856032142  0.3604435065759093  0.5313931263712183
  0.3479524759302199  0.5315724548983907  0.5361420913606950
  0.4006280608236267  0.5900235024484519  0.4395553580461783
  0.4307875955177018  0.3598042851541483  0.5785762329134650
  0.5165178467369014  0.4877000274347518  0.6184661636762094
  0.4751822447107243  0.5846480866349599  0.5842011628623835
  0.6506591831838072  0.5255076345201313  0.6016239370762305
  0.6982085199172066  0.6508992137836850  0.5500494594687286
  0.5790790483932827  0.6673555634850662  0.5354859539197308
  0.5565557789458832  0.6886809036072598  0.4465439929820320
  0.6358413534750769  0.6352622950678447  0.4008658271444937
  0.7384598585109678  0.6275849909223817  0.4590436812445729
 
  0.00000000E+00  0.00000000E+00  0.00000000E+00
  0.00000000E+00  0.00000000E+00  0.00000000E+00
  0.00000000E+00  0.00000000E+00  0.00000000E+00
  0.00000000E+00  0.00000000E+00  0.00000000E+00
  0.00000000E+00  0.00000000E+00  0.00000000E+00
  0.00000000E+00  0.00000000E+00  0.00000000E+00
  0.00000000E+00  0.00000000E+00  0.00000000E+00
  0.00000000E+00  0.00000000E+00  0.00000000E+00
  0.00000000E+00  0.00000000E+00  0.00000000E+00
  0.00000000E+00  0.00000000E+00  0.00000000E+00
  0.00000000E+00  0.00000000E+00  0.00000000E+00
  0.00000000E+00  0.00000000E+00  0.00000000E+00
  0.00000000E+00  0.00000000E+00  0.00000000E+00
  0.00000000E+00  0.00000000E+00  0.00000000E+00
  0.00000000E+00  0.00000000E+00  0.00000000E+00
  0.00000000E+00  0.00000000E+00  0.00000000E+00
  0.00000000E+00  0.00000000E+00  0.00000000E+00
  0.00000000E+00  0.00000000E+00  0.00000000E+00
  0.00000000E+00  0.00000000E+00  0.00000000E+00
  0.00000000E+00  0.00000000E+00  0.00000000E+00
  0.00000000E+00  0.00000000E+00  0.00000000E+00
  0.00000000E+00  0.00000000E+00  0.00000000E+00
  0.00000000E+00  0.00000000E+00  0.00000000E+00
  0.00000000E+00  0.00000000E+00  0.00000000E+00
  0.00000000E+00  0.00000000E+00  0.00000000E+00
  0.00000000E+00  0.00000000E+00  0.00000000E+00
  0.00000000E+00  0.00000000E+00  0.00000000E+00
  0.00000000E+00  0.00000000E+00  0.00000000E+00
  0.00000000E+00  0.00000000E+00  0.00000000E+00
  0.00000000E+00  0.00000000E+00  0.00000000E+00
  0.00000000E+00  0.00000000E+00  0.00000000E+00
  0.00000000E+00  0.00000000E+00  0.00000000E+00
  0.00000000E+00  0.00000000E+00  0.00000000E+00
  0.00000000E+00  0.00000000E+00  0.00000000E+00
  0.00000000E+00  0.00000000E+00  0.00000000E+00
  0.00000000E+00  0.00000000E+00  0.00000000E+00
  0.00000000E+00  0.00000000E+00  0.00000000E+00
  0.00000000E+00  0.00000000E+00  0.00000000E+00
  0.00000000E+00  0.00000000E+00  0.00000000E+00
  0.00000000E+00  0.00000000E+00  0.00000000E+00
  0.00000000E+00  0.00000000E+00  0.00000000E+00
  0.00000000E+00  0.00000000E+00  0.00000000E+00
  0.00000000E+00  0.00000000E+00  0.00000000E+00
  0.00000000E+00  0.00000000E+00  0.00000000E+00
  0.00000000E+00  0.00000000E+00  0.00000000E+00
  0.00000000E+00  0.00000000E+00  0.00000000E+00
  0.00000000E+00  0.00000000E+00  0.00000000E+00
  0.00000000E+00  0.00000000E+00  0.00000000E+00
  0.00000000E+00  0.00000000E+00  0.00000000E+00
  0.00000000E+00  0.00000000E+00  0.00000000E+00
  0.00000000E+00  0.00000000E+00  0.00000000E+00
  0.00000000E+00  0.00000000E+00  0.00000000E+00
  0.00000000E+00  0.00000000E+00  0.00000000E+00
  0.00000000E+00  0.00000000E+00  0.00000000E+00
  0.00000000E+00  0.00000000E+00  0.00000000E+00
  0.00000000E+00  0.00000000E+00  0.00000000E+00
  0.00000000E+00  0.00000000E+00  0.00000000E+00
  0.00000000E+00  0.00000000E+00  0.00000000E+00
  0.00000000E+00  0.00000000E+00  0.00000000E+00
  0.00000000E+00  0.00000000E+00  0.00000000E+00
  0.00000000E+00  0.00000000E+00  0.00000000E+00
  0.00000000E+00  0.00000000E+00  0.00000000E+00
  0.00000000E+00  0.00000000E+00  0.00000000E+00
  0.00000000E+00  0.00000000E+00  0.00000000E+00
  0.00000000E+00  0.00000000E+00  0.00000000E+00
  0.00000000E+00  0.00000000E+00  0.00000000E+00
  0.00000000E+00  0.00000000E+00  0.00000000E+00
  0.00000000E+00  0.00000000E+00  0.00000000E+00
  0.00000000E+00  0.00000000E+00  0.00000000E+00
  0.00000000E+00  0.00000000E+00  0.00000000E+00
  0.00000000E+00  0.00000000E+00  0.00000000E+00
  0.00000000E+00  0.00000000E+00  0.00000000E+00
  0.00000000E+00  0.00000000E+00  0.00000000E+00
  0.00000000E+00  0.00000000E+00  0.00000000E+00
  0.00000000E+00  0.00000000E+00  0.00000000E+00
  0.00000000E+00  0.00000000E+00  0.00000000E+00
  0.00000000E+00  0.00000000E+00  0.00000000E+00
  0.00000000E+00  0.00000000E+00  0.00000000E+00
  0.00000000E+00  0.00000000E+00  0.00000000E+00
  0.00000000E+00  0.00000000E+00  0.00000000E+00
  0.00000000E+00  0.00000000E+00  0.00000000E+00
  0.00000000E+00  0.00000000E+00  0.00000000E+00
  0.00000000E+00  0.00000000E+00  0.00000000E+00
  0.00000000E+00  0.00000000E+00  0.00000000E+00
