Generated by VASPKIT code               
   1.00000000000000     
    10.9547699819116300    0.1718595026232354    0.0000000000000000
    -5.3245990018733993    8.4908238752436258    0.0000000000000000
     0.0000000000000013    0.0000000000000021   19.7110513939237535
   C 
    68
Direct
  0.3972503924774742  0.7948284123915172  0.3956382888453831
  0.6377011986387942  0.2265093767735635  0.3978752140426352
  0.4447884649638922  0.6871946613933702  0.4039615097798048
  0.5552308983836340  0.3015069757120159  0.4135625581964177
  0.2521851523063674  0.7131897072827584  0.4121668273776606
  0.7879126952888953  0.3434802218719071  0.4071668345981365
  0.3323089219388891  0.5442625914404218  0.4336847423078112
  0.6571260127186775  0.4570852682591493  0.4372101857081532
  0.2104680196497029  0.5603464564482579  0.4392812044814960
  0.7938723087035129  0.4743394448683986  0.4364031914521007
  0.2165308674040887  0.8046094023675323  0.4578435294175023
  0.8748979229976470  0.2886834947198977  0.4437064676834339
  0.1550660676671569  0.6884633418662460  0.5154401921665226
  0.9485666189784538  0.4194067047345840  0.5002592397736336
  0.1151600088859865  0.5195182033677526  0.5030360556739311
  0.9018021153136289  0.5553128327021000  0.4924438313937998
  0.3601910868416596  0.9377874839951019  0.4891431339999173
  0.7387128799826996  0.1347008198543733  0.4750683444079797
  0.4809367535424585  0.9351304677965899  0.4470070410958797
  0.6107024806821286  0.0917038857396264  0.4300774295819352
  0.5440547764487533  0.8603002517275442  0.4880599633095386
  0.3576374038535022  0.0885672308709644  0.4937901777396334
  0.3497137707395908  0.8867901677859393  0.5660263994274928
  0.7162808585737608  0.1931539859552416  0.5415446496023222
  0.4437725799040422  0.8489037003892008  0.5985324836208008
  0.5978947522324063  0.1911132952675416  0.5786288003749576
  0.5478292248063283  0.8419600582097146  0.5560839250680516
  0.4486655329912423  0.1641298263569340  0.5572835801615454
  0.2106080720589532  0.7457076267990175  0.5776162504074662
  0.8447784993723317  0.3328189440535354  0.5584016846368343
  0.5458274470053084  0.6275214005838592  0.4965696691083465
  0.4432767218522784  0.3699803679116869  0.5004753434463609
  0.5775617728222713  0.7611027452928312  0.4454405483084543
  0.4362109180788423  0.2417354142828856  0.4549509075440028
  0.5415156398619700  0.6940855523359843  0.5648315588889048
  0.4552572959692327  0.3058630918028982  0.5693296873779303
  0.4235493155764658  0.6021167374904977  0.6051199602634085
  0.5916230134714624  0.4030383488433245  0.6003008333403059
  0.3698646617256856  0.6983751072949005  0.6329535955992540
  0.6624363735958951  0.3228291853707788  0.6237380643948072
  0.2265740093435724  0.6281348359844543  0.6128279661412748
  0.8109498818423617  0.4188052667305939  0.6046246883914250
  0.3833952052941285  0.4852478228751238  0.4919105626322846
  0.6019586308349716  0.5149193024954215  0.4936194409020942
  0.3137773182137522  0.4906156046711203  0.5584991778027657
  0.6833101028584281  0.5216429358681154  0.5560966406656931
  0.1937237145527533  0.5027375079306893  0.5641048539170868
  0.8157019662507210  0.5283671396745575  0.5572271983029111
  0.1219187788869220  0.8716521642406292  0.4444946670327923
  0.1938086467310001  0.0338112887486659  0.4868798775072491
  0.0691592484395542  0.9173972197504909  0.3788296592553095
  0.0957625293610960  0.0728962151265264  0.3808597028405032
  0.1592992802241824  0.1412296827721562  0.4432870618396407
  0.9178723001042144  0.8292980805510481  0.3752809353438238
  0.8507150573787854  0.9255337238732864  0.3712944979785533
  0.9617020329680415  0.0786923226404497  0.3742246146989032
  0.8699885995712791  0.7473691448923105  0.4363741159693078
  0.7926446474840034  0.7964820843670495  0.4718120108973594
  0.7428372184088019  0.8805957769381720  0.4302259929316676
  0.9787430352805941  0.7482053960396513  0.4816013515448745
  0.9751982770512839  0.8467385187571281  0.5412432703876320
  0.8455485621987862  0.8544308753850984  0.5363277914403497
  0.0869623719756518  0.9990028893015861  0.5430873289749911
  0.0252086214647917  0.1004643936750327  0.5378612183240179
  0.8743625702816047  0.0092342015489777  0.5363250714383057
  0.8109138201515620  0.0400619271714149  0.4725793584828040
  0.9458350466859216  0.1704499880525958  0.4329930144389138
  0.0723590278551640  0.1878308977272027  0.4769884164243976
 
  0.00000000E+00  0.00000000E+00  0.00000000E+00
  0.00000000E+00  0.00000000E+00  0.00000000E+00
  0.00000000E+00  0.00000000E+00  0.00000000E+00
  0.00000000E+00  0.00000000E+00  0.00000000E+00
  0.00000000E+00  0.00000000E+00  0.00000000E+00
  0.00000000E+00  0.00000000E+00  0.00000000E+00
  0.00000000E+00  0.00000000E+00  0.00000000E+00
  0.00000000E+00  0.00000000E+00  0.00000000E+00
  0.00000000E+00  0.00000000E+00  0.00000000E+00
  0.00000000E+00  0.00000000E+00  0.00000000E+00
  0.00000000E+00  0.00000000E+00  0.00000000E+00
  0.00000000E+00  0.00000000E+00  0.00000000E+00
  0.00000000E+00  0.00000000E+00  0.00000000E+00
  0.00000000E+00  0.00000000E+00  0.00000000E+00
  0.00000000E+00  0.00000000E+00  0.00000000E+00
  0.00000000E+00  0.00000000E+00  0.00000000E+00
  0.00000000E+00  0.00000000E+00  0.00000000E+00
  0.00000000E+00  0.00000000E+00  0.00000000E+00
  0.00000000E+00  0.00000000E+00  0.00000000E+00
  0.00000000E+00  0.00000000E+00  0.00000000E+00
  0.00000000E+00  0.00000000E+00  0.00000000E+00
  0.00000000E+00  0.00000000E+00  0.00000000E+00
  0.00000000E+00  0.00000000E+00  0.00000000E+00
  0.00000000E+00  0.00000000E+00  0.00000000E+00
  0.00000000E+00  0.00000000E+00  0.00000000E+00
  0.00000000E+00  0.00000000E+00  0.00000000E+00
  0.00000000E+00  0.00000000E+00  0.00000000E+00
  0.00000000E+00  0.00000000E+00  0.00000000E+00
  0.00000000E+00  0.00000000E+00  0.00000000E+00
  0.00000000E+00  0.00000000E+00  0.00000000E+00
  0.00000000E+00  0.00000000E+00  0.00000000E+00
  0.00000000E+00  0.00000000E+00  0.00000000E+00
  0.00000000E+00  0.00000000E+00  0.00000000E+00
  0.00000000E+00  0.00000000E+00  0.00000000E+00
  0.00000000E+00  0.00000000E+00  0.00000000E+00
  0.00000000E+00  0.00000000E+00  0.00000000E+00
  0.00000000E+00  0.00000000E+00  0.00000000E+00
  0.00000000E+00  0.00000000E+00  0.00000000E+00
  0.00000000E+00  0.00000000E+00  0.00000000E+00
  0.00000000E+00  0.00000000E+00  0.00000000E+00
  0.00000000E+00  0.00000000E+00  0.00000000E+00
  0.00000000E+00  0.00000000E+00  0.00000000E+00
  0.00000000E+00  0.00000000E+00  0.00000000E+00
  0.00000000E+00  0.00000000E+00  0.00000000E+00
  0.00000000E+00  0.00000000E+00  0.00000000E+00
  0.00000000E+00  0.00000000E+00  0.00000000E+00
  0.00000000E+00  0.00000000E+00  0.00000000E+00
  0.00000000E+00  0.00000000E+00  0.00000000E+00
  0.00000000E+00  0.00000000E+00  0.00000000E+00
  0.00000000E+00  0.00000000E+00  0.00000000E+00
  0.00000000E+00  0.00000000E+00  0.00000000E+00
  0.00000000E+00  0.00000000E+00  0.00000000E+00
  0.00000000E+00  0.00000000E+00  0.00000000E+00
  0.00000000E+00  0.00000000E+00  0.00000000E+00
  0.00000000E+00  0.00000000E+00  0.00000000E+00
  0.00000000E+00  0.00000000E+00  0.00000000E+00
  0.00000000E+00  0.00000000E+00  0.00000000E+00
  0.00000000E+00  0.00000000E+00  0.00000000E+00
  0.00000000E+00  0.00000000E+00  0.00000000E+00
  0.00000000E+00  0.00000000E+00  0.00000000E+00
  0.00000000E+00  0.00000000E+00  0.00000000E+00
  0.00000000E+00  0.00000000E+00  0.00000000E+00
  0.00000000E+00  0.00000000E+00  0.00000000E+00
  0.00000000E+00  0.00000000E+00  0.00000000E+00
  0.00000000E+00  0.00000000E+00  0.00000000E+00
  0.00000000E+00  0.00000000E+00  0.00000000E+00
  0.00000000E+00  0.00000000E+00  0.00000000E+00
  0.00000000E+00  0.00000000E+00  0.00000000E+00
