C 
 1.0000000000000000
    10.6134939763977023    0.0000000000000000    0.0000000000000000
     0.0000000000000000    9.5686296842383012    0.0000000000000000
     0.0000000000000000    0.0000000000000000   16.0000000000000000
 C  
  88
Direct
 -0.2262142675487397  0.0929000828038840  0.6028636734054236
 -0.1145315409669667  0.1364813097077628  0.6459349693937122
 -0.2724231222536631  0.2021499324785588  0.5498898600238880
 -0.0747259375978520  0.2689378300302642  0.6055376735910944
 -0.1709798330579607  0.3089635084451275  0.5468390887321689
 -0.2869812077868255  0.1529392896940270  0.4659581195445930
 -0.2197013348621498  0.2404881840436887  0.4085670909846154
 -0.1389694834374510  0.3325022999796285  0.4605187673087244
 -0.2239880952594120  0.0145923136420950  0.4627371642801830
 -0.1868376663524404 -0.0221096790831943  0.5464823927919136
 -0.0572014323018306 -0.0548609497016413  0.5645187691227400
 -0.1315145762197530  0.0185337925456615  0.3969407068109980
 -0.0019349821874239 -0.0142411163475518  0.4149564276313166
  0.0352361736663114 -0.0509217067326068  0.4987136959655425
 -0.1356219787219220  0.1594575228121263  0.3580571135323518
  0.0951399624742642  0.1093451039221335  0.6007331334291861
 -0.0140244297208885  0.0392510305001343  0.6325555914702460
  0.1373373406048277  0.0457423876394299  0.5246314746490335
  0.1478618590888581  0.1475642633614764  0.4594146500793742
  0.0764968204498691  0.1057098421350086  0.3877110567598052
 -0.0100089718141818  0.2132737451713986  0.3633108891860034
  0.0535333870213649  0.2523379213504722  0.5779085242798141
  0.0855753818177026  0.2757189927223337  0.4915798721418160
 -0.0107064887329807  0.3158053626657914  0.4328932389329074
  1.2262142675487397  0.5929000828038841  0.6028636734054236
  1.1145315409669667  0.6364813097077630  0.6459349693937122
  1.2724231222536631  0.7021499324785587  0.5498898600238880
  1.0747259375978522  0.7689378300302644  0.6055376735910944
  1.1709798330579606  0.8089635084451275  0.5468390887321689
  1.2869812077868255  0.6529392896940270  0.4659581195445930
  1.2197013348621497  0.7404881840436888  0.4085670909846154
  1.1389694834374509  0.8325022999796285  0.4605187673087244
  1.2239880952594120  0.5145923136420950  0.4627371642801830
  1.1868376663524405  0.4778903209168058  0.5464823927919136
  1.0572014323018306  0.4451390502983588  0.5645187691227400
  1.1315145762197532  0.5185337925456616  0.3969407068109980
  1.0019349821874239  0.4857588836524482  0.4149564276313166
  0.9647638263336886  0.4490782932673932  0.4987136959655425
  1.1356219787219219  0.6594575228121263  0.3580571135323518
  0.9048600375257357  0.6093451039221336  0.6007331334291861
  1.0140244297208885  0.5392510305001343  0.6325555914702460
  0.8626626593951723  0.5457423876394299  0.5246314746490335
  0.8521381409111418  0.6475642633614764  0.4594146500793742
  0.9235031795501309  0.6057098421350087  0.3877110567598052
  1.0100089718141818  0.7132737451713986  0.3633108891860034
  0.9464666129786350  0.7523379213504722  0.5779085242798141
  0.9144246181822974  0.7757189927223339  0.4915798721418160
  1.0107064887329809  0.8158053626657914  0.4328932389329074
  0.7825472009458840  0.8059012465782889  0.5484043998917468
  0.7619477467276948  0.6595862647610475  0.5685105091593755
  0.7011429010832716  0.8873112918059360  0.6009494397086976
  0.6306442069820134  0.7908396634535690  0.6532330368461982
  0.6708197277244440  0.6472153265653304  0.6367101079311007
  0.6147423475738892  0.9685327551396039  0.5488458524964841
  0.4901436290532880  0.9110422333396117  0.5673705901942673
  0.4997894848743630  0.8055663204178384  0.6324170984136154
  0.6413037926350726  0.9228498926913493  0.4638153800662330
  0.5318377564476797  0.8566730953457685  0.4258190448765876
  0.4407179115589327  0.8443464401194990  0.4940127293660894
  0.7512815111719362  0.8320098601731313  0.4607448952902477
  0.7028692569605272  0.6983620921188266  0.4301024118362208
  0.5720102434105995  0.7130609454648240  0.4092755867671506
  0.7125364778399121  0.5929128901752966  0.4951420246604191
  0.5879445187919077  0.5354136216127477  0.5136614127214383
  0.5015173803115059  0.6166154848385722  0.4615702679531087
  0.4201135373255169  0.6980356089668632  0.5141196883774001
  0.4513821665272628  0.6719069422574074  0.6017862900892660
  0.5613579960714286  0.5810456355480234  0.5987021748106552
  0.2174527990541160  0.3059012465782889  0.5484043998917468
  0.2380522532723054  0.1595862647610475  0.5685105091593755
  0.2988570989167284  0.3873112918059361  0.6009494397086976
  0.3693557930179865  0.2908396634535691  0.6532330368461982
  0.3291802722755561  0.1472153265653304  0.6367101079311007
  0.3852576524261108  0.4685327551396040  0.5488458524964841
  0.5098563709467121  0.4110422333396117  0.5673705901942673
  0.5002105151256371  0.3055663204178384  0.6324170984136154
  0.3586962073649274  0.4228498926913493  0.4638153800662330
  0.4681622435523204  0.3566730953457686  0.4258190448765876
  0.5592820884410673  0.3443464401194992  0.4940127293660894
  0.2487184888280638  0.3320098601731313  0.4607448952902477
  0.2971307430394729  0.1983620921188267  0.4301024118362208
  0.4279897565894006  0.2130609454648240  0.4092755867671506
  0.2874635221600880  0.0929128901752967  0.4951420246604191
  0.4120554812080924  0.0354136216127478  0.5136614127214383
  0.4984826196884941  0.1166154848385722  0.4615702679531087
  0.5798864626744832  0.1980356089668633  0.5141196883774001
  0.5486178334727373  0.1719069422574074  0.6017862900892660
  0.4386420039285715  0.0810456355480234  0.5987021748106552
