C                                       
   1.00000000000000     
    11.3690788329249557   -0.2388411506694551    0.0000000000000000
    -5.8898000501855421   10.3137377316949976    0.0000000000000000
     0.0000000000000000    0.0000000000000000   16.0000000000000000
  C             
    84
Direct
  0.5924081977135655  0.8233928387057929  0.4266139994704945
  0.5123114439936107  0.6956464487468801  0.3824581047988262
  0.5089597597932425  0.8912137564898310  0.4144099697915685
  0.3856623906473557  0.6746090985465326  0.3580991151814625
  0.3755807777171962  0.7878331830802039  0.3783843251609283
  0.4733389585079647  0.9174079466388774  0.5027984168588557
  0.3173721326641083  0.8591095333430818  0.5069814895972837
  0.2645690235007424  0.7614072968684451  0.4301028548407836
  0.4921048473094993  0.8316559751614799  0.5598045943182258
  0.5482732626581444  0.7758425888578923  0.5147246337933191
  0.5144878587600493  0.6452072554612271  0.5309213918361245
  0.3826894401708946  0.7620148220638415  0.6146477567927221
  0.3279177772696611  0.6248604445596263  0.6211239216927978
  0.3908414694571302  0.5677307161018587  0.5818892402517158
  0.2737941885407330  0.7764190315379199  0.5871238411580239
  0.3350967423460822  0.5017569780837020  0.4443617330760031
  0.4914239341388816  0.5883932288870994  0.4404345291220659
  0.2847137907486628  0.4510140576348760  0.5355564129750001
  0.1493345320769841  0.4353061414173969  0.5684210998506445
  0.1779473071788630  0.5546992298771172  0.6046958609471015
  0.1456276376384273  0.6622099008974756  0.5929071435322539
  0.2768804438668082  0.5465503851440990  0.3897747378045571
  0.1374802638287354  0.5191746879199155  0.4006111306729335
  0.1388165669038184  0.6359853129810068  0.4269228473375972
  0.9474649611824709  0.1404919277396673  0.4421878359529886
  0.0523695139376659  0.2797099067210955  0.4539175978208291
  0.8590967329732034  0.0618994270156117  0.3812960609294812
  0.8462880933806940  0.1598494754004461  0.3363407131544344
  0.0290089198144989  0.3889274258704098  0.4118681666874800
  0.7343713031711742  0.9551679321514162  0.4309522203887506
  0.6464160720205077  0.0240441633983439  0.4209699828428918
  0.7290234307502698  0.1517403794718333  0.3756941089925082
  0.7878789322402647  0.9585534606386071  0.5248397477085098
  0.7111938181875315  0.0225013942984051  0.5667851912627900
  0.6154524233633947  0.0477053134895497  0.5096634720623545
  0.9367877499298304  0.0782353819704198  0.5285068696804059
  0.9448334284230184  0.1762825376132273  0.5915140129129156
  0.8060338904220120  0.1417284515576468  0.6019837854828083
  0.0204778437957025  0.3112856481832424  0.5477804175261409
  0.9017127952826327  0.3293300687267244  0.5338021123882369
  0.7816190028209031  0.2447197904270729  0.5722595101104454
  0.6597031385782783  0.1950766895278480  0.5116557767517835
  0.7498358922090722  0.2499044578694762  0.4292588593848415
  0.8927807101111490  0.3724391312652241  0.4480969521321264
  0.0267418264008166  0.8079247956991930  0.5519919026722392
  0.8953026241851286  0.7885736013052325  0.5958961636958433
  0.9901526563801102  0.8360127502178962  0.4596601906396585
  0.8459511139855233  0.8039494144607476  0.4571609472826433
  0.7911001367363609  0.8121157911261209  0.5399223604184414
  0.9817074892986262  0.7221813903325016  0.4100583534619875
  0.8493813991494885  0.6489477048349068  0.3799061766123141
  0.7646360227201497  0.7047703737748274  0.4038396567256335
  0.0134966590070002  0.6299021168494660  0.4605485313861550
  0.8764117297354397  0.4911587303977081  0.4612843159483226
  0.7804406271205271  0.5168898627902665  0.4119136431642724
  0.0286439376981055  0.6736508485775125  0.5554062341730368
  0.8923582445817836  0.5862539844338156  0.5943275502331409
  0.8081077435991495  0.4792772968038121  0.5481572417603180
  0.8235387624278533  0.6556717844536962  0.6182073230151908
  0.6851148179020891  0.5795758871031442  0.5929823755994268
  0.6594963157772464  0.4532219980040152  0.5479211547098496
  0.6676644766018057  0.4954759084194894  0.4568838655556233
  0.6373098868373394  0.6015585909421846  0.4481743964008840
  0.6586498932900652  0.6632760771526087  0.5407517514583501
  0.0982202756155123  0.9869805391634853  0.4780271101394609
  0.1602141733210477  0.9426750281342167  0.5495155484913912
  0.2060953656040597  0.0654177020017265  0.4166224498788917
  0.3226457620153637  0.0520056558300430  0.4330919062833987
  0.2986146776848137  0.9719787302580285  0.5113577404738635
  0.2431389387577362  0.1958063570404626  0.4096488026948497
  0.3910513905594777  0.2654620878451049  0.4248868207580018
  0.4407393063770953  0.1750789567425272  0.4366403707065851
  0.1689807068744035  0.2345719297044219  0.4721250010282457
  0.2904204824227769  0.3294111631693627  0.5326502976891169
  0.4193065843875133  0.3363190952468901  0.4964774243649344
  0.0772116937001568  0.0940326549570141  0.5239612380986306
  0.1627561792550861  0.1251557886916976  0.6042514363604744
  0.2828829970924513  0.2553476498411156  0.6081962268740346
  0.2046065256014215  0.0373858070754705  0.6199664523533551
  0.3539597381226936  0.1152112546379663  0.6298775592810815
  0.4045491282844212  0.2552594858291613  0.6256153865698064
  0.5179717445942261  0.3227578991972310  0.5562900141962922
  0.5246367361514418  0.2009741713388612  0.5179438769942458
  0.4097103081676091  0.0835346246751334  0.5657173829513696
 
  0.00000000E+00  0.00000000E+00  0.00000000E+00
  0.00000000E+00  0.00000000E+00  0.00000000E+00
  0.00000000E+00  0.00000000E+00  0.00000000E+00
  0.00000000E+00  0.00000000E+00  0.00000000E+00
  0.00000000E+00  0.00000000E+00  0.00000000E+00
  0.00000000E+00  0.00000000E+00  0.00000000E+00
  0.00000000E+00  0.00000000E+00  0.00000000E+00
  0.00000000E+00  0.00000000E+00  0.00000000E+00
  0.00000000E+00  0.00000000E+00  0.00000000E+00
  0.00000000E+00  0.00000000E+00  0.00000000E+00
  0.00000000E+00  0.00000000E+00  0.00000000E+00
  0.00000000E+00  0.00000000E+00  0.00000000E+00
  0.00000000E+00  0.00000000E+00  0.00000000E+00
  0.00000000E+00  0.00000000E+00  0.00000000E+00
  0.00000000E+00  0.00000000E+00  0.00000000E+00
  0.00000000E+00  0.00000000E+00  0.00000000E+00
  0.00000000E+00  0.00000000E+00  0.00000000E+00
  0.00000000E+00  0.00000000E+00  0.00000000E+00
  0.00000000E+00  0.00000000E+00  0.00000000E+00
  0.00000000E+00  0.00000000E+00  0.00000000E+00
  0.00000000E+00  0.00000000E+00  0.00000000E+00
  0.00000000E+00  0.00000000E+00  0.00000000E+00
  0.00000000E+00  0.00000000E+00  0.00000000E+00
  0.00000000E+00  0.00000000E+00  0.00000000E+00
  0.00000000E+00  0.00000000E+00  0.00000000E+00
  0.00000000E+00  0.00000000E+00  0.00000000E+00
  0.00000000E+00  0.00000000E+00  0.00000000E+00
  0.00000000E+00  0.00000000E+00  0.00000000E+00
  0.00000000E+00  0.00000000E+00  0.00000000E+00
  0.00000000E+00  0.00000000E+00  0.00000000E+00
  0.00000000E+00  0.00000000E+00  0.00000000E+00
  0.00000000E+00  0.00000000E+00  0.00000000E+00
  0.00000000E+00  0.00000000E+00  0.00000000E+00
  0.00000000E+00  0.00000000E+00  0.00000000E+00
  0.00000000E+00  0.00000000E+00  0.00000000E+00
  0.00000000E+00  0.00000000E+00  0.00000000E+00
  0.00000000E+00  0.00000000E+00  0.00000000E+00
  0.00000000E+00  0.00000000E+00  0.00000000E+00
  0.00000000E+00  0.00000000E+00  0.00000000E+00
  0.00000000E+00  0.00000000E+00  0.00000000E+00
  0.00000000E+00  0.00000000E+00  0.00000000E+00
  0.00000000E+00  0.00000000E+00  0.00000000E+00
  0.00000000E+00  0.00000000E+00  0.00000000E+00
  0.00000000E+00  0.00000000E+00  0.00000000E+00
  0.00000000E+00  0.00000000E+00  0.00000000E+00
  0.00000000E+00  0.00000000E+00  0.00000000E+00
  0.00000000E+00  0.00000000E+00  0.00000000E+00
  0.00000000E+00  0.00000000E+00  0.00000000E+00
  0.00000000E+00  0.00000000E+00  0.00000000E+00
  0.00000000E+00  0.00000000E+00  0.00000000E+00
  0.00000000E+00  0.00000000E+00  0.00000000E+00
  0.00000000E+00  0.00000000E+00  0.00000000E+00
  0.00000000E+00  0.00000000E+00  0.00000000E+00
  0.00000000E+00  0.00000000E+00  0.00000000E+00
  0.00000000E+00  0.00000000E+00  0.00000000E+00
  0.00000000E+00  0.00000000E+00  0.00000000E+00
  0.00000000E+00  0.00000000E+00  0.00000000E+00
  0.00000000E+00  0.00000000E+00  0.00000000E+00
  0.00000000E+00  0.00000000E+00  0.00000000E+00
  0.00000000E+00  0.00000000E+00  0.00000000E+00
  0.00000000E+00  0.00000000E+00  0.00000000E+00
  0.00000000E+00  0.00000000E+00  0.00000000E+00
  0.00000000E+00  0.00000000E+00  0.00000000E+00
  0.00000000E+00  0.00000000E+00  0.00000000E+00
  0.00000000E+00  0.00000000E+00  0.00000000E+00
  0.00000000E+00  0.00000000E+00  0.00000000E+00
  0.00000000E+00  0.00000000E+00  0.00000000E+00
  0.00000000E+00  0.00000000E+00  0.00000000E+00
  0.00000000E+00  0.00000000E+00  0.00000000E+00
  0.00000000E+00  0.00000000E+00  0.00000000E+00
  0.00000000E+00  0.00000000E+00  0.00000000E+00
  0.00000000E+00  0.00000000E+00  0.00000000E+00
  0.00000000E+00  0.00000000E+00  0.00000000E+00
  0.00000000E+00  0.00000000E+00  0.00000000E+00
  0.00000000E+00  0.00000000E+00  0.00000000E+00
  0.00000000E+00  0.00000000E+00  0.00000000E+00
  0.00000000E+00  0.00000000E+00  0.00000000E+00
  0.00000000E+00  0.00000000E+00  0.00000000E+00
  0.00000000E+00  0.00000000E+00  0.00000000E+00
  0.00000000E+00  0.00000000E+00  0.00000000E+00
  0.00000000E+00  0.00000000E+00  0.00000000E+00
  0.00000000E+00  0.00000000E+00  0.00000000E+00
  0.00000000E+00  0.00000000E+00  0.00000000E+00
  0.00000000E+00  0.00000000E+00  0.00000000E+00
