C 
 1.0000000000000000
     8.8203262984650923    0.0000000000000000    0.0000000000000000
    -4.4101631492325515    7.6386266441387338    0.0000000000000000
     0.0000000000000000    0.0000000000000000   16.0000000000000000
 C  
  64
Direct
 -0.0431655721129161 -0.1505572336713064  0.6293794595662563
  0.0232288790656555  0.0306737286008094  0.6483132701903495
 -0.2101039234305717 -0.2242051705720153  0.5889648037276242
 -0.0909062890937800  0.0818619250905487  0.6027783969143622
 -0.2332044683287671 -0.0736107688396136  0.5664577091917142
 -0.2083488007174001 -0.3046448646579948  0.5115459389807390
 -0.2629249495242226 -0.2362540004164038  0.4439741481062442
 -0.2657445016713104 -0.0811999939448488  0.4779365214431029
 -0.0223023315175493 -0.2493723854770320  0.4948262271684751
  0.0786997909451579 -0.1551396777756812  0.5669094202102454
  0.2243936013171954  0.0200531307018711  0.5578279026249580
  0.0223522168123812 -0.1684847320233072  0.4135804294129457
  0.1680143535390350  0.0066166254208123  0.4044904307216657
  0.2690173969517949  0.1008879255090340  0.4765810900079905
 -0.1354097683731520 -0.1723657267958141  0.3783678749782209
  0.2028104963340970  0.2723519939731929  0.5629338886240802
  0.1954182475788748  0.1362983988733088  0.6146762665474096
  0.2683762061502956  0.2685615371284172  0.4814754734199641
  0.1501082467438295  0.2602842110150703  0.4179464345515541
  0.1031970663417845  0.1143550680584055  0.3636420450920547
 -0.0832718949061344  0.0054033904607954  0.3585382015923517
  0.0189557289155721  0.2297136593949746  0.5505710037899589
 -0.0134070029969708  0.2221318866342489  0.4620343819792638
 -0.1557827280229012  0.0666410733125236  0.4257311407393385
  0.4248666674959214  0.4910960713038593  0.5228056646097899
  0.3023512671271670  0.4675406554322585  0.4565149021095565
  0.3383115516913152  0.4744375291977123  0.6010638612253538
  0.1627640338995452  0.4407209235162866  0.5827027721915753
  0.1339303524947816  0.4282522278713792  0.4923136046463694
  0.4348669120978186  0.6374468092185079  0.6483262984855378
  0.3154876469499828  0.7071377433206508  0.6529371756878694
  0.1485993119820460  0.5850199648246263  0.6148805213579880
  0.5732732177265646  0.7558395944410183  0.5918860097168435
  0.5562603145103987  0.9073521861207244  0.5710269575999311
  0.3878770494052587  0.8680689900298898  0.6068453195652176
  0.5800013760187689  0.6653345673716704  0.5170877797858077
  0.5416302233520954  0.7506014751391036  0.4484779168520160
  0.5274681150286429  0.8949210220084578  0.4806386504455843
  0.3747778892674185  0.6284787839402959  0.4104282355453831
  0.2554065056429594  0.6981726617276470  0.4150312625554622
  0.3519174585823058  0.8611822233075855  0.4622934111443560
  0.2653601316080529  0.8445164322763545  0.5405581674517000
  0.1102035302641838  0.6702626394923524  0.5462669419661520
  0.1169437092989657  0.5797810345793226  0.4714537399726166
  0.6295574800757325  0.4958951821864720  0.4788163758283863
  0.7829653225540288  0.5059610054727489  0.4396484353119933
  0.6600291253839696  0.5143334802466730  0.5673177366573258
  0.8321135548912694  0.5356478265694774  0.5823618265749542
  0.9155768675051097  0.5383945665194939  0.5029186077577849
  0.5259748639809294  0.3570355200249936  0.6095864636838928
  0.6219275721239971  0.2775903879832834  0.6459720596276454
  0.8084900610468174  0.3888419699627191  0.6311482410925522
  0.4241359412342040  0.2391686496159015  0.5420504662822644
  0.4352783168809233  0.0799398142202168  0.5429624731326648
  0.5678433882658654  0.1123722869446537  0.6062437980869870
  0.4748955878195291  0.3261634189250824  0.4611684999263816
  0.5423173442496495  0.2294790835824294  0.4147433958142050
  0.5186998052825562  0.0826507240200199  0.4635157492994085
  0.7288438757067859  0.3407387776524928  0.3999181587138770
  0.8247940996344245  0.2612904302444565  0.4362951816747421
  0.6907796650772050  0.1039891723186695  0.4785727374700011
  0.7212500163040354  0.1224353882124321  0.5670798375013751
  0.8759388656899592  0.2921806280649150  0.5847220245891693
  0.9266944607511624  0.3791507038845361  0.5038262982211443
