C                                       
   1.00000000000000     
    14.6831277429881997   -0.4931205263768923    0.0000000000000000
    -7.7629545017809187   13.3005994673158678    0.0000000000000000
     0.0000000000000000    0.0000000000000000   16.0000000000000000
  C             
   128
Direct
  0.8443155055987965  0.3260844701145044  0.4359108065601829
  0.7757761693930900  0.2701506361910864  0.5142446011132775
  0.7628476098840208  0.2877293449809704  0.3654662741587484
  0.6587296800361522  0.2194821580528896  0.4872382688457652
  0.6553231760705019  0.2325026577857680  0.3992313255134435
  0.7704089229988463  0.3746118276041863  0.3265024506154826
  0.6688445349907415  0.3632602004755710  0.3144592696944200
  0.5923110293337283  0.2727166798280249  0.3639864416809544
  0.8370444842806858  0.4657401158875664  0.3788835213490818
  0.8735845357986215  0.4371167389697949  0.4479906919200600
  0.8463293689005831  0.4516016497240816  0.5315615061938204
  0.7833879399833692  0.5223011602449603  0.3865134839124741
  0.7484038650366903  0.5338337331012060  0.4777993464746221
  0.7841127022907511  0.4954819392056710  0.5461708363111273
  0.6711985710131438  0.4511728677874025  0.3468844630601717
  0.6915648089267048  0.3272879623652921  0.6059429589121996
  0.7888326454761856  0.3504624426569787  0.5730600067916164
  0.6898035025841106  0.4201075028795153  0.5965502357007051
  0.6017180087777989  0.3968553919106611  0.5473118740498134
  0.6252016553665400  0.4794421280909802  0.4862221661845690
  0.5875031849393811  0.4194143260872199  0.4046494191713405
  0.6084275835576584  0.2510979918801735  0.5431856877205907
  0.5508631771183686  0.2953940465389539  0.5101658297131276
  0.5468050654858934  0.3096196694991126  0.4218019403862341
  0.2828491340737086  0.1344298311903471  0.6032735141631028
  0.3216422408564927  0.0843444517632750  0.6550765475024676
  0.3157117038653747  0.1407602663424917  0.5181575369372049
  0.3509305670859061  0.0324969864812991  0.5952164748905883
  0.3462947007022137  0.0634827507879027  0.5125122771269793
  0.2235149253696981  0.1006583273576560  0.4670775822582569
  0.2088116804218844  0.0213020790957428  0.4144992009230021
  0.2814210321317498  0.9906013293027521  0.4492316464686851
  0.1236491839940564  0.0705672668573346  0.5173299231360760
  0.1675033654977326  0.0825039808305773  0.6077523296156280
  0.1337869599720916  0.9998283729405487  0.6633269785112473
  0.0391627161466333  0.9542147395407288  0.4921839275007119
  0.0295979908678085  0.8771294971790922  0.5557239751094893
  0.0612989362942086  0.8950654731949554  0.6365609841791792
  0.1025485022563420  0.9362313601702269  0.4247689590155468
  0.2169720896270382  0.9048092063349822  0.6840525880371415
  0.2289652877580019  0.0013977795537891  0.6960705437580981
  0.1118902087882534  0.8335619751051895  0.6509281272231041
  0.1044364717434803  0.7766555456596035  0.5806314688284097
  0.0260030366514377  0.7846299661545884  0.5151863398230616
  0.1053992674310179  0.8485203173874946  0.4477959638281862
  0.2985831042156817  0.9200056587503412  0.6185137010821009
  0.2237233377418544  0.8354824619356565  0.5460174531232508
  0.2123509465751428  0.8843792158937074  0.4698732711447300
  0.5048642486085204  0.5222067330374588  0.5792930107069140
  0.4655872926412174  0.5552058106348713  0.4165936017372347
  0.4032824209057831  0.4243872176744546  0.5791053297616794
  0.3505087067089251  0.3841083819804918  0.5018871119745744
  0.3788859083485061  0.4495238364269964  0.4280416306336997
  0.3259668411866611  0.4312733094968664  0.6323681901331852
  0.2107497083341155  0.3683308128335541  0.6030216198279316
  0.2322873534929032  0.3357381380494667  0.5166491892692935
  0.3637773863507737  0.5387180568186727  0.6313237940464449
  0.2768861329704770  0.5505304865101264  0.5983966029181801
  0.1851700805606547  0.4490546325139246  0.5833645325307968
  0.4777138634150844  0.5913585548220784  0.6069826270359583
  0.5523797201364641  0.6974066623119345  0.5806845982120667
  0.2758983276309407  0.6179394614701852  0.5346005967950337
  0.4186236973261663  0.6128950140390492  0.3996414659553509
  0.3021113153859447  0.5451474692284162  0.4019805281118289
  0.2316406263286639  0.5498693722000595  0.4616092185201666
  0.1511249336060340  0.4410416858528645  0.4924648458447189
  0.1930779037793096  0.3788938168470637  0.4508920338781719
  0.2835548392493836  0.4450233580952578  0.3994878372809827
  0.7946174981001723  0.8457164245443872  0.3595136684043738
  0.8418961095854188  0.7821903764605390  0.3578148030973561
  0.8360945896775203  0.9238520048239389  0.4314939223911960
  0.9145658361276839  0.8941959061397926  0.4749038268180493
  0.9057631369294222  0.8071756545485940  0.4252497538971500
  0.7326635743752818  0.8859072157454229  0.4957679886462331
  0.7552976171458980  0.8291723261383411  0.5595751739293722
  0.8441074531339257  0.8258241597183501  0.5458644111468778
  0.6401410847890350  0.8003923099989233  0.4424541692155692
  0.5955671868672630  0.7050907367084399  0.4948552505184599
  0.6674514506769419  0.7255756924532654  0.5726695547087344
  0.6899505117600100  0.7720331822841688  0.3746820878071200
  0.6663659472592088  0.6673101086497867  0.3834107874183370
  0.5784803465444748  0.6117255398349726  0.4482848041813408
  0.7622981074185617  0.6728385841516336  0.3737349835083795
  0.8128711507214177  0.6252839359988458  0.4226505651599929
  0.6023936955060073  0.5582735878947981  0.5203943141811908
  0.7046473871131737  0.6550932388854628  0.5581226463286409
  0.8159992827691138  0.7189678853415689  0.5420848572714871
  0.8982689697692261  0.7210048873243382  0.4780667340448652
  0.5362799988456699  0.7799642683604920  0.6015485177510734
  0.4338537926082296  0.7737665502561724  0.5989182511099786
  0.6178419293218642  0.8822244169546302  0.6174199503629713
  0.5630058608595723  0.9308868108911047  0.6453236714650723
  0.4459180380103328  0.8565878192631806  0.6431303332006509
  0.7031942445031262  0.9512343174215737  0.5547901595953588
  0.6605434765371367  0.0201562641888748  0.5192189042199146
  0.5871747783476000  0.0124869763142037  0.5937060362919984
  0.5552545851078120  0.8110723915640841  0.4058669897634815
  0.5387405481891184  0.8950605185086742  0.3995554792085257
  0.5779513450525546  0.9817284246405598  0.4503621147989418
  0.4561287387229280  0.7168219240075898  0.4033902371175610
  0.3858131192499875  0.7471169870174393  0.4336007493010653
  0.4190271940164102  0.8433619120313438  0.4025216816297990
  0.3454635390364279  0.7302155272991875  0.5263882734329045
  0.3228129984725551  0.8248056892965953  0.5301665758194098
  0.3887229844037393  0.8926999502814991  0.4572124816994649
  0.4846904424408749  0.9836828880701842  0.4806775165579290
  0.4871588896001416  0.9995712827023645  0.5666119205481414
  0.3884211320974855  0.8998214992368280  0.6036686961687796
  0.9989811771146228  0.1555698655928839  0.6366134731769142
  0.9890340401462230  0.0901302544246867  0.5683136323943124
  0.8948854669936716  0.1439609029867866  0.6350452183822439
  0.8149103860169024  0.0554212933570050  0.5743990753676792
  0.8933078605975263  0.0434771990643230  0.5314846012189873
  0.9092549569710544  0.2359431316287951  0.6013996210314725
  0.8376236497759191  0.2188929811125019  0.5279526169344215
  0.7797820889485546  0.1050323312456801  0.5071015649739080
  0.0186254162592129  0.3078625338147202  0.5829179413875251
  0.0319914266919565  0.3393893687934900  0.4909862606140081
  0.9161044046829669  0.2819752131275710  0.4527187306072217
  0.0891603020772148  0.2651351539570068  0.6054173271460908
  0.1218602344975703  0.2391053969872972  0.5182504054552344
  0.0846235736615263  0.2834452665378953  0.4503707342714402
  0.0708736316725243  0.1278185292692267  0.5014437466409274
  0.0038631215936213  0.1107997913484768  0.4202729132625683
  0.0113930424009538  0.1999415583490654  0.3964693025517385
  0.9091453888962649  0.1947178007131080  0.4009645568556498
  0.8327947150325933  0.0984803915792934  0.4275338664974679
  0.8867618188918205  0.0361816890036708  0.4378274318719734
 
  0.00000000E+00  0.00000000E+00  0.00000000E+00
  0.00000000E+00  0.00000000E+00  0.00000000E+00
  0.00000000E+00  0.00000000E+00  0.00000000E+00
  0.00000000E+00  0.00000000E+00  0.00000000E+00
  0.00000000E+00  0.00000000E+00  0.00000000E+00
  0.00000000E+00  0.00000000E+00  0.00000000E+00
  0.00000000E+00  0.00000000E+00  0.00000000E+00
  0.00000000E+00  0.00000000E+00  0.00000000E+00
  0.00000000E+00  0.00000000E+00  0.00000000E+00
  0.00000000E+00  0.00000000E+00  0.00000000E+00
  0.00000000E+00  0.00000000E+00  0.00000000E+00
  0.00000000E+00  0.00000000E+00  0.00000000E+00
  0.00000000E+00  0.00000000E+00  0.00000000E+00
  0.00000000E+00  0.00000000E+00  0.00000000E+00
  0.00000000E+00  0.00000000E+00  0.00000000E+00
  0.00000000E+00  0.00000000E+00  0.00000000E+00
  0.00000000E+00  0.00000000E+00  0.00000000E+00
  0.00000000E+00  0.00000000E+00  0.00000000E+00
  0.00000000E+00  0.00000000E+00  0.00000000E+00
  0.00000000E+00  0.00000000E+00  0.00000000E+00
  0.00000000E+00  0.00000000E+00  0.00000000E+00
  0.00000000E+00  0.00000000E+00  0.00000000E+00
  0.00000000E+00  0.00000000E+00  0.00000000E+00
  0.00000000E+00  0.00000000E+00  0.00000000E+00
  0.00000000E+00  0.00000000E+00  0.00000000E+00
  0.00000000E+00  0.00000000E+00  0.00000000E+00
  0.00000000E+00  0.00000000E+00  0.00000000E+00
  0.00000000E+00  0.00000000E+00  0.00000000E+00
  0.00000000E+00  0.00000000E+00  0.00000000E+00
  0.00000000E+00  0.00000000E+00  0.00000000E+00
  0.00000000E+00  0.00000000E+00  0.00000000E+00
  0.00000000E+00  0.00000000E+00  0.00000000E+00
  0.00000000E+00  0.00000000E+00  0.00000000E+00
  0.00000000E+00  0.00000000E+00  0.00000000E+00
  0.00000000E+00  0.00000000E+00  0.00000000E+00
  0.00000000E+00  0.00000000E+00  0.00000000E+00
  0.00000000E+00  0.00000000E+00  0.00000000E+00
  0.00000000E+00  0.00000000E+00  0.00000000E+00
  0.00000000E+00  0.00000000E+00  0.00000000E+00
  0.00000000E+00  0.00000000E+00  0.00000000E+00
  0.00000000E+00  0.00000000E+00  0.00000000E+00
  0.00000000E+00  0.00000000E+00  0.00000000E+00
  0.00000000E+00  0.00000000E+00  0.00000000E+00
  0.00000000E+00  0.00000000E+00  0.00000000E+00
  0.00000000E+00  0.00000000E+00  0.00000000E+00
  0.00000000E+00  0.00000000E+00  0.00000000E+00
  0.00000000E+00  0.00000000E+00  0.00000000E+00
  0.00000000E+00  0.00000000E+00  0.00000000E+00
  0.00000000E+00  0.00000000E+00  0.00000000E+00
  0.00000000E+00  0.00000000E+00  0.00000000E+00
  0.00000000E+00  0.00000000E+00  0.00000000E+00
  0.00000000E+00  0.00000000E+00  0.00000000E+00
  0.00000000E+00  0.00000000E+00  0.00000000E+00
  0.00000000E+00  0.00000000E+00  0.00000000E+00
  0.00000000E+00  0.00000000E+00  0.00000000E+00
  0.00000000E+00  0.00000000E+00  0.00000000E+00
  0.00000000E+00  0.00000000E+00  0.00000000E+00
  0.00000000E+00  0.00000000E+00  0.00000000E+00
  0.00000000E+00  0.00000000E+00  0.00000000E+00
  0.00000000E+00  0.00000000E+00  0.00000000E+00
  0.00000000E+00  0.00000000E+00  0.00000000E+00
  0.00000000E+00  0.00000000E+00  0.00000000E+00
  0.00000000E+00  0.00000000E+00  0.00000000E+00
  0.00000000E+00  0.00000000E+00  0.00000000E+00
  0.00000000E+00  0.00000000E+00  0.00000000E+00
  0.00000000E+00  0.00000000E+00  0.00000000E+00
  0.00000000E+00  0.00000000E+00  0.00000000E+00
  0.00000000E+00  0.00000000E+00  0.00000000E+00
  0.00000000E+00  0.00000000E+00  0.00000000E+00
  0.00000000E+00  0.00000000E+00  0.00000000E+00
  0.00000000E+00  0.00000000E+00  0.00000000E+00
  0.00000000E+00  0.00000000E+00  0.00000000E+00
  0.00000000E+00  0.00000000E+00  0.00000000E+00
  0.00000000E+00  0.00000000E+00  0.00000000E+00
  0.00000000E+00  0.00000000E+00  0.00000000E+00
  0.00000000E+00  0.00000000E+00  0.00000000E+00
  0.00000000E+00  0.00000000E+00  0.00000000E+00
  0.00000000E+00  0.00000000E+00  0.00000000E+00
  0.00000000E+00  0.00000000E+00  0.00000000E+00
  0.00000000E+00  0.00000000E+00  0.00000000E+00
  0.00000000E+00  0.00000000E+00  0.00000000E+00
  0.00000000E+00  0.00000000E+00  0.00000000E+00
  0.00000000E+00  0.00000000E+00  0.00000000E+00
  0.00000000E+00  0.00000000E+00  0.00000000E+00
  0.00000000E+00  0.00000000E+00  0.00000000E+00
  0.00000000E+00  0.00000000E+00  0.00000000E+00
  0.00000000E+00  0.00000000E+00  0.00000000E+00
  0.00000000E+00  0.00000000E+00  0.00000000E+00
  0.00000000E+00  0.00000000E+00  0.00000000E+00
  0.00000000E+00  0.00000000E+00  0.00000000E+00
  0.00000000E+00  0.00000000E+00  0.00000000E+00
  0.00000000E+00  0.00000000E+00  0.00000000E+00
  0.00000000E+00  0.00000000E+00  0.00000000E+00
  0.00000000E+00  0.00000000E+00  0.00000000E+00
  0.00000000E+00  0.00000000E+00  0.00000000E+00
  0.00000000E+00  0.00000000E+00  0.00000000E+00
  0.00000000E+00  0.00000000E+00  0.00000000E+00
  0.00000000E+00  0.00000000E+00  0.00000000E+00
  0.00000000E+00  0.00000000E+00  0.00000000E+00
  0.00000000E+00  0.00000000E+00  0.00000000E+00
  0.00000000E+00  0.00000000E+00  0.00000000E+00
  0.00000000E+00  0.00000000E+00  0.00000000E+00
  0.00000000E+00  0.00000000E+00  0.00000000E+00
  0.00000000E+00  0.00000000E+00  0.00000000E+00
  0.00000000E+00  0.00000000E+00  0.00000000E+00
  0.00000000E+00  0.00000000E+00  0.00000000E+00
  0.00000000E+00  0.00000000E+00  0.00000000E+00
  0.00000000E+00  0.00000000E+00  0.00000000E+00
  0.00000000E+00  0.00000000E+00  0.00000000E+00
  0.00000000E+00  0.00000000E+00  0.00000000E+00
  0.00000000E+00  0.00000000E+00  0.00000000E+00
  0.00000000E+00  0.00000000E+00  0.00000000E+00
  0.00000000E+00  0.00000000E+00  0.00000000E+00
  0.00000000E+00  0.00000000E+00  0.00000000E+00
  0.00000000E+00  0.00000000E+00  0.00000000E+00
  0.00000000E+00  0.00000000E+00  0.00000000E+00
  0.00000000E+00  0.00000000E+00  0.00000000E+00
  0.00000000E+00  0.00000000E+00  0.00000000E+00
  0.00000000E+00  0.00000000E+00  0.00000000E+00
  0.00000000E+00  0.00000000E+00  0.00000000E+00
  0.00000000E+00  0.00000000E+00  0.00000000E+00
  0.00000000E+00  0.00000000E+00  0.00000000E+00
  0.00000000E+00  0.00000000E+00  0.00000000E+00
  0.00000000E+00  0.00000000E+00  0.00000000E+00
  0.00000000E+00  0.00000000E+00  0.00000000E+00
  0.00000000E+00  0.00000000E+00  0.00000000E+00
  0.00000000E+00  0.00000000E+00  0.00000000E+00
  0.00000000E+00  0.00000000E+00  0.00000000E+00
