Generated by VASPKIT code               
   1.00000000000000     
    10.9201854051011420   -0.0162001099338309    0.0000000000000000
    -5.4669508730912924    9.1392198377498417    0.0000000000000000
     0.0000000000000013    0.0000000000000021   19.7156754464865536
   C 
    68
Direct
  0.2499055338630640  0.0463341255635186  0.5217588822269761
  0.8840559343024097  0.5185197804662920  0.5520780371408875
  0.1443759340453425  0.8834989890584879  0.5352715060006759
  0.9271547397426616  0.4250258152909510  0.5115523745600328
  0.2241356964456642  0.0592304004996862  0.4472422406263021
  0.8190548459303386  0.5955692381823070  0.5104637849704829
  0.0426304384682865  0.8368817315551951  0.4743574276642875
  0.8138342224090209  0.3878635295076762  0.4536122526361837
  0.0991794314879826  0.9288669790569841  0.4200655848699100
  0.7595570274727663  0.4847956453641089  0.4534598466269841
  0.2166027654743701  0.1814693413972179  0.4312364649151732
  0.6844149653149216  0.5525297202313624  0.5492660211236355
  0.0959669244936521  0.1301147050848073  0.3864304784903325
  0.5541534387166678  0.4926605195129525  0.5031603180981250
  0.0192144641925438  0.9744750159037849  0.3783620950769091
  0.6137882914290316  0.4349472236141452  0.4454983770265031
  0.2002567584549055  0.2539819196919026  0.4976134099357097
  0.6689773175018914  0.4562859743477148  0.6021321395700099
  0.1879382737139181  0.1384480004619988  0.5473242752332084
  0.7884038916185148  0.4312606219732942  0.6014499714373258
  0.0767469343088720  0.0586254787852099  0.5896190437474402
  0.7626859495215115  0.2818237995625879  0.6019638359701247
  0.0651663112259797  0.2628964057926098  0.4764339632162589
  0.5272913156480570  0.3325376092315011  0.6030966515405822
  0.9370033776468674  0.1768207619199984  0.5315107313533218
  0.4977589052639360  0.1879372394498589  0.6031263383627490
  0.9489611202185202  0.0677043932698211  0.5777098879136418
  0.6201281750273253  0.1698147528882430  0.5987224426651494
  0.0050404873699677  0.1792081536873198  0.4116535991593722
  0.4623414490533762  0.3588423782861909  0.5440702173778789
  0.9052491796056614  0.8327880853189384  0.5648837382499536
  0.7351041682947965  0.1459178764637201  0.5002806762846745
  0.0449773736824710  0.9034708295646894  0.5869940867520498
  0.8545281402365958  0.2656631836628947  0.5462641346902402
  0.8415019424630330  0.9232362900622988  0.5656277810663752
  0.5955761704335529  0.0629130827838793  0.5428146131862519
  0.7423283497231452  0.8978014462389226  0.5066495622951308
  0.4812317574195575  0.0602641894772660  0.4958535484842699
  0.8059621456717423  0.0600117067110020  0.4833555423265210
  0.4070641547689959  0.1183126064910738  0.5379160022282221
  0.8699997144885359  0.0616912416315785  0.4175383253386187
  0.4395487609452502  0.2512948394304786  0.5015463815641041
  0.8877459783484483  0.7608193307502944  0.4960494121190564
  0.7114638452783950  0.2354317678008471  0.4489413128335400
  0.8109219156763103  0.8324782883985833  0.4578325038783859
  0.5652412714706472  0.1796207035719348  0.4415711646716147
  0.8764843545144316  0.9279722074066044  0.4043881014940069
  0.5208071348938788  0.2824264806085708  0.4409258708775639
  0.2579628586699627  0.7208231076789531  0.5836749696358439
  0.4014579352979837  0.7745754785250014  0.5971391536552204
  0.1810162464917653  0.5612555560769295  0.5743285952875183
  0.2745102968596029  0.5096822488054755  0.5813456349210995
  0.4132056705136691  0.6433463193592317  0.5948777037722479
  0.0929454160723964  0.5115091229216873  0.5081227181419052
  0.1639550076724205  0.4337346570212830  0.4731782470577670
  0.2801434933005567  0.4258709647994223  0.5179733098785988
  0.1627656634193926  0.6655529419942212  0.4765192417805224
  0.2509664986195759  0.6764480927181964  0.4244948350970645
  0.2644969746698607  0.5469083682476992  0.4202656600405845
  0.2297783747263082  0.7983489712961003  0.5267078072524427
  0.3922309732725822  0.8943486551168505  0.4936172543412596
  0.3908055858905328  0.8069398449185599  0.4349183057978081
  0.5030234209825437  0.8902436472085569  0.5453519095675716
  0.5754353758442861  0.8131332216939384  0.5081112376761894
  0.4889263787477702  0.7629273810351265  0.4402660041217956
  0.4102481180134134  0.6033241032883936  0.4318409769239864
  0.4412740998810847  0.5388036871734627  0.4923932279208429
  0.4990583327764782  0.6644712241096116  0.5411402906670872
 
  0.00000000E+00  0.00000000E+00  0.00000000E+00
  0.00000000E+00  0.00000000E+00  0.00000000E+00
  0.00000000E+00  0.00000000E+00  0.00000000E+00
  0.00000000E+00  0.00000000E+00  0.00000000E+00
  0.00000000E+00  0.00000000E+00  0.00000000E+00
  0.00000000E+00  0.00000000E+00  0.00000000E+00
  0.00000000E+00  0.00000000E+00  0.00000000E+00
  0.00000000E+00  0.00000000E+00  0.00000000E+00
  0.00000000E+00  0.00000000E+00  0.00000000E+00
  0.00000000E+00  0.00000000E+00  0.00000000E+00
  0.00000000E+00  0.00000000E+00  0.00000000E+00
  0.00000000E+00  0.00000000E+00  0.00000000E+00
  0.00000000E+00  0.00000000E+00  0.00000000E+00
  0.00000000E+00  0.00000000E+00  0.00000000E+00
  0.00000000E+00  0.00000000E+00  0.00000000E+00
  0.00000000E+00  0.00000000E+00  0.00000000E+00
  0.00000000E+00  0.00000000E+00  0.00000000E+00
  0.00000000E+00  0.00000000E+00  0.00000000E+00
  0.00000000E+00  0.00000000E+00  0.00000000E+00
  0.00000000E+00  0.00000000E+00  0.00000000E+00
  0.00000000E+00  0.00000000E+00  0.00000000E+00
  0.00000000E+00  0.00000000E+00  0.00000000E+00
  0.00000000E+00  0.00000000E+00  0.00000000E+00
  0.00000000E+00  0.00000000E+00  0.00000000E+00
  0.00000000E+00  0.00000000E+00  0.00000000E+00
  0.00000000E+00  0.00000000E+00  0.00000000E+00
  0.00000000E+00  0.00000000E+00  0.00000000E+00
  0.00000000E+00  0.00000000E+00  0.00000000E+00
  0.00000000E+00  0.00000000E+00  0.00000000E+00
  0.00000000E+00  0.00000000E+00  0.00000000E+00
  0.00000000E+00  0.00000000E+00  0.00000000E+00
  0.00000000E+00  0.00000000E+00  0.00000000E+00
  0.00000000E+00  0.00000000E+00  0.00000000E+00
  0.00000000E+00  0.00000000E+00  0.00000000E+00
  0.00000000E+00  0.00000000E+00  0.00000000E+00
  0.00000000E+00  0.00000000E+00  0.00000000E+00
  0.00000000E+00  0.00000000E+00  0.00000000E+00
  0.00000000E+00  0.00000000E+00  0.00000000E+00
  0.00000000E+00  0.00000000E+00  0.00000000E+00
  0.00000000E+00  0.00000000E+00  0.00000000E+00
  0.00000000E+00  0.00000000E+00  0.00000000E+00
  0.00000000E+00  0.00000000E+00  0.00000000E+00
  0.00000000E+00  0.00000000E+00  0.00000000E+00
  0.00000000E+00  0.00000000E+00  0.00000000E+00
  0.00000000E+00  0.00000000E+00  0.00000000E+00
  0.00000000E+00  0.00000000E+00  0.00000000E+00
  0.00000000E+00  0.00000000E+00  0.00000000E+00
  0.00000000E+00  0.00000000E+00  0.00000000E+00
  0.00000000E+00  0.00000000E+00  0.00000000E+00
  0.00000000E+00  0.00000000E+00  0.00000000E+00
  0.00000000E+00  0.00000000E+00  0.00000000E+00
  0.00000000E+00  0.00000000E+00  0.00000000E+00
  0.00000000E+00  0.00000000E+00  0.00000000E+00
  0.00000000E+00  0.00000000E+00  0.00000000E+00
  0.00000000E+00  0.00000000E+00  0.00000000E+00
  0.00000000E+00  0.00000000E+00  0.00000000E+00
  0.00000000E+00  0.00000000E+00  0.00000000E+00
  0.00000000E+00  0.00000000E+00  0.00000000E+00
  0.00000000E+00  0.00000000E+00  0.00000000E+00
  0.00000000E+00  0.00000000E+00  0.00000000E+00
  0.00000000E+00  0.00000000E+00  0.00000000E+00
  0.00000000E+00  0.00000000E+00  0.00000000E+00
  0.00000000E+00  0.00000000E+00  0.00000000E+00
  0.00000000E+00  0.00000000E+00  0.00000000E+00
  0.00000000E+00  0.00000000E+00  0.00000000E+00
  0.00000000E+00  0.00000000E+00  0.00000000E+00
  0.00000000E+00  0.00000000E+00  0.00000000E+00
  0.00000000E+00  0.00000000E+00  0.00000000E+00
