C                                       
   1.00000000000000     
    11.2218257648597088    0.2587661193352976    0.0000000000000000
     0.2587208374521838   11.2217371567637088    0.0000000000000000
     0.0000000000000000    0.0000000000000000   16.0000000000000000
   C 
    64
Direct
  0.1030185057875811  0.1041778330653887  0.5969239872197586
  0.2002014832448506  0.0325920835175091  0.5423404591107488
  0.0314543876387387  0.2013992882654806  0.5423760033039586
  0.1558002345467292  0.0654145447027432  0.4553972371026027
  0.0642394331848357  0.1569753667234992  0.4554120910231287
  0.9115915416303308  0.1510894592049571  0.5445450269829322
  0.8496132575142671  0.1825450180180017  0.4660847209900971
  0.9616243819468019  0.1506572870345433  0.4075378481865505
  0.8938001151876873  0.0524291495721029  0.5888733856121987
  0.0167507327842621  0.0178975655085445  0.6133284983481287
  0.0512534611292540  0.8949309350132513  0.5888712163018845
  0.8168204281738864  0.9815675677560233  0.5318831821784805
  0.8889042482986170  0.8901165719816646  0.4900195205269419
  0.9803361229049882  0.8179865404411282  0.5318839380531480
  0.7732507049800287  0.0661296438359333  0.4555658883043365
  0.1813218470171361  0.8507516891710246  0.4660356974076849
  0.1498761012004793  0.9127298596268841  0.5445031643883088
  0.0648857518251406  0.7744200060795112  0.4555190285013673
  0.9988738983193477  0.8410435465099292  0.3818735395837679
  0.8787977838397341  0.8800607147639536  0.4058274643919882
  0.8397985029935006  0.0001470638466964  0.3818494877622630
  0.1494423629073336  0.9627926713986337  0.4075325901227491
  0.0461788332972902  0.9493949039726188  0.3579333221857867
  0.9482018680098694  0.0474168787144583  0.3579173622945516
  0.6899294729649189  0.7926178456754778  0.4949331469938125
  0.6977530751794794  0.9194951151766744  0.5391010409649730
  0.6142471573772448  0.8232659506323624  0.4184314423802152
  0.5887852450612644  0.9440024743102907  0.4075784318344886
  0.6435662327955848  0.0187938988326461  0.4733735114749463
  0.5004224927031730  0.7667144137430763  0.4221391638857114
  0.4039333255662451  0.8533029615835188  0.4089784392052740
  0.4581424624119146  0.9637499434155236  0.4057682958538047
  0.4907020191277311  0.7090899290643963  0.5011879759398032
  0.3910927697181255  0.7663914775523896  0.5419236367579577
  0.3173652623068990  0.8485680755447702  0.4812833998589465
  0.6080431525870165  0.7137178019075661  0.5515368169557845
  0.5644662298190721  0.8018889256164489  0.6186004483435287
  0.4331661401953265  0.8257221282513936  0.6135975865300315
  0.6136018306817334  0.9124169309711150  0.6101246662912864
  0.5182616024902672  0.0036091857975556  0.6006111683987436
  0.4062832147551433  0.9500874321161558  0.6081296178591025
  0.3317473495451126  0.9839739889059060  0.5321200159251892
  0.4262702072044913  0.0374765647320053  0.4757294564469353
  0.5302038314636089  0.0632887657781607  0.5208125317759817
  0.0175441234587993  0.6447767419914830  0.4733232495386224
  0.9182737920757185  0.6989418227657029  0.5390836754931296
  0.9427256905775545  0.5899633668057089  0.4075435888246851
  0.8219941370578757  0.6154141692104277  0.4183987375110176
  0.7914097376467045  0.6911119913196963  0.4949162659268621
  0.9625149549682182  0.4593228104996954  0.4057730915835783
  0.8520971711192356  0.4050916633862681  0.4090314073783675
  0.7654868630106610  0.5015612184104313  0.4221784979209464
  0.0362644458899065  0.4275005903690046  0.4757234809723001
  0.9827996959293328  0.3329609613125674  0.5321480275964358
  0.8474161636754062  0.3185538672497947  0.4813481365549726
  0.0620613684465725  0.5314496307380234  0.5207825394110026
  0.0024332788735807  0.5194996700411382  0.6006026575273419
  0.9489174652349764  0.4075311812042431  0.6081512491697082
  0.9112257367911634  0.6148281673995264  0.6101193337645179
  0.8006925443488739  0.5657313218099127  0.6186415709117890
  0.8245505975659930  0.4344226178206159  0.6136205655473648
  0.7652255356941026  0.3922830408973710  0.5419786754484134
  0.7078823384366482  0.4918629346082035  0.5012338080461006
  0.7125303933833056  0.6092408342374158  0.5515419104851561
 
  0.00000000E+00  0.00000000E+00  0.00000000E+00
  0.00000000E+00  0.00000000E+00  0.00000000E+00
  0.00000000E+00  0.00000000E+00  0.00000000E+00
  0.00000000E+00  0.00000000E+00  0.00000000E+00
  0.00000000E+00  0.00000000E+00  0.00000000E+00
  0.00000000E+00  0.00000000E+00  0.00000000E+00
  0.00000000E+00  0.00000000E+00  0.00000000E+00
  0.00000000E+00  0.00000000E+00  0.00000000E+00
  0.00000000E+00  0.00000000E+00  0.00000000E+00
  0.00000000E+00  0.00000000E+00  0.00000000E+00
  0.00000000E+00  0.00000000E+00  0.00000000E+00
  0.00000000E+00  0.00000000E+00  0.00000000E+00
  0.00000000E+00  0.00000000E+00  0.00000000E+00
  0.00000000E+00  0.00000000E+00  0.00000000E+00
  0.00000000E+00  0.00000000E+00  0.00000000E+00
  0.00000000E+00  0.00000000E+00  0.00000000E+00
  0.00000000E+00  0.00000000E+00  0.00000000E+00
  0.00000000E+00  0.00000000E+00  0.00000000E+00
  0.00000000E+00  0.00000000E+00  0.00000000E+00
  0.00000000E+00  0.00000000E+00  0.00000000E+00
  0.00000000E+00  0.00000000E+00  0.00000000E+00
  0.00000000E+00  0.00000000E+00  0.00000000E+00
  0.00000000E+00  0.00000000E+00  0.00000000E+00
  0.00000000E+00  0.00000000E+00  0.00000000E+00
  0.00000000E+00  0.00000000E+00  0.00000000E+00
  0.00000000E+00  0.00000000E+00  0.00000000E+00
  0.00000000E+00  0.00000000E+00  0.00000000E+00
  0.00000000E+00  0.00000000E+00  0.00000000E+00
  0.00000000E+00  0.00000000E+00  0.00000000E+00
  0.00000000E+00  0.00000000E+00  0.00000000E+00
  0.00000000E+00  0.00000000E+00  0.00000000E+00
  0.00000000E+00  0.00000000E+00  0.00000000E+00
  0.00000000E+00  0.00000000E+00  0.00000000E+00
  0.00000000E+00  0.00000000E+00  0.00000000E+00
  0.00000000E+00  0.00000000E+00  0.00000000E+00
  0.00000000E+00  0.00000000E+00  0.00000000E+00
  0.00000000E+00  0.00000000E+00  0.00000000E+00
  0.00000000E+00  0.00000000E+00  0.00000000E+00
  0.00000000E+00  0.00000000E+00  0.00000000E+00
  0.00000000E+00  0.00000000E+00  0.00000000E+00
  0.00000000E+00  0.00000000E+00  0.00000000E+00
  0.00000000E+00  0.00000000E+00  0.00000000E+00
  0.00000000E+00  0.00000000E+00  0.00000000E+00
  0.00000000E+00  0.00000000E+00  0.00000000E+00
  0.00000000E+00  0.00000000E+00  0.00000000E+00
  0.00000000E+00  0.00000000E+00  0.00000000E+00
  0.00000000E+00  0.00000000E+00  0.00000000E+00
  0.00000000E+00  0.00000000E+00  0.00000000E+00
  0.00000000E+00  0.00000000E+00  0.00000000E+00
  0.00000000E+00  0.00000000E+00  0.00000000E+00
  0.00000000E+00  0.00000000E+00  0.00000000E+00
  0.00000000E+00  0.00000000E+00  0.00000000E+00
  0.00000000E+00  0.00000000E+00  0.00000000E+00
  0.00000000E+00  0.00000000E+00  0.00000000E+00
  0.00000000E+00  0.00000000E+00  0.00000000E+00
  0.00000000E+00  0.00000000E+00  0.00000000E+00
  0.00000000E+00  0.00000000E+00  0.00000000E+00
  0.00000000E+00  0.00000000E+00  0.00000000E+00
  0.00000000E+00  0.00000000E+00  0.00000000E+00
  0.00000000E+00  0.00000000E+00  0.00000000E+00
  0.00000000E+00  0.00000000E+00  0.00000000E+00
  0.00000000E+00  0.00000000E+00  0.00000000E+00
  0.00000000E+00  0.00000000E+00  0.00000000E+00
  0.00000000E+00  0.00000000E+00  0.00000000E+00
