Generated by VASPKIT code               
   1.00000000000000     
    12.3733449389186525    0.1221659205701424    0.0000000000000000
    -6.0798577156234783    9.9756976903267685    0.0000000000000000
     0.0000000000000013    0.0000000000000021   19.7190131400159672
   C 
    84
Direct
  0.2092261121642522  0.0335195456836246  0.5056797366685259
  0.2345433764244902  0.1645578524477074  0.4687691465820762
  0.1273996049956736  0.0238541853038043  0.5643882880170707
  0.1700118731209841  0.2280873661260259  0.5127174635985199
  0.0990724278368091  0.1243223718271906  0.5662810744774518
  0.0116461100279750  0.8948369314708913  0.5703793318061940
  0.9115561950133682  0.9114251648657259  0.5851863001699513
  0.9651352473404700  0.0564426455338918  0.5775531651420209
  0.9945785640688882  0.8131242820005298  0.5069568405711564
  0.1013357786247084  0.9215691993649600  0.4628950482559162
  0.0851519717801139  0.9718741892881226  0.4029645317743942
  0.8502761224989186  0.7798524545015084  0.4801684987418042
  0.8620929131651138  0.8651558488419653  0.4190620692964089
  0.9652266592056691  0.9419828564182637  0.3752062669648240
  0.7970148376241681  0.8342371230379371  0.5403352971265249
  0.0995990059034426  0.1776593127681068  0.3904743794733534
  0.1673849462692303  0.1169670556203783  0.4049891359279485
  0.9771113049888740  0.0757016828350814  0.3690176106268765
  0.8848090655823029  0.0788083549940097  0.4096321222745516
  0.8126330213630837  0.9469139999532104  0.4352558088834186
  0.7799852345198772  0.9462056488194506  0.5071556151269476
  0.0940866362202968  0.2517280954917283  0.4532582659761459
  0.9507536992494323  0.1697179780000013  0.4720967290991638
  0.8985047600897786  0.0710344892316783  0.5274246412133792
  0.4770141810353863  0.8558157030858808  0.5783263888189083
  0.1097577325008103  0.4755796229162783  0.5710955742634809
  0.4341021216542558  0.5910160082192775  0.5553556915920268
  0.3636094621532280  0.8463238509881563  0.5570342243844806
  0.9892332660468881  0.3564230072530705  0.5666085159685892
  0.5498627571785732  0.7022225021083983  0.5194886788912711
  0.5551680087876179  0.9906860403566640  0.6015288336080928
  0.0828309065427035  0.5776884919019096  0.5890933781383012
  0.4682935175011096  0.5280461938914698  0.6009545265762455
  0.4793681957584468  0.0551308615138808  0.5984003307019279
  0.9454418688975466  0.5156182532066538  0.5972287294980205
  0.6055268263876101  0.5810138241724232  0.5938447964658522
  0.3572000205465002  0.9615941280629414  0.5714199219955489
  0.8888528104593121  0.3770077565566083  0.5844064665490336
  0.6698639278618757  0.6979518422566642  0.5450830753233546
  0.6645569047524305  0.0609784796703892  0.5643187030637762
  0.1226490740448085  0.6760284402990493  0.5404464146626182
  0.3944574374101890  0.3852136587741768  0.5857098106333893
  0.6675263124264461  0.1891618634598586  0.5343341705745814
  0.0093254560971943  0.6901054826838475  0.5141399291407538
  0.4861062853611813  0.3572073428961460  0.5668443269868746
  0.5398287472341394  0.1646624597846085  0.5574833438836961
  0.9018118874380647  0.5721890890244339  0.5520430183306431
  0.6121094937746605  0.4728953952614035  0.5714317482131150
  0.6672340654577411  0.9639120581033751  0.5117947872464583
  0.2007313910032167  0.6548964828062793  0.4858548996299206
  0.2990459226567310  0.3541114750180299  0.5284224589395166
  0.6345874637722275  0.0197238120042158  0.4499230941156327
  0.0991022410364906  0.5991917990779854  0.4314407324547176
  0.3534800625009638  0.3012165510732387  0.4710343735139091
  0.6284132124242277  0.1343115049893484  0.4634762615190269
  0.9970730635464591  0.6230605986450755  0.4471613237817351
  0.4642159211277601  0.2927202647170759  0.4977801534071276
  0.5401976986052617  0.8250846105372887  0.5208557857884912
  0.1955345619639743  0.5077237181136525  0.5084147099917331
  0.3206905969430736  0.4984603177208697  0.5093262654195811
  0.4534267952415050  0.8172079027642951  0.4632564126911731
  0.0934978552740517  0.3919739612798949  0.4588115096985916
  0.3996308151343300  0.5229669482894721  0.4440061442340308
  0.5130954688443978  0.9262226306167349  0.4221024200627284
  0.0469969803982622  0.4654671856214634  0.4142253924749184
  0.4088142591605504  0.4155727455539662  0.4212659990268008
  0.3247632382939472  0.7929340737993797  0.4852457532738015
  0.9662556548882293  0.3004714632213563  0.4968906053206155
  0.5269919344292333  0.6378291484767615  0.4501134960620092
  0.3287631695775630  0.9222340732550620  0.4572779277880130
  0.8663693870811855  0.3222474758182585  0.4728974110047943
  0.6170754349455905  0.6085993487293706  0.4303742462870019
  0.4368676486221901  0.9908988204498641  0.4188808367372872
  0.9087904962795221  0.4094584982564342  0.4205225304641473
  0.5443708171242534  0.4668823250344545  0.4147018003484106
  0.5149615928847098  0.1241137902881420  0.4426438633873317
  0.8792471264206583  0.5091641190244047  0.4404384724629509
  0.5775573262076108  0.4025609739824318  0.4602154677840034
  0.4561489018781728  0.1598664449845657  0.4998060177586652
  0.7970349654319051  0.4731167591783318  0.5065192448844300
  0.6870029145096552  0.4951681605495111  0.5057617418348528
  0.3235963469487046  0.0180620830075569  0.5108603240504266
  0.7876882911831089  0.3301947984287423  0.5292082620249943
  0.7171137082736863  0.6422341438130843  0.4843848514376461
 
  0.00000000E+00  0.00000000E+00  0.00000000E+00
  0.00000000E+00  0.00000000E+00  0.00000000E+00
  0.00000000E+00  0.00000000E+00  0.00000000E+00
  0.00000000E+00  0.00000000E+00  0.00000000E+00
  0.00000000E+00  0.00000000E+00  0.00000000E+00
  0.00000000E+00  0.00000000E+00  0.00000000E+00
  0.00000000E+00  0.00000000E+00  0.00000000E+00
  0.00000000E+00  0.00000000E+00  0.00000000E+00
  0.00000000E+00  0.00000000E+00  0.00000000E+00
  0.00000000E+00  0.00000000E+00  0.00000000E+00
  0.00000000E+00  0.00000000E+00  0.00000000E+00
  0.00000000E+00  0.00000000E+00  0.00000000E+00
  0.00000000E+00  0.00000000E+00  0.00000000E+00
  0.00000000E+00  0.00000000E+00  0.00000000E+00
  0.00000000E+00  0.00000000E+00  0.00000000E+00
  0.00000000E+00  0.00000000E+00  0.00000000E+00
  0.00000000E+00  0.00000000E+00  0.00000000E+00
  0.00000000E+00  0.00000000E+00  0.00000000E+00
  0.00000000E+00  0.00000000E+00  0.00000000E+00
  0.00000000E+00  0.00000000E+00  0.00000000E+00
  0.00000000E+00  0.00000000E+00  0.00000000E+00
  0.00000000E+00  0.00000000E+00  0.00000000E+00
  0.00000000E+00  0.00000000E+00  0.00000000E+00
  0.00000000E+00  0.00000000E+00  0.00000000E+00
  0.00000000E+00  0.00000000E+00  0.00000000E+00
  0.00000000E+00  0.00000000E+00  0.00000000E+00
  0.00000000E+00  0.00000000E+00  0.00000000E+00
  0.00000000E+00  0.00000000E+00  0.00000000E+00
  0.00000000E+00  0.00000000E+00  0.00000000E+00
  0.00000000E+00  0.00000000E+00  0.00000000E+00
  0.00000000E+00  0.00000000E+00  0.00000000E+00
  0.00000000E+00  0.00000000E+00  0.00000000E+00
  0.00000000E+00  0.00000000E+00  0.00000000E+00
  0.00000000E+00  0.00000000E+00  0.00000000E+00
  0.00000000E+00  0.00000000E+00  0.00000000E+00
  0.00000000E+00  0.00000000E+00  0.00000000E+00
  0.00000000E+00  0.00000000E+00  0.00000000E+00
  0.00000000E+00  0.00000000E+00  0.00000000E+00
  0.00000000E+00  0.00000000E+00  0.00000000E+00
  0.00000000E+00  0.00000000E+00  0.00000000E+00
  0.00000000E+00  0.00000000E+00  0.00000000E+00
  0.00000000E+00  0.00000000E+00  0.00000000E+00
  0.00000000E+00  0.00000000E+00  0.00000000E+00
  0.00000000E+00  0.00000000E+00  0.00000000E+00
  0.00000000E+00  0.00000000E+00  0.00000000E+00
  0.00000000E+00  0.00000000E+00  0.00000000E+00
  0.00000000E+00  0.00000000E+00  0.00000000E+00
  0.00000000E+00  0.00000000E+00  0.00000000E+00
  0.00000000E+00  0.00000000E+00  0.00000000E+00
  0.00000000E+00  0.00000000E+00  0.00000000E+00
  0.00000000E+00  0.00000000E+00  0.00000000E+00
  0.00000000E+00  0.00000000E+00  0.00000000E+00
  0.00000000E+00  0.00000000E+00  0.00000000E+00
  0.00000000E+00  0.00000000E+00  0.00000000E+00
  0.00000000E+00  0.00000000E+00  0.00000000E+00
  0.00000000E+00  0.00000000E+00  0.00000000E+00
  0.00000000E+00  0.00000000E+00  0.00000000E+00
  0.00000000E+00  0.00000000E+00  0.00000000E+00
  0.00000000E+00  0.00000000E+00  0.00000000E+00
  0.00000000E+00  0.00000000E+00  0.00000000E+00
  0.00000000E+00  0.00000000E+00  0.00000000E+00
  0.00000000E+00  0.00000000E+00  0.00000000E+00
  0.00000000E+00  0.00000000E+00  0.00000000E+00
  0.00000000E+00  0.00000000E+00  0.00000000E+00
  0.00000000E+00  0.00000000E+00  0.00000000E+00
  0.00000000E+00  0.00000000E+00  0.00000000E+00
  0.00000000E+00  0.00000000E+00  0.00000000E+00
  0.00000000E+00  0.00000000E+00  0.00000000E+00
  0.00000000E+00  0.00000000E+00  0.00000000E+00
  0.00000000E+00  0.00000000E+00  0.00000000E+00
  0.00000000E+00  0.00000000E+00  0.00000000E+00
  0.00000000E+00  0.00000000E+00  0.00000000E+00
  0.00000000E+00  0.00000000E+00  0.00000000E+00
  0.00000000E+00  0.00000000E+00  0.00000000E+00
  0.00000000E+00  0.00000000E+00  0.00000000E+00
  0.00000000E+00  0.00000000E+00  0.00000000E+00
  0.00000000E+00  0.00000000E+00  0.00000000E+00
  0.00000000E+00  0.00000000E+00  0.00000000E+00
  0.00000000E+00  0.00000000E+00  0.00000000E+00
  0.00000000E+00  0.00000000E+00  0.00000000E+00
  0.00000000E+00  0.00000000E+00  0.00000000E+00
  0.00000000E+00  0.00000000E+00  0.00000000E+00
  0.00000000E+00  0.00000000E+00  0.00000000E+00
  0.00000000E+00  0.00000000E+00  0.00000000E+00
