C 
 1.0000000000000000
    10.0892602275716854    0.0000000000000000    0.0000000000000000
     0.0000000000000000   10.0892602275716836    0.0000000000000000
     0.0000000000000000    0.0000000000000000   16.0000000000000000
 C  
  88
Direct
  0.6320743814951850  0.6363248862562569  0.4111055764312396
  0.6944815147318524  0.6338703409674197  0.4915533628245843
  0.6293064040521540  0.5064682594632989  0.3749617864717557
  0.7076849107167102  0.4917977167335771  0.5141082006846219
  0.6677588898690590  0.4140045469077917  0.4430095193342387
  0.4969119819232637  0.4707593700506560  0.3520026299652727
  0.4600600576130260  0.3468698870831515  0.3892020675909385
  0.5644764693138008  0.3164382934659141  0.4515837430028087
  0.4091914626699029  0.5720545213784045  0.3902410110654646
  0.4918863681443455  0.6733135802128075  0.4263811692552066
  0.4784121206883721  0.7069916861468756  0.5134478598281721
  0.3129063063005396  0.5044032098117944  0.4411462727917504
  0.2994011148894711  0.5380848230533473  0.5281723124127853
  0.3821199632008082  0.6393366433218061  0.5643282516313840
  0.3390839733905070  0.3597919413088753  0.4352940981924238
  0.5907511513843884  0.6016485625621659  0.6217826239098261
  0.6102160863311614  0.6916337696533414  0.5536416825375257
  0.4523435018562507  0.5806665127602169  0.6369308744660283
  0.4214463693668209  0.4421470544424879  0.6360213922193476
  0.3171342856309755  0.4151483214558850  0.5777761352140998
  0.3562145795995037  0.3146593166332030  0.5194354504885458
  0.6442590066347735  0.4721066054971268  0.5937746668789251
  0.5408765063593719  0.3746541562710050  0.6023654541797497
  0.5010025938377525  0.2968259945625925  0.5312513437483718
  0.2107472548886484  0.0884823849802125  0.4719520648382939
  0.3318082660755890  0.0159363578025393  0.4820816273163273
  0.1353221132390663  0.0373014492546725  0.4033163299765941
  0.3194007006840928 -0.1028502287982729  0.4279320445544533
  0.1994144042612855 -0.0899379517998478  0.3799279766645857
  0.0038775987395932  0.0038893546141305  0.4295823574479799
 -0.0267892032337500 -0.1308420399008731  0.4087275848997793
  0.1003256352564197 -0.1925405868413048  0.3831082628231304
  0.0047971360792234  0.0102091948466359  0.5222410463276945
  0.1313337939324341  0.0619609935877857  0.5481394396423421
  0.2127854081161957 -0.0120690081543463  0.6054682483094486
 -0.0404160757263196 -0.1156275424117612  0.5536777631924956
  0.0409754993261775 -0.1896191751652934  0.6110021654409531
  0.1675426037133392 -0.1378832945395608  0.6368952232917060
 -0.0703986084330890 -0.2022678687574856  0.4810151647463933
  0.3658680900413104 -0.1728541331353318  0.5658518715836431
  0.3442942271461870 -0.0325403702495341  0.5657996791908104
  0.2699825746974956 -0.2387063217210579  0.6172487784760387
  0.2037411640757902 -0.3409441026263917  0.5713252157736965
  0.0630439646650175 -0.3232228289596079  0.5748940893000879
  0.0071917032872613 -0.3196584325456890  0.4925487496015414
  0.3402651905536955 -0.2183193742622984  0.4791744273855174
  0.2411516739682175 -0.3208868559571997  0.4824478368621399
  0.1211793134918517 -0.3079688432423069  0.4344023649110202
  0.5905778406726970  0.1000725574727745  0.5441909397733650
  0.7343368126881100  0.1059570172785420  0.5401712089570400
  0.5536210026941824 -0.0366742076497780  0.5524740278190854
  0.6747655668811463 -0.1145653003288584  0.5535043855611873
  0.7901967782359481 -0.0270373188178575  0.5494563451545758
  0.4712170405763012 -0.0753051205992749  0.4813015765202740
  0.5509400574167670 -0.1729283026101781  0.4361373458346627
  0.6730981659844789 -0.1990765611075599  0.4813631921472885
  0.4703611352647416  0.0408168637349632  0.4272186795903012
  0.5304218798534144  0.0123214572738360  0.3464381070418372
  0.5862381034249508 -0.1206733347409129  0.3557254421450801
  0.5331958155448023  0.1540206562639181  0.4674342181615790
  0.6474800560900223  0.1843597672791178  0.4145273677328374
  0.6458335104324486  0.0998636564562640  0.3423743890843481
  0.7696076908877314  0.1582271122372096  0.4597593385167224
  0.8493351254988616  0.0606168066199827  0.4145935593043317
  0.7669585331294665  0.0219588672728644  0.3434172481462300
  0.7299945023232989 -0.1147946574787625  0.3517044438053694
  0.7873972393817072 -0.1687417460615545  0.4284663624976121
  0.8502453047401313 -0.0555201274504956  0.4686695869878809
  0.0466861440364938  0.2082515516971731  0.5668954927650869
  0.0152769256639321  0.3330102415126535  0.6077160840577329
  0.1543654285439122  0.2322584076044311  0.5102595683145946
  0.1888919782076584  0.3717559788965791  0.5163746426587296
  0.1068174381392147  0.4363747629686267  0.5797937691929654
  0.1122582220036747  0.2007590469799529  0.4250571477038935
  0.1139310916249806  0.3280690462124203  0.3813451193797239
  0.1638320702221826  0.4311727938267189  0.4364252652008266
 -0.0277944681470529  0.1679796801787493  0.4328262331695944
 -0.1103587582280205  0.2601483002096494  0.3859832301620631
 -0.0188084754960490  0.3634739546663916  0.3580496417404867
 -0.0682945576032056  0.1604929344695442  0.5200521998073122
 -0.1673707807787280  0.2653165571931063  0.5293372072525226
 -0.1924576941618425  0.3247490585519614  0.4493917376518158
 -0.1174685017660432  0.3683847902038689  0.5844185280878460
 -0.1158067983271668  0.4956936094981519  0.5407115943134012
 -0.1579045115149825  0.4642312241865359  0.4555043014819913
 -0.0502148276889769  0.4882333195289587  0.3988664797093121
  0.0647678363201680  0.5360078948285371  0.4457195297458455
  0.0242395172969823  0.5285293108542019  0.5329479188684212
