Generated by VASPKIT code               
   1.00000000000000     
    10.9084952042772780   -0.2469741510894690    0.0000000000000000
    -0.2352203056170807   11.3718083110121295    0.0000000000000000
     0.0000000000000012    0.0000000000000013   19.7134913205595552
  C             
    64
Direct
  0.9971265385976480  0.0669923572197662  0.6319432210394369
  0.9093873662252625  0.1419817383707067  0.6109619993744881
  0.9664982768578229  0.9421490232471245  0.6286444212548602
  0.8065092980252889  0.0461535214696722  0.5741422576679860
  0.8721128777502444  0.9328792381087776  0.5811676775044904
  0.0681763185380803  0.8773401761509436  0.6029751567635905
  0.0218282358323746  0.8112786471067747  0.5453613099870053
  0.9077411723152463  0.8617113413452524  0.5252184148797803
  0.1653703499600387  0.9579119571251563  0.5878573198764727
  0.1165388403262775  0.0743105608158246  0.5943236511250898
  0.0940617265524470  0.1430318045595816  0.5374638339198099
  0.1667710660750835  0.9144257887275087  0.4322275509108403
  0.1104523119310332  0.0280761875468313  0.4212584084828451
  0.0931289359636651  0.1237165189031847  0.4637139439831114
  0.0826166147842650  0.8255007948762262  0.4147383986618944
  0.9067562438673525  0.1730333458109928  0.4959997961137241
  0.9776124142459477  0.2129316025743170  0.5542046942829170
  0.9799271550938362  0.1883258972797993  0.4351542817218939
  0.9070428232671689  0.0894573528422612  0.3917770920324232
  0.9941950239055404  0.0075804728682497  0.3841698716110128
  0.9682690498589075  0.8853109396662454  0.4043793761421621
  0.8320895413531104  0.0823353790059021  0.5035723332545499
  0.8107591614722968  0.0084395607422575  0.4439360449435314
  0.8819764848735309  0.8947932632124337  0.4559002582782807
  0.5739756408929576  0.1042352648015601  0.5609816634285394
  0.9407822487243671  0.6288072271202354  0.5291131067332320
  0.6724728688163902  0.0258980300991332  0.5769612231907753
  0.0573419475576918  0.7010870998495715  0.5159136481406111
  0.4632284533923784  0.0603706783588515  0.5962656422411714
  0.9609373630804190  0.5293255270006614  0.5707329782170497
  0.4796608694836558  0.9385450391406712  0.6085882192996169
  0.0908186693378611  0.5196883574388149  0.5758771162691118
  0.6009425366694149  0.9142231970376169  0.5814705803309088
  0.1519829540134523  0.6168401646187313  0.5412385759473807
  0.3566048387973538  0.0690964539726009  0.5555212200493823
  0.9094455512992418  0.4266945977574181  0.5375026691685263
  0.2820326035784317  0.9505222493019102  0.5503913027444607
  0.0047423683910599  0.3362921070276554  0.5318451955259191
  0.3828658352275603  0.8708702937162368  0.5768417972363966
  0.1206639022237130  0.4072687495423620  0.5480541194562265
  0.3981857474293567  0.1135615859314433  0.4929055587824294
  0.8619187189033644  0.4636627498293766  0.4740814149561529
  0.3622556298666086  0.0334960587819810  0.4419262581331182
  0.9246065674049068  0.4138465783781179  0.4194662381858966
  0.2860847946981436  0.9240745776147183  0.4670892928503258
  0.0126377165195282  0.3217475255318382  0.4409868940727825
  0.5348250710371830  0.1322448641869240  0.4933849329879870
  0.8805531496732406  0.5933351373910303  0.4691500325346980
  0.5792717991057545  0.0658324081775975  0.4369850424599843
  0.9556263454443309  0.6232597162299360  0.4126779977708704
  0.4715830298175466  0.0022829432119355  0.4089541878560637
  0.9851468058573893  0.5115454191185640  0.3837236465143649
  0.6776776440467092  0.9837877208089519  0.4415353694477215
  0.0716895340686256  0.6988106016164125  0.4328447158304123
  0.6064662450747128  0.8749944102585889  0.4563310683123954
  0.1665998478775300  0.6044274075903102  0.4225425209522972
  0.4879626496553118  0.8805918254804892  0.4219828580687281
  0.1134043712779203  0.4992172784681005  0.3904685033109013
  0.3878130463684436  0.8351400194972539  0.4617558724524381
  0.1337634539286078  0.3918714344838606  0.4278969643712385
  0.4403160376472516  0.8084792751081944  0.5249225450278150
  0.1901331358075863  0.4336631435614712  0.4890551132698388
  0.5760164617376631  0.8367106410444947  0.5245342751660986
  0.2100157175938848  0.5639841713385635  0.4852881922806757
 
  0.00000000E+00  0.00000000E+00  0.00000000E+00
  0.00000000E+00  0.00000000E+00  0.00000000E+00
  0.00000000E+00  0.00000000E+00  0.00000000E+00
  0.00000000E+00  0.00000000E+00  0.00000000E+00
  0.00000000E+00  0.00000000E+00  0.00000000E+00
  0.00000000E+00  0.00000000E+00  0.00000000E+00
  0.00000000E+00  0.00000000E+00  0.00000000E+00
  0.00000000E+00  0.00000000E+00  0.00000000E+00
  0.00000000E+00  0.00000000E+00  0.00000000E+00
  0.00000000E+00  0.00000000E+00  0.00000000E+00
  0.00000000E+00  0.00000000E+00  0.00000000E+00
  0.00000000E+00  0.00000000E+00  0.00000000E+00
  0.00000000E+00  0.00000000E+00  0.00000000E+00
  0.00000000E+00  0.00000000E+00  0.00000000E+00
  0.00000000E+00  0.00000000E+00  0.00000000E+00
  0.00000000E+00  0.00000000E+00  0.00000000E+00
  0.00000000E+00  0.00000000E+00  0.00000000E+00
  0.00000000E+00  0.00000000E+00  0.00000000E+00
  0.00000000E+00  0.00000000E+00  0.00000000E+00
  0.00000000E+00  0.00000000E+00  0.00000000E+00
  0.00000000E+00  0.00000000E+00  0.00000000E+00
  0.00000000E+00  0.00000000E+00  0.00000000E+00
  0.00000000E+00  0.00000000E+00  0.00000000E+00
  0.00000000E+00  0.00000000E+00  0.00000000E+00
  0.00000000E+00  0.00000000E+00  0.00000000E+00
  0.00000000E+00  0.00000000E+00  0.00000000E+00
  0.00000000E+00  0.00000000E+00  0.00000000E+00
  0.00000000E+00  0.00000000E+00  0.00000000E+00
  0.00000000E+00  0.00000000E+00  0.00000000E+00
  0.00000000E+00  0.00000000E+00  0.00000000E+00
  0.00000000E+00  0.00000000E+00  0.00000000E+00
  0.00000000E+00  0.00000000E+00  0.00000000E+00
  0.00000000E+00  0.00000000E+00  0.00000000E+00
  0.00000000E+00  0.00000000E+00  0.00000000E+00
  0.00000000E+00  0.00000000E+00  0.00000000E+00
  0.00000000E+00  0.00000000E+00  0.00000000E+00
  0.00000000E+00  0.00000000E+00  0.00000000E+00
  0.00000000E+00  0.00000000E+00  0.00000000E+00
  0.00000000E+00  0.00000000E+00  0.00000000E+00
  0.00000000E+00  0.00000000E+00  0.00000000E+00
  0.00000000E+00  0.00000000E+00  0.00000000E+00
  0.00000000E+00  0.00000000E+00  0.00000000E+00
  0.00000000E+00  0.00000000E+00  0.00000000E+00
  0.00000000E+00  0.00000000E+00  0.00000000E+00
  0.00000000E+00  0.00000000E+00  0.00000000E+00
  0.00000000E+00  0.00000000E+00  0.00000000E+00
  0.00000000E+00  0.00000000E+00  0.00000000E+00
  0.00000000E+00  0.00000000E+00  0.00000000E+00
  0.00000000E+00  0.00000000E+00  0.00000000E+00
  0.00000000E+00  0.00000000E+00  0.00000000E+00
  0.00000000E+00  0.00000000E+00  0.00000000E+00
  0.00000000E+00  0.00000000E+00  0.00000000E+00
  0.00000000E+00  0.00000000E+00  0.00000000E+00
  0.00000000E+00  0.00000000E+00  0.00000000E+00
  0.00000000E+00  0.00000000E+00  0.00000000E+00
  0.00000000E+00  0.00000000E+00  0.00000000E+00
  0.00000000E+00  0.00000000E+00  0.00000000E+00
  0.00000000E+00  0.00000000E+00  0.00000000E+00
  0.00000000E+00  0.00000000E+00  0.00000000E+00
  0.00000000E+00  0.00000000E+00  0.00000000E+00
  0.00000000E+00  0.00000000E+00  0.00000000E+00
  0.00000000E+00  0.00000000E+00  0.00000000E+00
  0.00000000E+00  0.00000000E+00  0.00000000E+00
  0.00000000E+00  0.00000000E+00  0.00000000E+00
