Generated by VASPKIT code               
   1.00000000000000     
    10.3564504374419588    0.1216723903947625    0.0000000000000000
    -5.0727515191347390    8.6204078213720603    0.0000000000000000
     0.0000000000000013    0.0000000000000021   19.7116201071645669
   C 
    68
Direct
  0.1589581849563046  0.8998249479622942  0.5736132191878625
  0.6674751724969141  0.1422108197443634  0.5547480560977576
  0.0330781104697735  0.9019876718246920  0.6118598784248164
  0.5562133686400230  0.1663617162363451  0.5888971315160845
  0.0748098570489475  0.8099355422536689  0.5104961406374073
  0.6221088494386748  0.1144651079880248  0.4872796572496796
  0.8985685281782594  0.8312274148531955  0.5709178986076040
  0.4280780131623487  0.1495899116245809  0.5406019957132457
  0.9275952570837802  0.7844189799778505  0.5094618616953852
  0.4706148979403508  0.0914503587777844  0.4729784786791242
  0.1497369285730699  0.8876803137255962  0.4434146279178464
  0.6939757589671061  0.1317978595877420  0.4241252072192907
  0.0220201114694163  0.8587208817451284  0.3978296164874706
  0.6372162271269417  0.2070050639882410  0.3805649241364435
  0.8674454420379121  0.7677153335442384  0.4378398002554604
  0.5062477606176259  0.1922859771515490  0.4086603037814811
  0.2145941262868760  0.0523761540469181  0.4693228477589599
  0.8525608895234100  0.2336704451742051  0.4405561692931386
  0.2552340540347799  0.0709141749821143  0.5453391784457366
  0.8229519855468936  0.2519072915987692  0.5793637078501277
  0.1732633340524288  0.1556430859581397  0.5761576246880438
  0.7985136708356322  0.3763100126477568  0.5984938766802514
  0.1653164878386519  0.1297709370547864  0.4307588439122654
  0.8473626686660864  0.3919835906635782  0.4327735367930359
  0.1327264594265571  0.2530690672511753  0.4569022030260115
  0.8350108578066440  0.4991234175223767  0.4788677633750069
  0.1366965243311711  0.2641507434711272  0.5390511148649324
  0.8118976206155963  0.4958922721469818  0.5505654704575065
  0.0449230994095089  0.0054964914761300  0.3881502256783733
  0.7463583368802134  0.3711725736205835  0.3776908198535835
  0.9206329206062236  0.0605231426482149  0.5995992819900309
  0.5797682196979608  0.4044207954930101  0.5909676413687279
  0.0559522248284807  0.0550311894221949  0.6171886841634873
  0.6381681708760354  0.3107702767920841  0.6179577195779444
  0.9403129367120542  0.1993378602270539  0.5611990779801843
  0.6925156698232300  0.5338563252802331  0.5598542924877776
  0.8660468480893755  0.1306210177870000  0.4953544288552294
  0.6315255019503780  0.5601424937400594  0.4939274194881804
  0.9640735053299068  0.1758668035710755  0.4341620340528607
  0.7552885638046192  0.5867003819366587  0.4406082278794301
  0.9182226748359312  0.0210587845983383  0.4037265724948611
  0.6749490377758178  0.4611815109170720  0.3871004432231828
  0.8282676388988648  0.9235084041478530  0.5675133356744624
  0.4740898248010481  0.3155238711331450  0.5372767213695298
  0.7574202759897162  0.9333956339677627  0.5016349273219802
  0.5130907121323531  0.3969717867504343  0.4780318135990740
  0.8204400630594861  0.8934043683089712  0.4398772205302208
  0.5320751036368137  0.3478863972020321  0.4136833872713197
  0.4084521844841547  0.5584689010993671  0.5581952680688858
  0.2466877013247810  0.4408688756509136  0.5375554209613327
  0.3986118597785975  0.6719508075580407  0.5949343994661760
  0.2456259712794377  0.6470681982905191  0.6056384329116682
  0.1671694601228779  0.5238652997150197  0.5610069695210100
  0.4877696840357544  0.8169217547095045  0.5621097485581785
  0.3932492905581313  0.8705234030872759  0.5459433622038077
  0.2405806573229299  0.7895336519612712  0.5746905290034263
  0.5832742548968568  0.8201679536875588  0.5027043389775443
  0.4960038683333394  0.8448119864882031  0.4458511438963058
  0.4005894585020613  0.9131078279693838  0.4717547853918589
  0.5253250973092989  0.6314426396447814  0.4980051107684034
  0.4075749951734338  0.5754572138200089  0.4406365119195357
  0.3983949746470685  0.7008715103657650  0.4140906013471053
  0.2449004090437796  0.4451125606590125  0.4575911476925825
  0.1645016549404659  0.5343148574587815  0.4430848319013450
  0.2471368359398269  0.6739128755928050  0.4078182150992404
  0.2422401720465786  0.8047555427915043  0.4459834939839169
  0.1496099811908067  0.7165099133004347  0.5095349849362307
  0.1045770127596128  0.5553070236267175  0.5042094935049661
 
  0.00000000E+00  0.00000000E+00  0.00000000E+00
  0.00000000E+00  0.00000000E+00  0.00000000E+00
  0.00000000E+00  0.00000000E+00  0.00000000E+00
  0.00000000E+00  0.00000000E+00  0.00000000E+00
  0.00000000E+00  0.00000000E+00  0.00000000E+00
  0.00000000E+00  0.00000000E+00  0.00000000E+00
  0.00000000E+00  0.00000000E+00  0.00000000E+00
  0.00000000E+00  0.00000000E+00  0.00000000E+00
  0.00000000E+00  0.00000000E+00  0.00000000E+00
  0.00000000E+00  0.00000000E+00  0.00000000E+00
  0.00000000E+00  0.00000000E+00  0.00000000E+00
  0.00000000E+00  0.00000000E+00  0.00000000E+00
  0.00000000E+00  0.00000000E+00  0.00000000E+00
  0.00000000E+00  0.00000000E+00  0.00000000E+00
  0.00000000E+00  0.00000000E+00  0.00000000E+00
  0.00000000E+00  0.00000000E+00  0.00000000E+00
  0.00000000E+00  0.00000000E+00  0.00000000E+00
  0.00000000E+00  0.00000000E+00  0.00000000E+00
  0.00000000E+00  0.00000000E+00  0.00000000E+00
  0.00000000E+00  0.00000000E+00  0.00000000E+00
  0.00000000E+00  0.00000000E+00  0.00000000E+00
  0.00000000E+00  0.00000000E+00  0.00000000E+00
  0.00000000E+00  0.00000000E+00  0.00000000E+00
  0.00000000E+00  0.00000000E+00  0.00000000E+00
  0.00000000E+00  0.00000000E+00  0.00000000E+00
  0.00000000E+00  0.00000000E+00  0.00000000E+00
  0.00000000E+00  0.00000000E+00  0.00000000E+00
  0.00000000E+00  0.00000000E+00  0.00000000E+00
  0.00000000E+00  0.00000000E+00  0.00000000E+00
  0.00000000E+00  0.00000000E+00  0.00000000E+00
  0.00000000E+00  0.00000000E+00  0.00000000E+00
  0.00000000E+00  0.00000000E+00  0.00000000E+00
  0.00000000E+00  0.00000000E+00  0.00000000E+00
  0.00000000E+00  0.00000000E+00  0.00000000E+00
  0.00000000E+00  0.00000000E+00  0.00000000E+00
  0.00000000E+00  0.00000000E+00  0.00000000E+00
  0.00000000E+00  0.00000000E+00  0.00000000E+00
  0.00000000E+00  0.00000000E+00  0.00000000E+00
  0.00000000E+00  0.00000000E+00  0.00000000E+00
  0.00000000E+00  0.00000000E+00  0.00000000E+00
  0.00000000E+00  0.00000000E+00  0.00000000E+00
  0.00000000E+00  0.00000000E+00  0.00000000E+00
  0.00000000E+00  0.00000000E+00  0.00000000E+00
  0.00000000E+00  0.00000000E+00  0.00000000E+00
  0.00000000E+00  0.00000000E+00  0.00000000E+00
  0.00000000E+00  0.00000000E+00  0.00000000E+00
  0.00000000E+00  0.00000000E+00  0.00000000E+00
  0.00000000E+00  0.00000000E+00  0.00000000E+00
  0.00000000E+00  0.00000000E+00  0.00000000E+00
  0.00000000E+00  0.00000000E+00  0.00000000E+00
  0.00000000E+00  0.00000000E+00  0.00000000E+00
  0.00000000E+00  0.00000000E+00  0.00000000E+00
  0.00000000E+00  0.00000000E+00  0.00000000E+00
  0.00000000E+00  0.00000000E+00  0.00000000E+00
  0.00000000E+00  0.00000000E+00  0.00000000E+00
  0.00000000E+00  0.00000000E+00  0.00000000E+00
  0.00000000E+00  0.00000000E+00  0.00000000E+00
  0.00000000E+00  0.00000000E+00  0.00000000E+00
  0.00000000E+00  0.00000000E+00  0.00000000E+00
  0.00000000E+00  0.00000000E+00  0.00000000E+00
  0.00000000E+00  0.00000000E+00  0.00000000E+00
  0.00000000E+00  0.00000000E+00  0.00000000E+00
  0.00000000E+00  0.00000000E+00  0.00000000E+00
  0.00000000E+00  0.00000000E+00  0.00000000E+00
  0.00000000E+00  0.00000000E+00  0.00000000E+00
  0.00000000E+00  0.00000000E+00  0.00000000E+00
  0.00000000E+00  0.00000000E+00  0.00000000E+00
  0.00000000E+00  0.00000000E+00  0.00000000E+00
