Generated by VASPKIT code               
   1.00000000000000     
     9.4858414393382713   -0.0014688101430830    0.0000000000000000
    -4.7440899798482858    9.1947958717938505    0.0000000000000000
     0.0000000000000012    0.0000000000000024   19.7174667862242003
   C 
    44
Direct
  0.9347227506277491  0.3896541188312881  0.5303180807286978
  0.8506257795606231  0.2380763516419364  0.5586406407424107
  0.9075292934036625  0.3951794391122476  0.4594503038202191
  0.7157361844861754  0.1790366473104967  0.5042998165646182
  0.7603240570603660  0.2618028171070748  0.4439202628936485
  0.8809651215109753  0.5159133003202214  0.4453121656323020
  0.7337498013195187  0.4674993498685822  0.4125892280811101
  0.6523219747474869  0.3046723237029951  0.4135373697577549
  0.8794650266777850  0.5905311930137955  0.5127829301324880
  0.8963422372470831  0.4889537221858902  0.5646305513213719
  0.7825632732682664  0.4080200043700586  0.6154252494011700
  0.7111050872084874  0.5904928990674847  0.5127961085589519
  0.5926968092716010  0.4888851705029680  0.5646554814436158
  0.6255773910785933  0.4079930771125788  0.6154354969389146
  0.6349592036503040  0.5158730388934387  0.4453259281864845
  0.5908231222903666  0.1816006462137878  0.6065512272764977
  0.7575365121329654  0.2590332103893118  0.6186755224981013
  0.5015330092740911  0.2589630042798561  0.6186947584597746
  0.3874839762181352  0.2380116003796431  0.5586581754052489
  0.4549837764804465  0.3895589256119862  0.5303454381021879
  0.4876235533960198  0.3950788799911749  0.4594767007070928
  0.5669324526090804  0.1338425453965115  0.5344645782698407
  0.4632866864636469  0.1789761251344970  0.5043135520891511
  0.5014286400158880  0.2617434041760589  0.4439308633904417
  0.2092951186409735  0.1376619955354528  0.5448951395908779
  0.1604500633291153  0.1716946546556528  0.4758388174869665
  0.1882874525782938  0.9845570826878358  0.5264686445891655
  0.1703911556768389  0.9567424871585288  0.4547171087549913
  0.1583404507364747  0.0762378937249224  0.4222662290141770
  0.0606515237642498  0.8730576400463974  0.5588963944703522
  0.9656250430966935  0.7559766139278565  0.5080867337106270
  0.0378857224546323  0.8195173140221073  0.4401623683114622
  0.9700999136045638  0.9401816456598766  0.5884201979150134
  0.8123729825817350  0.8730115133968326  0.5589232140366107
  0.7902969968640861  0.7559345044886570  0.5081078366399154
  0.0476010647240557  0.0951842608033289  0.5817858047262874
  0.9283637615049258  0.1376600049080565  0.5449126359624898
  0.7961820903955754  0.9844857955025006  0.5265226174317021
  0.0112018028318559  0.1716565886384203  0.4758522182503881
  0.9177550830370649  0.0761842106405695  0.4222943151404550
  0.7862020357335453  0.9566510358687950  0.4547709903104575
  0.7814802854099270  0.8194666215957085  0.4402023795183041
  0.9295199929291869  0.8592011015451746  0.4051844866400387
  0.0076897401068976  0.0155372405794907  0.3889259555874816
 
  0.00000000E+00  0.00000000E+00  0.00000000E+00
  0.00000000E+00  0.00000000E+00  0.00000000E+00
  0.00000000E+00  0.00000000E+00  0.00000000E+00
  0.00000000E+00  0.00000000E+00  0.00000000E+00
  0.00000000E+00  0.00000000E+00  0.00000000E+00
  0.00000000E+00  0.00000000E+00  0.00000000E+00
  0.00000000E+00  0.00000000E+00  0.00000000E+00
  0.00000000E+00  0.00000000E+00  0.00000000E+00
  0.00000000E+00  0.00000000E+00  0.00000000E+00
  0.00000000E+00  0.00000000E+00  0.00000000E+00
  0.00000000E+00  0.00000000E+00  0.00000000E+00
  0.00000000E+00  0.00000000E+00  0.00000000E+00
  0.00000000E+00  0.00000000E+00  0.00000000E+00
  0.00000000E+00  0.00000000E+00  0.00000000E+00
  0.00000000E+00  0.00000000E+00  0.00000000E+00
  0.00000000E+00  0.00000000E+00  0.00000000E+00
  0.00000000E+00  0.00000000E+00  0.00000000E+00
  0.00000000E+00  0.00000000E+00  0.00000000E+00
  0.00000000E+00  0.00000000E+00  0.00000000E+00
  0.00000000E+00  0.00000000E+00  0.00000000E+00
  0.00000000E+00  0.00000000E+00  0.00000000E+00
  0.00000000E+00  0.00000000E+00  0.00000000E+00
  0.00000000E+00  0.00000000E+00  0.00000000E+00
  0.00000000E+00  0.00000000E+00  0.00000000E+00
  0.00000000E+00  0.00000000E+00  0.00000000E+00
  0.00000000E+00  0.00000000E+00  0.00000000E+00
  0.00000000E+00  0.00000000E+00  0.00000000E+00
  0.00000000E+00  0.00000000E+00  0.00000000E+00
  0.00000000E+00  0.00000000E+00  0.00000000E+00
  0.00000000E+00  0.00000000E+00  0.00000000E+00
  0.00000000E+00  0.00000000E+00  0.00000000E+00
  0.00000000E+00  0.00000000E+00  0.00000000E+00
  0.00000000E+00  0.00000000E+00  0.00000000E+00
  0.00000000E+00  0.00000000E+00  0.00000000E+00
  0.00000000E+00  0.00000000E+00  0.00000000E+00
  0.00000000E+00  0.00000000E+00  0.00000000E+00
  0.00000000E+00  0.00000000E+00  0.00000000E+00
  0.00000000E+00  0.00000000E+00  0.00000000E+00
  0.00000000E+00  0.00000000E+00  0.00000000E+00
  0.00000000E+00  0.00000000E+00  0.00000000E+00
  0.00000000E+00  0.00000000E+00  0.00000000E+00
  0.00000000E+00  0.00000000E+00  0.00000000E+00
  0.00000000E+00  0.00000000E+00  0.00000000E+00
  0.00000000E+00  0.00000000E+00  0.00000000E+00
