Generated by VASPKIT code               
   1.00000000000000     
    15.4028846657406966   -0.3860639482681501    0.0000000000000000
    -0.3817633550233814   15.4253649214680824    0.0000000000000000
     0.0000000000000012    0.0000000000000012   19.7108157959866581
   C 
   128
Direct
  0.3942847841709707  0.4684891644001823  0.5946296432951712
  0.0440490769659050  0.0358702082742610  0.6073961271553543
  0.4751324192664939  0.4551787067829309  0.6282235761898107
  0.9529665342271016  0.0148291448324755  0.6074676848315761
  0.3928902699385688  0.5584403456013121  0.5688588974944579
  0.0854753366006662  0.9662479516512761  0.5738177872318744
  0.5310452771592296  0.5321847221854696  0.6099229875478684
  0.9379232864419649  0.9398951138202563  0.5634139917088774
  0.4770859713469378  0.5925541720221545  0.5727481687680012
  0.0205508277906929  0.9096893685184426  0.5440880384223519
  0.3547172786683603  0.5604358958404205  0.4986320559639523
  0.1532706283471796  0.9959340037008531  0.5232794354143735
  0.4300135568923906  0.6068030171250669  0.4602339783224068
  0.1271596331983460  0.9411990139212350  0.4612917525025182
  0.5077009063776075  0.6392204733556923  0.5075689134806538
  0.0467109243716592  0.8758493188302126  0.4747868650509375
  0.3681761384118616  0.4626526397983781  0.4799767001353601
  0.1109303739798619  0.0825525635698341  0.5055021074189057
  0.3830184327277451  0.4114811717784406  0.5400654875404030
  0.0548611501944762  0.1088811767692945  0.5589547107819968
  0.4531366137293773  0.3423573380888030  0.5440263506525085
  0.9750291334204988  0.1414578229037033  0.5394072937960388
  0.4223639714100145  0.4597445106232172  0.4231647272039467
  0.0940317855359112  0.0862984503008235  0.4362242490549093
  0.4985669739942935  0.4087298894911910  0.4247097948029364
  0.0115975499979797  0.1140189714126763  0.4145560300943600
  0.5148162474261611  0.3587967898735087  0.4830150508671025
  0.9502377887746931  0.1568224147727904  0.4643724496950270
  0.4576744544080285  0.5521137774709004  0.4112167259259536
  0.1036353652853137  0.9961351509819139  0.4105067858086002
  0.5945948310547635  0.4060671375189955  0.5780602275940083
  0.8508062492252719  0.0483799775209590  0.5206206258265809
  0.5118000736512300  0.3792464543479639  0.6038934523803192
  0.9124340641864990  0.0813165082623115  0.5688447609116452
  0.5964285079411269  0.3863795103209853  0.5078345278236185
  0.8724313397742236  0.0876414673207293  0.4591427497579375
  0.6437352300641379  0.4535122878466566  0.4638636093094561
  0.8880927004581451  0.0250809764090718  0.4087460572925821
  0.5778326251044135  0.4637629922658562  0.4071138692832719
  0.9698383671516737  0.0468268296850667  0.3760637571051220
  0.5505719860247353  0.5474476890315572  0.4121805366547235
  0.0220645592787108  0.9711721261671968  0.3784870766691526
  0.6068122798771682  0.5024057637040826  0.5800975269180597
  0.8596983384086769  0.9480536590832358  0.5153871818209197
  0.6269660487759481  0.5315171264023775  0.5107070578894195
  0.8975102118584388  0.9426294071769021  0.4426126284633938
  0.5812124674963286  0.5900150989638746  0.4757708059635206
  0.9789541058196605  0.9105661032289447  0.4239000416511445
  0.8324633419540675  0.4083135188269011  0.5512797459544672
  0.1531623728685005  0.6177814897204783  0.5732125867351598
  0.5929544622494447  0.8158521365340263  0.6148678925434723
  0.4042240820813063  0.1389357974538044  0.6347833464084687
  0.8986970253416615  0.3443408376262980  0.5513504476177005
  0.0873065897268290  0.6817924910463020  0.5677258462264803
  0.6688398593698679  0.8758308997458855  0.6175690653019004
  0.3435990123707100  0.0633969328429629  0.6311067388400318
  0.7618262340454223  0.3732450391221462  0.5126460719927408
  0.2323560564507403  0.6540134696897724  0.5459104292983525
  0.6136489285987494  0.7429700277389486  0.5748886857050550
  0.3645415170764963  0.2107087438564221  0.6045337124586254
  0.7821967333047581  0.2897506295958365  0.4885313546937553
  0.2138453064985129  0.7386338627581495  0.5215366697500343
  0.7011226259683099  0.7596888192997540  0.5521479587989333
  0.2820282199703996  0.1773156998454510  0.5797007462790589
  0.8659410203632589  0.2717911619813620  0.5133023762413700
  0.1260628556425871  0.7573928670877663  0.5366591857380598
  0.7375519261344436  0.8395823557866748  0.5803089406925750
  0.2667311781511899  0.0878903287071040  0.5978829800914127
  0.7376686344523051  0.4333188768700893  0.4544777522974428
  0.2650025845753774  0.5955386494388364  0.4886488635986410
  0.5478707160766092  0.7307290903409651  0.5152566080870926
  0.4218306143679911  0.2480131599671793  0.5458858160555309
  0.7651812000533980  0.3785009600047573  0.3935709767490607
  0.2485214048334967  0.6549510027302361  0.4271182098747275
  0.6106751221416147  0.7565693169228211  0.4565509089667756
  0.3661678975678200  0.2183124399289582  0.4845889196875746
  0.7861256146274371  0.2933533287619312  0.4144117304888155
  0.2237947075500273  0.7391399992962846  0.4479633807998198
  0.6992136488293141  0.7679433532372286  0.4786024257900294
  0.2834793031081873  0.1828702555897195  0.5058366282780042
  0.8177379714323152  0.5005933306020935  0.4582988883052295
  0.1836528172603025  0.5306929064069905  0.4812169196068155
  0.4984947733147536  0.8152393419820285  0.5227647088196647
  0.4916569732639076  0.1768726306396502  0.5433238002249539
  0.8736311076266077  0.4900088820520381  0.4020587269534417
  0.1397900283293367  0.5441266493538421  0.4190133588619815
  0.5210284369310330  0.8713623218932796  0.4682869512865935
  0.4832269913761138  0.1282206372803998  0.4825391877086531
  0.8420693748569263  0.4164761310492651  0.3633828166825595
  0.1784567933721988  0.6196853343906881  0.3868466653141240
  0.5881147667402971  0.8365957788422946  0.4277890964969302
  0.4069573107091529  0.1527071675340252  0.4473636926175075
  0.8665402249851510  0.4845383258863478  0.5175770285129389
  0.1246113916351845  0.5430655669951250  0.5345911116371198
  0.5237629739466598  0.8591198664720991  0.5832963948052310
  0.4820925382333883  0.1192907725294745  0.5989838513850785
  0.9629085865936560  0.4770426804750727  0.5034600250314156
  0.0321856114063692  0.5517450503910624  0.5092303242158067
  0.5482463937721178  0.9551090275660954  0.5722806241389407
  0.4782287937883893  0.0240587846549758  0.5768047754595784
  0.9689321027499105  0.4803407060161220  0.4225161724364241
  0.0418584776233146  0.5531874409270401  0.4283252955071930
  0.5470595917023928  0.9630410755487517  0.4913111753465174
  0.4782834049932774  0.0308757388606793  0.4958558435356863
  0.9745164846484755  0.3809173166620283  0.5186249437071382
  0.0179393335539970  0.6468178426736628  0.5260262382224283
  0.6455568358002566  0.9571840517486692  0.5886904383931579
  0.3831657326245477  0.9978588563297848  0.5923060437614964
  0.9923308711775860  0.3315827418864430  0.4596831282773692
  0.0111648309062247  0.6994339450979439  0.4674161767261182
  0.6972103464324277  0.9714886174370108  0.5300344972549951
  0.3328098672582414  0.9778919861652540  0.5336408695005517
  0.9808312723623089  0.3858601674451236  0.4028153139339921
  0.0335714790925437  0.6487320513849610  0.4106972676149212
  0.6427685097005948  0.9694631653864079  0.4719555760457226
  0.3842956527809065  0.0064275298870484  0.4774543499473438
  0.9082286008762708  0.3522873911684172  0.3636759864803381
  0.1128687467824818  0.6841640441056640  0.3814790518706559
  0.6638479859386095  0.8966964739550676  0.4311058313068941
  0.3466167793954469  0.0770070641942837  0.4434694802396919
  0.8723489552885795  0.2747515122989128  0.3935090917540123
  0.1420479786541193  0.7590088068532665  0.4184674639706714
  0.7334973684545503  0.8526364919768170  0.4610349600179688
  0.2712946926962871  0.0968837663686557  0.4798140753675710
  0.9270171071401094  0.2496610909619363  0.4551316813805926
  0.0745977023439579  0.7823571828615812  0.4727683220342627
  0.7689977200487021  0.9028160161158922  0.5236672686886479
  0.2474802358377843  0.0287237923761907  0.5352759197253221
 
  0.00000000E+00  0.00000000E+00  0.00000000E+00
  0.00000000E+00  0.00000000E+00  0.00000000E+00
  0.00000000E+00  0.00000000E+00  0.00000000E+00
  0.00000000E+00  0.00000000E+00  0.00000000E+00
  0.00000000E+00  0.00000000E+00  0.00000000E+00
  0.00000000E+00  0.00000000E+00  0.00000000E+00
  0.00000000E+00  0.00000000E+00  0.00000000E+00
  0.00000000E+00  0.00000000E+00  0.00000000E+00
  0.00000000E+00  0.00000000E+00  0.00000000E+00
  0.00000000E+00  0.00000000E+00  0.00000000E+00
  0.00000000E+00  0.00000000E+00  0.00000000E+00
  0.00000000E+00  0.00000000E+00  0.00000000E+00
  0.00000000E+00  0.00000000E+00  0.00000000E+00
  0.00000000E+00  0.00000000E+00  0.00000000E+00
  0.00000000E+00  0.00000000E+00  0.00000000E+00
  0.00000000E+00  0.00000000E+00  0.00000000E+00
  0.00000000E+00  0.00000000E+00  0.00000000E+00
  0.00000000E+00  0.00000000E+00  0.00000000E+00
  0.00000000E+00  0.00000000E+00  0.00000000E+00
  0.00000000E+00  0.00000000E+00  0.00000000E+00
  0.00000000E+00  0.00000000E+00  0.00000000E+00
  0.00000000E+00  0.00000000E+00  0.00000000E+00
  0.00000000E+00  0.00000000E+00  0.00000000E+00
  0.00000000E+00  0.00000000E+00  0.00000000E+00
  0.00000000E+00  0.00000000E+00  0.00000000E+00
  0.00000000E+00  0.00000000E+00  0.00000000E+00
  0.00000000E+00  0.00000000E+00  0.00000000E+00
  0.00000000E+00  0.00000000E+00  0.00000000E+00
  0.00000000E+00  0.00000000E+00  0.00000000E+00
  0.00000000E+00  0.00000000E+00  0.00000000E+00
  0.00000000E+00  0.00000000E+00  0.00000000E+00
  0.00000000E+00  0.00000000E+00  0.00000000E+00
  0.00000000E+00  0.00000000E+00  0.00000000E+00
  0.00000000E+00  0.00000000E+00  0.00000000E+00
  0.00000000E+00  0.00000000E+00  0.00000000E+00
  0.00000000E+00  0.00000000E+00  0.00000000E+00
  0.00000000E+00  0.00000000E+00  0.00000000E+00
  0.00000000E+00  0.00000000E+00  0.00000000E+00
  0.00000000E+00  0.00000000E+00  0.00000000E+00
  0.00000000E+00  0.00000000E+00  0.00000000E+00
  0.00000000E+00  0.00000000E+00  0.00000000E+00
  0.00000000E+00  0.00000000E+00  0.00000000E+00
  0.00000000E+00  0.00000000E+00  0.00000000E+00
  0.00000000E+00  0.00000000E+00  0.00000000E+00
  0.00000000E+00  0.00000000E+00  0.00000000E+00
  0.00000000E+00  0.00000000E+00  0.00000000E+00
  0.00000000E+00  0.00000000E+00  0.00000000E+00
  0.00000000E+00  0.00000000E+00  0.00000000E+00
  0.00000000E+00  0.00000000E+00  0.00000000E+00
  0.00000000E+00  0.00000000E+00  0.00000000E+00
  0.00000000E+00  0.00000000E+00  0.00000000E+00
  0.00000000E+00  0.00000000E+00  0.00000000E+00
  0.00000000E+00  0.00000000E+00  0.00000000E+00
  0.00000000E+00  0.00000000E+00  0.00000000E+00
  0.00000000E+00  0.00000000E+00  0.00000000E+00
  0.00000000E+00  0.00000000E+00  0.00000000E+00
  0.00000000E+00  0.00000000E+00  0.00000000E+00
  0.00000000E+00  0.00000000E+00  0.00000000E+00
  0.00000000E+00  0.00000000E+00  0.00000000E+00
  0.00000000E+00  0.00000000E+00  0.00000000E+00
  0.00000000E+00  0.00000000E+00  0.00000000E+00
  0.00000000E+00  0.00000000E+00  0.00000000E+00
  0.00000000E+00  0.00000000E+00  0.00000000E+00
  0.00000000E+00  0.00000000E+00  0.00000000E+00
  0.00000000E+00  0.00000000E+00  0.00000000E+00
  0.00000000E+00  0.00000000E+00  0.00000000E+00
  0.00000000E+00  0.00000000E+00  0.00000000E+00
  0.00000000E+00  0.00000000E+00  0.00000000E+00
  0.00000000E+00  0.00000000E+00  0.00000000E+00
  0.00000000E+00  0.00000000E+00  0.00000000E+00
  0.00000000E+00  0.00000000E+00  0.00000000E+00
  0.00000000E+00  0.00000000E+00  0.00000000E+00
  0.00000000E+00  0.00000000E+00  0.00000000E+00
  0.00000000E+00  0.00000000E+00  0.00000000E+00
  0.00000000E+00  0.00000000E+00  0.00000000E+00
  0.00000000E+00  0.00000000E+00  0.00000000E+00
  0.00000000E+00  0.00000000E+00  0.00000000E+00
  0.00000000E+00  0.00000000E+00  0.00000000E+00
  0.00000000E+00  0.00000000E+00  0.00000000E+00
  0.00000000E+00  0.00000000E+00  0.00000000E+00
  0.00000000E+00  0.00000000E+00  0.00000000E+00
  0.00000000E+00  0.00000000E+00  0.00000000E+00
  0.00000000E+00  0.00000000E+00  0.00000000E+00
  0.00000000E+00  0.00000000E+00  0.00000000E+00
  0.00000000E+00  0.00000000E+00  0.00000000E+00
  0.00000000E+00  0.00000000E+00  0.00000000E+00
  0.00000000E+00  0.00000000E+00  0.00000000E+00
  0.00000000E+00  0.00000000E+00  0.00000000E+00
  0.00000000E+00  0.00000000E+00  0.00000000E+00
  0.00000000E+00  0.00000000E+00  0.00000000E+00
  0.00000000E+00  0.00000000E+00  0.00000000E+00
  0.00000000E+00  0.00000000E+00  0.00000000E+00
  0.00000000E+00  0.00000000E+00  0.00000000E+00
  0.00000000E+00  0.00000000E+00  0.00000000E+00
  0.00000000E+00  0.00000000E+00  0.00000000E+00
  0.00000000E+00  0.00000000E+00  0.00000000E+00
  0.00000000E+00  0.00000000E+00  0.00000000E+00
  0.00000000E+00  0.00000000E+00  0.00000000E+00
  0.00000000E+00  0.00000000E+00  0.00000000E+00
  0.00000000E+00  0.00000000E+00  0.00000000E+00
  0.00000000E+00  0.00000000E+00  0.00000000E+00
  0.00000000E+00  0.00000000E+00  0.00000000E+00
  0.00000000E+00  0.00000000E+00  0.00000000E+00
  0.00000000E+00  0.00000000E+00  0.00000000E+00
  0.00000000E+00  0.00000000E+00  0.00000000E+00
  0.00000000E+00  0.00000000E+00  0.00000000E+00
  0.00000000E+00  0.00000000E+00  0.00000000E+00
  0.00000000E+00  0.00000000E+00  0.00000000E+00
  0.00000000E+00  0.00000000E+00  0.00000000E+00
  0.00000000E+00  0.00000000E+00  0.00000000E+00
  0.00000000E+00  0.00000000E+00  0.00000000E+00
  0.00000000E+00  0.00000000E+00  0.00000000E+00
  0.00000000E+00  0.00000000E+00  0.00000000E+00
  0.00000000E+00  0.00000000E+00  0.00000000E+00
  0.00000000E+00  0.00000000E+00  0.00000000E+00
  0.00000000E+00  0.00000000E+00  0.00000000E+00
  0.00000000E+00  0.00000000E+00  0.00000000E+00
  0.00000000E+00  0.00000000E+00  0.00000000E+00
  0.00000000E+00  0.00000000E+00  0.00000000E+00
  0.00000000E+00  0.00000000E+00  0.00000000E+00
  0.00000000E+00  0.00000000E+00  0.00000000E+00
  0.00000000E+00  0.00000000E+00  0.00000000E+00
  0.00000000E+00  0.00000000E+00  0.00000000E+00
  0.00000000E+00  0.00000000E+00  0.00000000E+00
  0.00000000E+00  0.00000000E+00  0.00000000E+00
  0.00000000E+00  0.00000000E+00  0.00000000E+00
  0.00000000E+00  0.00000000E+00  0.00000000E+00
  0.00000000E+00  0.00000000E+00  0.00000000E+00
