C 
 1.0000000000000000
    13.7841822161698140    0.0000000000000000    0.0000000000000000
    -6.8920911080849159   11.9374519695967418    0.0000000000000000
     0.0000000000000000    0.0000000000000000   16.0000000000000000
 C  
 128
Direct
  0.4057456856749698  0.8636946521164580  0.5104743784766119
  0.4990216174829197  0.8463035514951723  0.4987714014146022
  0.3326865702480040  0.8247873843238395  0.4394874221960790
  0.4715385711599042  0.7728683600675831  0.4243477254352748
  0.3699540118922061  0.7595956329902509  0.3882075381433555
  0.2203672490727372  0.7469769088687417  0.4646567082351176
  0.1776667447890074  0.6438423211497313  0.4194068052668559
  0.2752128580127315  0.6491688992640954  0.3758484549593856
  0.2272398389050934  0.7192507948414432  0.5532840697794220
  0.3406308469306359  0.7906566242043148  0.5812942314940235
  0.4033430896428568  0.7423304782677224  0.6159662597722114
  0.1764478063976633  0.5994331239237246  0.5599477430416795
  0.2391141066972187  0.5511171647388849  0.5946266409463228
  0.3525283911496201  0.6225231380822178  0.6226268944202591
  0.1369806693415076  0.5506376101670062  0.4755190986983945
  0.5101344243514847  0.6874482682473367  0.5377538785083736
  0.5086011456126918  0.7847769697946585  0.5672545999413490
  0.4251848437830436  0.5884136449126846  0.5781325209161046
  0.3551114356558046  0.5065159342147562  0.5177434993384067
  0.2397586234286085  0.4717246737831082  0.5323482434487650
  0.1887134628237931  0.4849235530347739  0.4584363677824131
  0.4783630937126521  0.6757169565428207  0.4481946175249009
  0.3836107701210677  0.5652752774139226  0.4359318274910200
  0.2820361431137808  0.5520260775547584  0.3997529880440670
  0.5743150925732854  0.3003777472301803  0.5801859708657210
  0.5139329045849255  0.3236750193487221  0.5179776852642338
  0.6523521730556351  0.2740023630209104  0.5420975028620971
  0.5392945794819572  0.2884983279732526  0.4370696987978290
  0.6236629255485646  0.2580386345936602  0.4517766006081357
  0.6349406000779151  0.1684418003660929  0.5716385798290398
  0.6188667451205787  0.0948432047689510  0.5031344780129681
  0.6034060277709139  0.1486957166094199  0.4279868922482157
  0.5272408720983047  0.1161186596106828  0.6179353602557891
  0.4901821522325951  0.1968356455578063  0.6231593260236787
  0.3810119327174651  0.1689629230364939  0.5925007092713981
  0.4551275156602248  0.0074262072213444  0.5820614830412877
  0.3459873391586549 -0.0204572132113178  0.5514351888960308
  0.3089235730430789  0.0602716002445947  0.5566409668707141
  0.5169196007203841 -0.0096982797814756  0.5128864077925526
  0.3428185174805194  0.1946301651478650  0.4551404040250955
  0.3956194571479807  0.2549506014096176  0.5300251355146934
  0.2775829562290423  0.0767766270318326  0.4712853830803236
  0.3092811078423336  0.0154523540182216  0.4162369343874748
  0.3382304338263861 -0.0551670614704369  0.4628005667775020
  0.4476982614614773 -0.0342893065180942  0.4403285121328896
  0.4346228258279165  0.2095853102490017  0.3986313840452084
  0.4142725962216023  0.1001904691765145  0.3749090362285649
  0.4986892747125808  0.0697664700354141  0.3895957981348390
 -0.0923660229745687  0.1113879186138272  0.5478980607146759
 -0.1185598488457654  0.1483130925126266  0.4703833975998434
 -0.0834545318205387  0.0142535485375853  0.5293750716848808
 -0.1042249427763789 -0.0083390052248294  0.4405023784817034
 -0.1218254334628030  0.0774358916597942  0.4011346776248511
 -0.1671215960635419 -0.0810656253723849  0.5777393398813804
 -0.2436858341574318 -0.1588787164218773  0.5150209577938397
 -0.2035858140510911 -0.1157138623612360  0.4315987778069679
 -0.2318883935370089 -0.0385996614196888  0.6200935002747960
 -0.3486858498645209 -0.0982084613896188  0.5938635603376973
 -0.3519421066519737 -0.1690953197246484  0.5246386114757993
 -0.1820356169458320  0.0818461572959966  0.6087972623414215
 -0.2669246768583614  0.0949279820743360  0.5634223917364741
 -0.3663033209153613 -0.0124393569882391  0.5545135432278937
 -0.2268112428586802  0.1381001333457771  0.4800202905900843
 -0.3033774706382787  0.0602958979703960  0.4173032739322919
 -0.3870551308121618 -0.0350376207500091  0.4656456341400354
 -0.3781375369857215 -0.1321756049879807  0.4471240260319183
 -0.2884641013923568 -0.1026244805495908  0.3862126314548814
 -0.2386285454763073  0.0178284766242644  0.3749161284230846
 -0.0740736119814554 -0.2509278986671759  0.5732942350165028
 -0.0570314002572595 -0.3022197430078960  0.4996014291649812
 -0.1055729487372986 -0.1715491779103070  0.5453937568993503
 -0.1077940513936469 -0.1741994199063560  0.4545939915904233
 -0.0822780784394470 -0.2590474257085665  0.4241386851819863
 -0.0230133143902290 -0.0596224064859158  0.5747276411892043
  0.0299655500047584  0.0031797727204485  0.4984681943467170
 -0.0237485376669687 -0.0658367443410344  0.4254910761072568
  0.0633249859496737 -0.0747080123825906  0.6149621696236610
  0.1707502374398240 -0.0110468770990080  0.5727079389971180
  0.1454972600704143  0.0321394866798578  0.4972680896863100
  0.0297805911092431 -0.1927623214550791  0.6215163258065295
  0.1122226215667400 -0.2042391687305139  0.5713764806195150
  0.1962872376928707 -0.0958818943275782  0.5422677305720518
  0.0585001554283483 -0.2732584092272634  0.4984208776595049
  0.1114830711255581 -0.2104633756627738  0.4221635570930942
  0.1940463772237329 -0.0985286059211106  0.4514736188545395
  0.1625401962951644 -0.0191472372131080  0.4235746211206876
  0.0586808515725420 -0.0773252935321841  0.3753420226552711
  0.0251560336508827 -0.1953832975940886  0.3818952011876960
 -0.1113696490398763  0.3854608919714904  0.6226527320239024
 -0.2217479219108814  0.3265544093771964  0.5845023372443319
 -0.0645122174639163  0.5025806039503901  0.6050460371918112
 -0.1461931504790179  0.5154090300299722  0.5560822853296983
 -0.2478444998190722  0.4066473955326694  0.5452327148566031
  0.0391244160848132  0.5425875833352440  0.5573312362561049
  0.0145029449320491  0.5729455035381336  0.4756743050217653
 -0.0971883777446209  0.5590587869876968  0.4758544792663788
  0.0464902987131212  0.4424219293913586  0.5414405817596090
  0.0426982984729708  0.4193511065776031  0.4523229615803998
  0.0166346292993819  0.4994612927682547  0.4130660855202138
 -0.0394684303878541  0.3461822617851670  0.5868768466050038
 -0.1079245246771418  0.2669543935033042  0.5217079454714810
 -0.0589327962370439  0.3105820072114338  0.4414688578270110
 -0.2195976654116050  0.2530691242659122  0.5219047388345874
 -0.2442239124743183  0.2834154599101817  0.4402485921428638
 -0.1406022754184395  0.3234312062476830  0.3925170084588376
 -0.0937401167046158  0.4405597018077437  0.3749138609407260
 -0.1656599887685980  0.4798312843133233  0.4106890751732389
 -0.2516261615297705  0.3835701298497377  0.4561161666115215
  0.5934763536235126  0.5423975955911400  0.6231836319996205
  0.5514428826301371  0.4365195506968155  0.5793752689135034
  0.5536920453376712  0.6067460471969504  0.5796043168548775
  0.4873038920275306  0.5402814725921778  0.5090765753404186
  0.4804613423562361  0.4308901658280494  0.5094211541589252
  0.6493199017262725  0.7113193816919178  0.5499819340414023
  0.6426142511000823  0.7022420606983071  0.4588379982022260
  0.5424408287083544  0.5995085734078699  0.4341817362889335
  0.7468478018679480  0.7017863259454634  0.5716594310956006
  0.8084942202002987  0.7027009416434326  0.4974746026303221
  0.7375247914434840  0.6971029308824165  0.4275349207081661
  0.7160116329146924  0.6033943939686691  0.6230769564732132
  0.7465324303135815  0.5341143785135557  0.5727239617834279
  0.8016803485885136  0.5933269302041900  0.4978229660432177
  0.6463672794247802  0.4313959058506279  0.5480871331851476
  0.6396659232363646  0.4223121833128127  0.4569466001313294
  0.7352804225340506  0.5268751771631526  0.4273019926411319
  0.6954917968961227  0.5912290858107716  0.3837241575224903
  0.5729440192992820  0.5302143632734374  0.3838276909839906
  0.5421227812481753  0.4318128274576047  0.4352422353019954
