C                                       
   1.00000000000000     
     9.7982763883719617   -0.0678190707448687    0.0000000000000000
    -4.9511745123340454    8.4644356018365627    0.0000000000000000
     0.0000000000000000    0.0000000000000000   16.0000000000000000
   C 
    68
Direct
  0.7106091846850154  0.3918587609567790  0.6541937229018258
  0.5434644220363805  0.3066175075253482  0.6217979632771707
  0.7704371243298085  0.2933838263313200  0.6316090481179714
  0.5130790178389382  0.1627527043999691  0.5805812079230197
  0.6496385016586620  0.1592226687308202  0.5831818777051498
  0.9187166919641123  0.3752375469819643  0.5793597697303963
  0.8808747728935907  0.2706785100534751  0.5016177857659256
  0.7068495862195284  0.1308525891021294  0.5015960301294584
  0.9170054516727750  0.5267134733264357  0.5509448944938997
  0.7895429043081105  0.5451824181691747  0.5988669126406695
  0.6362840222579583  0.4580285779969170  0.5471458571476235
  0.9169675100729824  0.5266845406915761  0.4522515430685041
  0.7894237871350894  0.5451729053733851  0.4043841200096487
  0.6362916370195802  0.4581700162897875  0.4562279136124526
  0.9185934474293317  0.3751135463635091  0.4239086831241602
  0.3866356592624500  0.2721607620684816  0.5016346724487686
  0.4663443308475556  0.3846996914884646  0.5791659909064427
  0.4664298107587511  0.3846209580507242  0.4242342127518642
  0.5432677837683938  0.3064771270818215  0.3814573531999281
  0.7104353088047047  0.3918798294210198  0.3491591954604052
  0.7703120557837201  0.2933972693159790  0.3716707380601579
  0.4226158509262256  0.1341421833640742  0.5016408168335811
  0.5130214007117631  0.1627571417833857  0.4226864556499054
  0.6495918176067492  0.1593319516117956  0.4200930771268821
  0.7541561636546490  0.0054544294198960  0.5014226946515643
  0.7162959806137803  0.9008776260579056  0.4236885885851684
  0.7164572245362753  0.9010472925427169  0.5791649166906574
  0.7179711072785756  0.7494091841124162  0.4521345377058300
  0.7180045381018307  0.7494530536942450  0.5508356319196642
  0.8647504264950168  0.9828051925110191  0.6313880326066723
  0.9245710772366061  0.8842959750616695  0.6539274194906600
  0.8455413940556366  0.7309549865325308  0.5987006369726371
  0.9854593353562522  0.1168357887215091  0.5829319535625154
  0.9281811801944098  0.1453047390061630  0.5014417472925268
  0.9853545939291225  0.1168982771957288  0.4198343283298354
  0.1219620037593442  0.1133024825192105  0.5803312138470850
  0.2123671945989192  0.1419349857739902  0.5013960586102307
  0.1218746231062819  0.1133200232903188  0.4224508039037047
  0.0916880274460217  0.9695693423633966  0.6215531212138432
  0.9243487366351314  0.8841952662113263  0.3488459792182506
  0.8645506033339699  0.9827013806840789  0.3714155988530965
  0.0914827086422251  0.9694468150401379  0.3812541084959397
  0.1686381579419357  0.8914065164538065  0.4238971348290289
  0.2483529667976415  0.0039100007691722  0.5014047928343437
  0.1686032359728042  0.8914603126345665  0.5788236327433983
  0.8454324278110322  0.7309231330026694  0.4042237862630303
  0.9987098373788508  0.8181647115756052  0.4559149378286883
  0.9986973209866331  0.8180197626612850  0.5468649286373903
  0.3522666088468721  0.7199765354512058  0.6257404724289717
  0.2829204416666101  0.5567800523518098  0.6259273202064519
  0.2378255549606023  0.7743737916852582  0.5815774831862384
  0.1003190151302058  0.6175193679319561  0.5512226916266098
  0.1153562455944227  0.4777554764359346  0.5812505567334595
  0.3293115582217629  0.8224448072226757  0.5013685683659758
  0.2376778964456759  0.7739952317190393  0.4212136609081376
  0.1002327628972117  0.6173171859585400  0.4518577537122312
  0.4719907327607867  0.8409911897362292  0.5013895621602239
  0.5196164349871953  0.7983362481896518  0.4218311408633583
  0.3520584581396985  0.7192832963577733  0.3771739598160133
  0.5197728509031168  0.7987430676618449  0.5810392791575746
  0.5347393026519116  0.6587920681518858  0.5512355012131552
  0.5346493615825326  0.6585857431774121  0.4518693688475500
  0.3973308342135441  0.5021024308573205  0.5818672357437432
  0.3056834934965755  0.4536334483333793  0.5017190904458733
  0.3972011526940988  0.5017117086646000  0.4215145583893146
  0.2827260003661994  0.5560883066490124  0.3773527697903584
  0.1152200574032633  0.4773799666293252  0.4220497782900381
  0.1630252157232479  0.4351287182377883  0.5016971965433038
 
  0.00000000E+00  0.00000000E+00  0.00000000E+00
  0.00000000E+00  0.00000000E+00  0.00000000E+00
  0.00000000E+00  0.00000000E+00  0.00000000E+00
  0.00000000E+00  0.00000000E+00  0.00000000E+00
  0.00000000E+00  0.00000000E+00  0.00000000E+00
  0.00000000E+00  0.00000000E+00  0.00000000E+00
  0.00000000E+00  0.00000000E+00  0.00000000E+00
  0.00000000E+00  0.00000000E+00  0.00000000E+00
  0.00000000E+00  0.00000000E+00  0.00000000E+00
  0.00000000E+00  0.00000000E+00  0.00000000E+00
  0.00000000E+00  0.00000000E+00  0.00000000E+00
  0.00000000E+00  0.00000000E+00  0.00000000E+00
  0.00000000E+00  0.00000000E+00  0.00000000E+00
  0.00000000E+00  0.00000000E+00  0.00000000E+00
  0.00000000E+00  0.00000000E+00  0.00000000E+00
  0.00000000E+00  0.00000000E+00  0.00000000E+00
  0.00000000E+00  0.00000000E+00  0.00000000E+00
  0.00000000E+00  0.00000000E+00  0.00000000E+00
  0.00000000E+00  0.00000000E+00  0.00000000E+00
  0.00000000E+00  0.00000000E+00  0.00000000E+00
  0.00000000E+00  0.00000000E+00  0.00000000E+00
  0.00000000E+00  0.00000000E+00  0.00000000E+00
  0.00000000E+00  0.00000000E+00  0.00000000E+00
  0.00000000E+00  0.00000000E+00  0.00000000E+00
  0.00000000E+00  0.00000000E+00  0.00000000E+00
  0.00000000E+00  0.00000000E+00  0.00000000E+00
  0.00000000E+00  0.00000000E+00  0.00000000E+00
  0.00000000E+00  0.00000000E+00  0.00000000E+00
  0.00000000E+00  0.00000000E+00  0.00000000E+00
  0.00000000E+00  0.00000000E+00  0.00000000E+00
  0.00000000E+00  0.00000000E+00  0.00000000E+00
  0.00000000E+00  0.00000000E+00  0.00000000E+00
  0.00000000E+00  0.00000000E+00  0.00000000E+00
  0.00000000E+00  0.00000000E+00  0.00000000E+00
  0.00000000E+00  0.00000000E+00  0.00000000E+00
  0.00000000E+00  0.00000000E+00  0.00000000E+00
  0.00000000E+00  0.00000000E+00  0.00000000E+00
  0.00000000E+00  0.00000000E+00  0.00000000E+00
  0.00000000E+00  0.00000000E+00  0.00000000E+00
  0.00000000E+00  0.00000000E+00  0.00000000E+00
  0.00000000E+00  0.00000000E+00  0.00000000E+00
  0.00000000E+00  0.00000000E+00  0.00000000E+00
  0.00000000E+00  0.00000000E+00  0.00000000E+00
  0.00000000E+00  0.00000000E+00  0.00000000E+00
  0.00000000E+00  0.00000000E+00  0.00000000E+00
  0.00000000E+00  0.00000000E+00  0.00000000E+00
  0.00000000E+00  0.00000000E+00  0.00000000E+00
  0.00000000E+00  0.00000000E+00  0.00000000E+00
  0.00000000E+00  0.00000000E+00  0.00000000E+00
  0.00000000E+00  0.00000000E+00  0.00000000E+00
  0.00000000E+00  0.00000000E+00  0.00000000E+00
  0.00000000E+00  0.00000000E+00  0.00000000E+00
  0.00000000E+00  0.00000000E+00  0.00000000E+00
  0.00000000E+00  0.00000000E+00  0.00000000E+00
  0.00000000E+00  0.00000000E+00  0.00000000E+00
  0.00000000E+00  0.00000000E+00  0.00000000E+00
  0.00000000E+00  0.00000000E+00  0.00000000E+00
  0.00000000E+00  0.00000000E+00  0.00000000E+00
  0.00000000E+00  0.00000000E+00  0.00000000E+00
  0.00000000E+00  0.00000000E+00  0.00000000E+00
  0.00000000E+00  0.00000000E+00  0.00000000E+00
  0.00000000E+00  0.00000000E+00  0.00000000E+00
  0.00000000E+00  0.00000000E+00  0.00000000E+00
  0.00000000E+00  0.00000000E+00  0.00000000E+00
  0.00000000E+00  0.00000000E+00  0.00000000E+00
  0.00000000E+00  0.00000000E+00  0.00000000E+00
  0.00000000E+00  0.00000000E+00  0.00000000E+00
  0.00000000E+00  0.00000000E+00  0.00000000E+00
