C 
 1.0000000000000000
     9.0519292403844691    0.0000000000000000    0.0000000000000000
    -4.5259646201922399    7.8392006754321262    0.0000000000000000
     0.0000000000000000    0.0000000000000000   16.0000000000000000
 C  
  68
Direct
  0.7436436800502321  0.3653128383421068  0.6441876160041808
  0.5611014758084273  0.2780915109226494  0.6398606771054578
  0.8084993447067172  0.2657235732371171  0.6064183351561528
  0.5111956851344451  0.1324889147849740  0.5820060795823089
  0.6621741495411186  0.1250214099107140  0.5614938695820384
  0.9320675190916107  0.3624712529599891  0.5435909208390961
  0.8876231309353013  0.2732422241362717  0.4653885470662815
  0.7106642155131119  0.1294988553397630  0.4754082026535572
  0.9199228171062118  0.5182362918674528  0.5300471883362377
  0.8046770832129316  0.5199491649385529  0.5915874493622755
  0.6582730355166865  0.5312613437667599  0.5656572632153973
  0.8888744379313385  0.5278862184279994  0.4425069955469612
  0.7425622826563167  0.5392439393740778  0.4165801316619636
  0.6272733368937358  0.5409231005127729  0.4781220278063330
  0.8814423436138837  0.3782758845828811  0.4001257004279952
  0.3936875112801395  0.2978585516626807  0.5326410761855214
  0.5038431059452894  0.3838045908495757  0.6018925543868090
  0.4532499360480655  0.3996506583890427  0.4584088310847054
  0.4728516017841269  0.3055164753773257  0.3916239089365373
  0.6417959179598330  0.3969117142826566  0.3578297478293964
  0.7202741022958291  0.2931222636389029  0.3581215314160638
  0.4087631612576606  0.1445717562708894  0.5164365215478285
  0.4572875901187247  0.1492348995429087  0.4303450085838002
  0.6082605355982659  0.1416945668819375  0.4098478283355431
 -0.2525547857777874  0.0029386307219779  0.5376338866782697
 -0.2970343443069666 -0.0863154376904735  0.4594638973499450
 -0.2464184528475311 -0.1021324498549773  0.6029224752299251
 -0.2848967660681372 -0.2420974009431808  0.4730390579699142
 -0.2537892979355365 -0.2516904203170298  0.5605636548152348
 -0.0852210877966884 -0.0170016882834269  0.6448713939623023
 -0.0067722545065151 -0.1208242615259664  0.6452750820374544
 -0.1075701842390079 -0.2632086946601077  0.5865570334556324
  0.0267604454001609  0.1344375486869312  0.5931443069806749
 -0.0756207825888998  0.1466111351621003  0.5275618489738148
 -0.0272044688945187  0.1511571817146694  0.4414378292853831
  0.1777040627631373  0.1268480005644959  0.5726502459762590
  0.2261418037449440  0.1314408152055570  0.4865651088632899
  0.1237381106795974  0.1435808517980744  0.4209679112125901
  0.1621491580915590 -0.0294468976495711  0.6114338389851672
 -0.1086775808664577 -0.0892281712788161  0.3588795562280018
 -0.1735675428614097  0.0103821899535462  0.3965791100148841
  0.0738575803874805 -0.0020251871035752  0.3631477026595775
  0.1310280241112113 -0.1077792493909198  0.4012148994698872
  0.2412220098024425 -0.0218591348062954  0.4704247959028259
  0.1817289105790897 -0.1236334962353810  0.5446948699242158
 -0.1697118647855828 -0.2438847836861467  0.4114997670749653
 -0.0233759781185492 -0.2552199822035455  0.4374591266488477
  0.0076645674393711 -0.2648822676007062  0.5250015891301242
  0.3950262934899370  0.7245015623591855  0.6182346980264728
  0.3004049215276585  0.5392110110691609  0.6160503180547717
  0.2853556786651281  0.7834816729627996  0.5863937453307487
  0.1235463078040050  0.6342887479859217  0.5646807765244123
  0.1268111073771200  0.4787725408847288  0.5859877807305259
  0.3630527889374369  0.8882722387046813  0.5121100268444425
  0.2480736397941098  0.7911739503186116  0.4436928773514294
  0.1004128260458888  0.6390666567303354  0.4761854771414359
  0.5158066047762582  0.8768482341602278  0.4973342679183748
  0.5081779845592885  0.7973419838582978  0.4171157439174400
  0.3346134719885033  0.7369598414541834  0.3870551233125036
  0.5469521223146566  0.7893610636711464  0.5655285292209430
  0.5346074586891778  0.6370996357071149  0.5269143984061559
  0.5114825010583182  0.6418488584974279  0.4384129182147217
  0.3869786141452630  0.4850305645803243  0.5594169960924599
  0.2720097132992843  0.3879254737043563  0.4910021587338356
  0.3496644868011481  0.4926828568384991  0.4167071825388398
  0.2399894420507274  0.5516729874969302  0.3848679589075098
  0.0880456595019382  0.4867871130431040  0.4375790013842537
  0.1192080203093838  0.3992806011120930  0.5057673954672350
