Generated by VASPKIT code               
   1.00000000000000     
    11.5196796050017447    0.0135165752284393    0.0000000000000000
    -5.7471142851179300   10.5807050035422705    0.0000000000000000
     0.0000000000000012    0.0000000000000022   19.7144090584244509
   C 
    84
Direct
  0.2368126233414500  0.1701566717592655  0.4567817428229759
  0.2441945856737959  0.0770528278246516  0.5035468647850934
  0.1596745642283182  0.0833232888537836  0.4021230743692925
  0.1609951818002244  0.9320173493904917  0.4900106257025101
  0.1104020862583468  0.9495472525863917  0.4200798984798766
  0.0471616473380934  0.1000614652622431  0.3903854156339719
  0.9357602600572648  0.9775219991847450  0.3777218542722736
  0.9741854670354755  0.8844515736508143  0.4037237193804089
  0.0253170396255484  0.1726740970083114  0.4421422522342766
  0.1487892665792501  0.2205040035447183  0.4921396941277223
  0.1157270907094201  0.1485601760913369  0.5586747714074605
  0.8749614974786866  0.0882610336868552  0.4656653766485732
  0.8857772109112645  0.0382174650398284  0.5339402146777275
  0.9835478905587038  0.0710067847844087  0.5805380954090467
  0.8383360504259016  0.9712762758934090  0.4219507996153666
  0.0918876267512090  0.9522262235011425  0.5986314619482656
  0.1816217504063715  0.0773317680619172  0.5696424748812063
  0.9709965931930782  0.9515666655393815  0.6090951309003856
  0.8579036127936135  0.8513900790988131  0.5755845785300338
  0.7764909075463038  0.9045416336584111  0.5359566614406077
  0.7920961734095613  0.8678131859760612  0.4650087880845817
  0.0629937144341923  0.8448500380357444  0.5447043246733969
  0.9190530206571594  0.8068630724660224  0.5274988056482215
  0.8836157663310686  0.8220019122199105  0.4602091370730079
  0.5754170325148635  0.4856480369261931  0.5874470740374704
  0.4898528510026381  0.1013841617446900  0.5770784476192858
  0.8948852929736972  0.3853703714559558  0.5773142097834238
  0.6824029053596234  0.5184306833878054  0.5346127073889448
  0.4835499647204813  0.1725449091114513  0.5146935558270158
  0.8127783516204161  0.3120532524841835  0.5153571602894402
  0.4641017611255407  0.3736013247884102  0.5716915982452520
  0.6165347148744900  0.1005878324718736  0.5771931852604197
  0.9008131224360341  0.5024388205926158  0.5860849372195105
  0.4823917650268967  0.3021534402015433  0.5116642416757315
  0.7032800482450057  0.1725796495475578  0.5162334915884941
  0.8204879969785708  0.5259358682768251  0.5340202457358743
  0.6231865176767855  0.4059787506985089  0.4819695176008381
  0.5954845185508404  0.1739988787548725  0.4742953915950281
  0.7677069505885612  0.4100872308144332  0.4823981674154183
  0.3506962167973100  0.3983552245097712  0.5662936186025291
  0.5951890298534011  0.9777689844308242  0.5834020303836525
  0.0396998341906283  0.6035174676778965  0.5871375738168751
  0.2789229767091896  0.3526345126420978  0.5008405181726019
  0.6578135531182738  0.9337655548665396  0.5294258674510743
  0.0659163316802918  0.7095663423995475  0.5370885866138266
  0.3668616246453453  0.2995946056662646  0.4620598958777933
  0.7278388317613746  0.0687852909781768  0.4787010600601889
  0.9355195760883674  0.6352768138861293  0.4977426671378495
  0.3903848433553918  0.5258972966674520  0.5775289004194235
  0.4506617257440624  0.8999798554236378  0.5846672463364442
  0.1196201725241437  0.5464173357289823  0.5774325019390432
  0.3543957113963430  0.5880563515042496  0.5189381496326959
  0.4184321568247285  0.8285861600411835  0.5275568682415610
  0.2163784933129591  0.5964955197839927  0.5185785199641089
  0.2926636348724614  0.4745649101755021  0.4660813477547663
  0.5307416606856137  0.8292046389704737  0.4893045113844963
  0.1812834369704532  0.7019283275082771  0.4871429286531352
  0.5308377695969426  0.5826489268598607  0.5885625941430206
  0.3844641530593123  0.9773900772131796  0.5809429997567079
  0.0318425443979464  0.4122299001331768  0.5704172795982032
  0.5899618177918100  0.6642020182031629  0.5350210741650727
  0.2961293334711357  0.9367029106185996  0.5152067160095939
  0.0480899158542840  0.3788170842379444  0.5044838996914507
  0.4983515301976809  0.6883457248976086  0.4883928327093017
  0.3115093637922115  0.8299705593766120  0.4836543974238907
  0.1628669415427524  0.4828855651062725  0.4664631522772851
  0.6684177787218673  0.6214017959546254  0.4982662094116819
  0.3653103250039536  0.0653445548846534  0.4804242485203361
  0.9281202861612385  0.3323138361703357  0.4680029626270681
  0.6199798294763212  0.5908726944791098  0.4328573065132346
  0.4172039490136825  0.0256301189580412  0.4174849108568921
  0.9480101439760773  0.4147511240423967  0.4130454334962508
  0.5093088957126568  0.6181932710667013  0.4257820944877651
  0.3965169574182141  0.9010405162144295  0.4226755664858217
  0.0886103377848286  0.5131903991836637  0.4133084380649521
  0.3999462143163015  0.5019452404367968  0.4149666927227997
  0.5235375104338473  0.9018404266457907  0.4271946451586643
  0.0922785406723747  0.6271766183091785  0.4273033462108629
  0.4417750960464133  0.4029733327076386  0.4128431654590798
  0.6259452399075798  0.0243314431496842  0.4220802531748902
  0.9545191217754336  0.5999101725229963  0.4337577237304444
  0.5777908451937321  0.4585718905318146  0.4230199880088392
  0.5607600739629390  0.1029007255800636  0.4169851297199685
  0.8637202529493635  0.4680138252790869  0.4225289913368897
 
  0.00000000E+00  0.00000000E+00  0.00000000E+00
  0.00000000E+00  0.00000000E+00  0.00000000E+00
  0.00000000E+00  0.00000000E+00  0.00000000E+00
  0.00000000E+00  0.00000000E+00  0.00000000E+00
  0.00000000E+00  0.00000000E+00  0.00000000E+00
  0.00000000E+00  0.00000000E+00  0.00000000E+00
  0.00000000E+00  0.00000000E+00  0.00000000E+00
  0.00000000E+00  0.00000000E+00  0.00000000E+00
  0.00000000E+00  0.00000000E+00  0.00000000E+00
  0.00000000E+00  0.00000000E+00  0.00000000E+00
  0.00000000E+00  0.00000000E+00  0.00000000E+00
  0.00000000E+00  0.00000000E+00  0.00000000E+00
  0.00000000E+00  0.00000000E+00  0.00000000E+00
  0.00000000E+00  0.00000000E+00  0.00000000E+00
  0.00000000E+00  0.00000000E+00  0.00000000E+00
  0.00000000E+00  0.00000000E+00  0.00000000E+00
  0.00000000E+00  0.00000000E+00  0.00000000E+00
  0.00000000E+00  0.00000000E+00  0.00000000E+00
  0.00000000E+00  0.00000000E+00  0.00000000E+00
  0.00000000E+00  0.00000000E+00  0.00000000E+00
  0.00000000E+00  0.00000000E+00  0.00000000E+00
  0.00000000E+00  0.00000000E+00  0.00000000E+00
  0.00000000E+00  0.00000000E+00  0.00000000E+00
  0.00000000E+00  0.00000000E+00  0.00000000E+00
  0.00000000E+00  0.00000000E+00  0.00000000E+00
  0.00000000E+00  0.00000000E+00  0.00000000E+00
  0.00000000E+00  0.00000000E+00  0.00000000E+00
  0.00000000E+00  0.00000000E+00  0.00000000E+00
  0.00000000E+00  0.00000000E+00  0.00000000E+00
  0.00000000E+00  0.00000000E+00  0.00000000E+00
  0.00000000E+00  0.00000000E+00  0.00000000E+00
  0.00000000E+00  0.00000000E+00  0.00000000E+00
  0.00000000E+00  0.00000000E+00  0.00000000E+00
  0.00000000E+00  0.00000000E+00  0.00000000E+00
  0.00000000E+00  0.00000000E+00  0.00000000E+00
  0.00000000E+00  0.00000000E+00  0.00000000E+00
  0.00000000E+00  0.00000000E+00  0.00000000E+00
  0.00000000E+00  0.00000000E+00  0.00000000E+00
  0.00000000E+00  0.00000000E+00  0.00000000E+00
  0.00000000E+00  0.00000000E+00  0.00000000E+00
  0.00000000E+00  0.00000000E+00  0.00000000E+00
  0.00000000E+00  0.00000000E+00  0.00000000E+00
  0.00000000E+00  0.00000000E+00  0.00000000E+00
  0.00000000E+00  0.00000000E+00  0.00000000E+00
  0.00000000E+00  0.00000000E+00  0.00000000E+00
  0.00000000E+00  0.00000000E+00  0.00000000E+00
  0.00000000E+00  0.00000000E+00  0.00000000E+00
  0.00000000E+00  0.00000000E+00  0.00000000E+00
  0.00000000E+00  0.00000000E+00  0.00000000E+00
  0.00000000E+00  0.00000000E+00  0.00000000E+00
  0.00000000E+00  0.00000000E+00  0.00000000E+00
  0.00000000E+00  0.00000000E+00  0.00000000E+00
  0.00000000E+00  0.00000000E+00  0.00000000E+00
  0.00000000E+00  0.00000000E+00  0.00000000E+00
  0.00000000E+00  0.00000000E+00  0.00000000E+00
  0.00000000E+00  0.00000000E+00  0.00000000E+00
  0.00000000E+00  0.00000000E+00  0.00000000E+00
  0.00000000E+00  0.00000000E+00  0.00000000E+00
  0.00000000E+00  0.00000000E+00  0.00000000E+00
  0.00000000E+00  0.00000000E+00  0.00000000E+00
  0.00000000E+00  0.00000000E+00  0.00000000E+00
  0.00000000E+00  0.00000000E+00  0.00000000E+00
  0.00000000E+00  0.00000000E+00  0.00000000E+00
  0.00000000E+00  0.00000000E+00  0.00000000E+00
  0.00000000E+00  0.00000000E+00  0.00000000E+00
  0.00000000E+00  0.00000000E+00  0.00000000E+00
  0.00000000E+00  0.00000000E+00  0.00000000E+00
  0.00000000E+00  0.00000000E+00  0.00000000E+00
  0.00000000E+00  0.00000000E+00  0.00000000E+00
  0.00000000E+00  0.00000000E+00  0.00000000E+00
  0.00000000E+00  0.00000000E+00  0.00000000E+00
  0.00000000E+00  0.00000000E+00  0.00000000E+00
  0.00000000E+00  0.00000000E+00  0.00000000E+00
  0.00000000E+00  0.00000000E+00  0.00000000E+00
  0.00000000E+00  0.00000000E+00  0.00000000E+00
  0.00000000E+00  0.00000000E+00  0.00000000E+00
  0.00000000E+00  0.00000000E+00  0.00000000E+00
  0.00000000E+00  0.00000000E+00  0.00000000E+00
  0.00000000E+00  0.00000000E+00  0.00000000E+00
  0.00000000E+00  0.00000000E+00  0.00000000E+00
  0.00000000E+00  0.00000000E+00  0.00000000E+00
  0.00000000E+00  0.00000000E+00  0.00000000E+00
  0.00000000E+00  0.00000000E+00  0.00000000E+00
  0.00000000E+00  0.00000000E+00  0.00000000E+00
