C                                       
   1.00000000000000     
    11.0851551155344126    0.8704628101383348    0.0000000000000000
     0.8661496462128778   11.0909563721242588    0.0000000000000000
     0.0000000000000000    0.0000000000000000   16.0000000000000000
   C 
    64
Direct
  0.1846778409088051  0.9943692109123228  0.5373999827880528
  0.1293123102334060  0.0681248197211713  0.5988596979568743
  0.1486301875415138  0.8773722341391599  0.5352551407045367
  0.0277708423890460  0.0004125819181457  0.6225957074747968
  0.0478629180664501  0.8742816201165997  0.5862608071576997
  0.1248846741660251  0.8535742134258933  0.4489709369992833
  0.0074222199896958  0.8186003571624766  0.4468413982598995
  0.9565827947192814  0.8097425737980625  0.5360680601974911
  0.1284137684977978  0.9540533902332550  0.3977978436335988
  0.1928172341241440  0.0455466151041230  0.4479187151195813
  0.1048907598990436  0.1682840764881466  0.4597114810428432
  0.0024168267246821  0.9741637805390786  0.3610389924818954
  0.9255419625205821  0.0825475210645059  0.3698459244536584
  0.9747362186085810  0.1766278432361412  0.4192709226065263
  0.9340979325152878  0.8729677132446901  0.3850950590205740
  0.9435595221743076  0.2005472680701430  0.5766239254432276
  0.0805589843079295  0.1873558300237698  0.5592395511271603
  0.8819487397350794  0.2045752056540050  0.4922712932441876
  0.7980341242911654  0.1208340075578977  0.4906358500538942
  0.8020238845467268  0.0587159216405174  0.4065610645061090
  0.8146263345342770  0.9218341164650442  0.4245327352847322
  0.9194191614969197  0.0774580522153955  0.6135344594767126
  0.8255466309571196  0.0284450777169341  0.5639975847826315
  0.8334727296086831  0.8979132429331620  0.5241192670678737
  0.9910634069834443  0.5489797873858426  0.5851635711718234
  0.0981382340594171  0.4662045011087110  0.5597687425390117
  0.8896031150559729  0.4856113930494393  0.5843391948054661
  0.9315440980274955  0.3524894949988112  0.5648969461183988
  0.0715290255568644  0.3355396779079210  0.5475638552116499
  0.8043629293282403  0.5394014377234315  0.5215960053928529
  0.7889845888459635  0.4545958613465273  0.4568374010003736
  0.8695696381821555  0.3386679193380455  0.4792806287146990
  0.8509082240725608  0.6423579036733900  0.4844611752303887
  0.8715044889767065  0.6209105770818638  0.3996427687491316
  0.8368696087749412  0.5013288263134700  0.3821501032248716
  0.9659641526024489  0.6663528042130695  0.5297020904272646
  0.0636804341157358  0.6248654548031746  0.4617938009082667
  0.0051630514472228  0.6044558199573530  0.3876015151103151
  0.1405088220173333  0.5096226140605229  0.4832348891412472
  0.1390771048526804  0.4234973593446230  0.4166324762663484
  0.0491840801397716  0.4826580672840773  0.3588978577719811
  0.9441823833556922  0.4227240168123551  0.3547994131109496
  0.9672330038964996  0.3161656067089738  0.4105059974806812
  0.0942746148916746  0.3119707957388387  0.4516127023769282
  0.5353624258779396  0.9052159020132059  0.4244502796523295
  0.6662756620419721  0.9315200880482499  0.4362573589732404
  0.4529697501454634  0.0121330658933004  0.3984985685980594
  0.5167155743414785  0.1133477291740410  0.3986177250951592
  0.6498023356058513  0.0712618579254379  0.4182096436575933
  0.3357794496222261  0.0381653488571546  0.4538916380100280
  0.3598710877208256  0.1538871256222620  0.4983036320961180
  0.4631225124985330  0.1995314367939367  0.4608105583977294
  0.3766978875950025  0.9417155571661789  0.5224733830594448
  0.3976068086236939  0.0013125286149720  0.5961672800601832
  0.3812153956651336  0.1346429549552987  0.5833339038984545
  0.4917434117139761  0.8640300892226083  0.5013399367676266
  0.5778706608224826  0.8660159658335979  0.5677980871008935
  0.5190532020834552  0.9569461719204262  0.6251021439146685
  0.6896634438975612  0.9096599730937340  0.5323183856625652
  0.6859008419907243  0.0371332643800317  0.5726991922235295
  0.5794825637512754  0.0615604151952471  0.6284456265748584
  0.5011557509891226  0.1688314960182890  0.6004540640043858
  0.5481232268525774  0.2153831191331530  0.5254445360053623
  0.6638351720889550  0.1340167722010376  0.5034888437915618
 
  0.00000000E+00  0.00000000E+00  0.00000000E+00
  0.00000000E+00  0.00000000E+00  0.00000000E+00
  0.00000000E+00  0.00000000E+00  0.00000000E+00
  0.00000000E+00  0.00000000E+00  0.00000000E+00
  0.00000000E+00  0.00000000E+00  0.00000000E+00
  0.00000000E+00  0.00000000E+00  0.00000000E+00
  0.00000000E+00  0.00000000E+00  0.00000000E+00
  0.00000000E+00  0.00000000E+00  0.00000000E+00
  0.00000000E+00  0.00000000E+00  0.00000000E+00
  0.00000000E+00  0.00000000E+00  0.00000000E+00
  0.00000000E+00  0.00000000E+00  0.00000000E+00
  0.00000000E+00  0.00000000E+00  0.00000000E+00
  0.00000000E+00  0.00000000E+00  0.00000000E+00
  0.00000000E+00  0.00000000E+00  0.00000000E+00
  0.00000000E+00  0.00000000E+00  0.00000000E+00
  0.00000000E+00  0.00000000E+00  0.00000000E+00
  0.00000000E+00  0.00000000E+00  0.00000000E+00
  0.00000000E+00  0.00000000E+00  0.00000000E+00
  0.00000000E+00  0.00000000E+00  0.00000000E+00
  0.00000000E+00  0.00000000E+00  0.00000000E+00
  0.00000000E+00  0.00000000E+00  0.00000000E+00
  0.00000000E+00  0.00000000E+00  0.00000000E+00
  0.00000000E+00  0.00000000E+00  0.00000000E+00
  0.00000000E+00  0.00000000E+00  0.00000000E+00
  0.00000000E+00  0.00000000E+00  0.00000000E+00
  0.00000000E+00  0.00000000E+00  0.00000000E+00
  0.00000000E+00  0.00000000E+00  0.00000000E+00
  0.00000000E+00  0.00000000E+00  0.00000000E+00
  0.00000000E+00  0.00000000E+00  0.00000000E+00
  0.00000000E+00  0.00000000E+00  0.00000000E+00
  0.00000000E+00  0.00000000E+00  0.00000000E+00
  0.00000000E+00  0.00000000E+00  0.00000000E+00
  0.00000000E+00  0.00000000E+00  0.00000000E+00
  0.00000000E+00  0.00000000E+00  0.00000000E+00
  0.00000000E+00  0.00000000E+00  0.00000000E+00
  0.00000000E+00  0.00000000E+00  0.00000000E+00
  0.00000000E+00  0.00000000E+00  0.00000000E+00
  0.00000000E+00  0.00000000E+00  0.00000000E+00
  0.00000000E+00  0.00000000E+00  0.00000000E+00
  0.00000000E+00  0.00000000E+00  0.00000000E+00
  0.00000000E+00  0.00000000E+00  0.00000000E+00
  0.00000000E+00  0.00000000E+00  0.00000000E+00
  0.00000000E+00  0.00000000E+00  0.00000000E+00
  0.00000000E+00  0.00000000E+00  0.00000000E+00
  0.00000000E+00  0.00000000E+00  0.00000000E+00
  0.00000000E+00  0.00000000E+00  0.00000000E+00
  0.00000000E+00  0.00000000E+00  0.00000000E+00
  0.00000000E+00  0.00000000E+00  0.00000000E+00
  0.00000000E+00  0.00000000E+00  0.00000000E+00
  0.00000000E+00  0.00000000E+00  0.00000000E+00
  0.00000000E+00  0.00000000E+00  0.00000000E+00
  0.00000000E+00  0.00000000E+00  0.00000000E+00
  0.00000000E+00  0.00000000E+00  0.00000000E+00
  0.00000000E+00  0.00000000E+00  0.00000000E+00
  0.00000000E+00  0.00000000E+00  0.00000000E+00
  0.00000000E+00  0.00000000E+00  0.00000000E+00
  0.00000000E+00  0.00000000E+00  0.00000000E+00
  0.00000000E+00  0.00000000E+00  0.00000000E+00
  0.00000000E+00  0.00000000E+00  0.00000000E+00
  0.00000000E+00  0.00000000E+00  0.00000000E+00
  0.00000000E+00  0.00000000E+00  0.00000000E+00
  0.00000000E+00  0.00000000E+00  0.00000000E+00
  0.00000000E+00  0.00000000E+00  0.00000000E+00
  0.00000000E+00  0.00000000E+00  0.00000000E+00
