C 
 1.0000000000000000
    10.2052768298163024    0.0000000000000000    0.0000000000000000
     0.0000000000000000   10.2052768298163006    0.0000000000000000
     0.0000000000000000    0.0000000000000000   16.0000000000000000
 C  
  88
Direct
  0.1517063437524649  0.1138005734532454  0.5871761935802325
  0.1512347279826925 -0.0206703508972315  0.6129901759832974
  0.1972811312692464  0.1259436370494018  0.5028580276036099
  0.1725847955898961 -0.0987910948405596  0.5359460332845529
  0.2005244466534337 -0.0093475373304151  0.4686928577872951
  0.1041463707701640  0.1959435751515178  0.4530422094783550
  0.0686147646846239  0.1216276808481108  0.3804722282884920
  0.1221160992805170 -0.0118729338929973  0.3938829182962763
 -0.0165570694000236  0.2059502065252757  0.5043639671875940
  0.0125614576677050  0.1557102549964639  0.5864038209497398
 -0.0649681244018652  0.0509798162567336  0.6209893979972729
 -0.1232790208814946  0.1515110306131717  0.4568427408742939
 -0.2008082545560708  0.0468489959108391  0.4914167207293855
 -0.1716784272364422 -0.0034236757447631  0.5734597867677311
 -0.0706721966658523  0.1068937190239275  0.3750725042702679
 -0.0227628947289800 -0.1709054770065174  0.6006650229908922
  0.0249265530374895 -0.0576749538137774  0.6439357504849155
 -0.1499292925568566 -0.1467051179203842  0.5659575493927812
 -0.1514963790578167 -0.1751689270672520  0.4783254477498090
 -0.1975029018854717 -0.0644594918857046  0.4318327476890014
 -0.1054879140944770 -0.0285671450340833  0.3681334630316292
  0.0661660814420159 -0.1907010938816423  0.5284237044571597
 -0.0123610769890404 -0.1931783835445001  0.4536659430022371
  0.0156407803241408 -0.1037433069688582  0.3863985873881789
  0.6310113017299169  0.5023703065336097  0.6189545755765360
  0.6352574355701619  0.3678150031063965  0.6444473624554884
  0.5022486123052181  0.5374518579516425  0.5912284605788024
  0.5101843627941394  0.3088304252737604  0.6157329471605872
  0.4290435009250907  0.4122959403144366  0.5831502181222270
  0.5069387957800096  0.5924145417760778  0.5089728662692580
  0.4202597133626804  0.5237733683174534  0.4537147757803170
  0.3788151847948856  0.4040976865675440  0.4992066681624111
  0.6412537602671811  0.5672640533057896  0.4772687759593867
  0.7171232869310414  0.5121980572460506  0.5445514396013872
  0.7819684909254250  0.3879825848379344  0.5337809707173273
  0.6301978575594360  0.4981583803343634  0.3991344933079191
  0.6950427637574027  0.3740111393752526  0.3883520201811622
  0.7709030582619316  0.3189154202070593  0.4556448685562375
  0.4886964887524083  0.4793558163927122  0.3808984499013822
  0.6859322645726408  0.1853437212340142  0.5604195872948379
  0.7372588691199898  0.2990066759600859  0.6014796203154581
  0.7190310275735192  0.1859600872266573  0.4733797042301069
  0.6040501303965194  0.1716940110627844  0.4228951018878799
  0.5949993579779235  0.2760993874926351  0.3633885345566416
  0.4709850519578090  0.3413199386727423  0.3696224365344444
  0.5411922788062047  0.1972027319136210  0.5643520149877658
  0.4911063278759816  0.1890165667060644  0.4803752702232680
  0.4099109240605822  0.2924899032221679  0.4478164048701969
  0.5135446549918005 -0.1042133847817823  0.6560262291702563
  0.5032538286454035  0.0215420278822498  0.6139456004360719
  0.6266006104701045 -0.1701633582935048  0.6231953031441991
  0.6855469143836341 -0.0848014864311610  0.5609770527273428
  0.6132870393212073  0.0388028807113120  0.5563848892406392
  0.5861624596154541 -0.2935624445321328  0.5844804669802331
  0.6146362799572251 -0.2761984213164734  0.4955756372902486
  0.6781424142171532 -0.1505642436100297  0.4818337445200863
  0.4436636097257252 -0.2924637666576037  0.5895329947577085
  0.3841369075589015 -0.2932147324539757  0.5068229795356939
  0.4941732038300173 -0.2759912205122046  0.4492762181606373
  0.3965897923059278 -0.1829488375510045  0.6395537921460654
  0.3192788689517255 -0.1038856143555010  0.5813827909427901
  0.3118508019027276 -0.1696324653911929  0.5022308675528752
  0.3827795826974056  0.0217295819220270  0.5676594736190941
  0.4112419796370455  0.0391002057130218  0.4787569402215207
  0.3708202610802875 -0.0842845350911623  0.4400218647377979
  0.4838855582832217 -0.1502403982119356  0.4071933879124944
  0.6008445719396933 -0.0714835210260256  0.4236637642288870
  0.5537447118390127  0.0380411946903829  0.4736787009939372
  0.0015199572935193  0.3493543412856509  0.5552876960034051
 -0.0809409115844219  0.4626678872465471  0.5713380989293614
  0.1138011995443137  0.3588849524094266  0.6089662705603972
  0.1001280632459044  0.4780777660211169  0.6578874874138207
 -0.0241517832892234  0.5424535674558372  0.6381081776191954
  0.2326887483954972  0.3651945221964635  0.5580486890843671
  0.2856161624396468  0.4961201436478324  0.5736464613875253
  0.2066880424023178  0.5631807375284146  0.6359921016442949
  0.1853593287535897  0.3701815597593544  0.4722257704703615
  0.2230557686226176  0.4919327807244536  0.4313101594852332
  0.2798684233961852  0.5716827509159701  0.4980755731921787
  0.0443760131380790  0.3491939099431066  0.4680470950087336
 -0.0077581836324374  0.4711775777329175  0.4334176563138503
  0.0987868328434713  0.5563013723588037  0.4115106249707862
 -0.0866840959673815  0.5382043208650596  0.4957573448236461
 -0.0337672938231829  0.6691303993870803  0.5113496228398783
  0.0851264370867221  0.6754733261855637  0.4604436595743882
  0.1974138983470209  0.6849972261467129  0.5141268769163675
  0.1545421780299321  0.6851692404154071  0.6013740798177508
  0.0135465433554594  0.6641961422410934  0.5971812147457325
