C                                       
   1.00000000000000     
     8.6664155429761571    0.2193847325284425    0.0000000000000000
     0.2180091289986541    8.6684695938097835    0.0000000000000000
     0.0000000000000000    0.0000000000000000   16.0000000000000000
   C 
    44
Direct
  0.0464291275633791  0.7143710881908556  0.5318293900402699
  0.8947829144848261  0.6964010926765304  0.4891490511005164
  0.1650325813076383  0.7662613735410845  0.4715643898509642
  0.9141462175676835  0.8070923406732564  0.4146202544658187
  0.0687582091950397  0.8474780628700537  0.4057472820540319
  0.2533151954695440  0.8913999114760162  0.5200102683803799
  0.2222349490280130  0.0349759661816259  0.4643971199974367
  0.1110295710349721  0.0020935208529815  0.3988914035956087
  0.1427843222303163  0.9421619955319581  0.5910231609717603
  0.0275607936744270  0.8310638907519863  0.5964197164668149
  0.8696812776849586  0.8783306881694293  0.6068024555122831
  0.0914865451945212  0.1012270514282080  0.5857911228322921
  0.9324381937573621  0.1521774464588143  0.5918487849198238
  0.8219694601266965  0.0363408642187627  0.5971052644091353
  0.1545235750064723  0.1654077576313353  0.5079183288763390
  0.6865113754398192  0.9046350033254020  0.4896072519291013
  0.7841410572530887  0.7935197820310692  0.5444764368697196
  0.7047643852661324  0.0555546782542646  0.5329499399370951
  0.7550750485990541  0.1750752456634449  0.4729722793335808
  0.8804468823654660  0.2633516088917555  0.5212539314596267
  0.0234240034884348  0.2333703592066216  0.4650623753605114
  0.7963085574261418  0.9249591921456188  0.4150060060434247
  0.8359100911709041  0.0798592495976310  0.4065541315892416
  0.9901340441664118  0.1228008966791231  0.3992890924020336
  0.6301642361584375  0.4369962482560276  0.5985296223100159
  0.5857051140895665  0.5969203882964615  0.6045360961295482
  0.7531931563443321  0.4042053797852013  0.5274013857128064
  0.7702349054224459  0.5658607628648868  0.4855435913518109
  0.6663614935316738  0.6764297432114031  0.5417940929266809
  0.6468392579132086  0.3121701831622848  0.4633904760878889
  0.6106557705966038  0.4206767186809678  0.3921832570527706
  0.6747618185065996  0.5618047964478463  0.4071205938970762
  0.4884380467133043  0.2999081732394753  0.5031813458133237
  0.3722042862720371  0.3830623595316813  0.4521689550849927
  0.4444027215117791  0.4540239627001675  0.3851358794238336
  0.4853072456150305  0.3714135337847827  0.5816622963118001
  0.3595996027522351  0.4976373460516583  0.5811842111646156
  0.2883857627947525  0.5001141956243219  0.5024645303032422
  0.4256630566138943  0.6420214363988509  0.5977820906042792
  0.3940590690208255  0.7642904293776988  0.5262989087929942
  0.3022344386822788  0.6579131851228306  0.4621271854558098
  0.4116552186368564  0.6205519277776227  0.3915330854251781
  0.5529204767160167  0.6842909522263614  0.4067847631181830
  0.5562972330863738  0.7802952750614899  0.4851988544141188
 
  0.00000000E+00  0.00000000E+00  0.00000000E+00
  0.00000000E+00  0.00000000E+00  0.00000000E+00
  0.00000000E+00  0.00000000E+00  0.00000000E+00
  0.00000000E+00  0.00000000E+00  0.00000000E+00
  0.00000000E+00  0.00000000E+00  0.00000000E+00
  0.00000000E+00  0.00000000E+00  0.00000000E+00
  0.00000000E+00  0.00000000E+00  0.00000000E+00
  0.00000000E+00  0.00000000E+00  0.00000000E+00
  0.00000000E+00  0.00000000E+00  0.00000000E+00
  0.00000000E+00  0.00000000E+00  0.00000000E+00
  0.00000000E+00  0.00000000E+00  0.00000000E+00
  0.00000000E+00  0.00000000E+00  0.00000000E+00
  0.00000000E+00  0.00000000E+00  0.00000000E+00
  0.00000000E+00  0.00000000E+00  0.00000000E+00
  0.00000000E+00  0.00000000E+00  0.00000000E+00
  0.00000000E+00  0.00000000E+00  0.00000000E+00
  0.00000000E+00  0.00000000E+00  0.00000000E+00
  0.00000000E+00  0.00000000E+00  0.00000000E+00
  0.00000000E+00  0.00000000E+00  0.00000000E+00
  0.00000000E+00  0.00000000E+00  0.00000000E+00
  0.00000000E+00  0.00000000E+00  0.00000000E+00
  0.00000000E+00  0.00000000E+00  0.00000000E+00
  0.00000000E+00  0.00000000E+00  0.00000000E+00
  0.00000000E+00  0.00000000E+00  0.00000000E+00
  0.00000000E+00  0.00000000E+00  0.00000000E+00
  0.00000000E+00  0.00000000E+00  0.00000000E+00
  0.00000000E+00  0.00000000E+00  0.00000000E+00
  0.00000000E+00  0.00000000E+00  0.00000000E+00
  0.00000000E+00  0.00000000E+00  0.00000000E+00
  0.00000000E+00  0.00000000E+00  0.00000000E+00
  0.00000000E+00  0.00000000E+00  0.00000000E+00
  0.00000000E+00  0.00000000E+00  0.00000000E+00
  0.00000000E+00  0.00000000E+00  0.00000000E+00
  0.00000000E+00  0.00000000E+00  0.00000000E+00
  0.00000000E+00  0.00000000E+00  0.00000000E+00
  0.00000000E+00  0.00000000E+00  0.00000000E+00
  0.00000000E+00  0.00000000E+00  0.00000000E+00
  0.00000000E+00  0.00000000E+00  0.00000000E+00
  0.00000000E+00  0.00000000E+00  0.00000000E+00
  0.00000000E+00  0.00000000E+00  0.00000000E+00
  0.00000000E+00  0.00000000E+00  0.00000000E+00
  0.00000000E+00  0.00000000E+00  0.00000000E+00
  0.00000000E+00  0.00000000E+00  0.00000000E+00
  0.00000000E+00  0.00000000E+00  0.00000000E+00
